# vtk DataFile Version 3.0
Frame: 44, Time: 0.751
ASCII
DATASET UNSTRUCTURED_GRID
POINTS 64 double
0.0659566 0.104083 0 
0.0679754 0.129151 0 
0.090493 0.102416 0 
0.0919389 0.127402 0 
0.0673151 0.154925 0 
0.0699017 0.180349 0 
0.0929161 0.152535 0 
0.0954755 0.177965 0 
0.0694615 0.204944 0 
0.0720438 0.231197 0 
0.0965464 0.203352 0 
0.0979993 0.228391 0 
0.0783612 0.255541 0 
0.0802488 0.279736 0 
0.103837 0.253346 0 
0.105702 0.27832 0 
0.115101 0.101741 0 
0.11504 0.127006 0 
0.138303 0.0980532 0 
0.138369 0.123295 0 
0.116119 0.15243 0 
0.117457 0.177437 0 
0.141038 0.14848 0 
0.14187 0.172977 0 
0.119372 0.203084 0 
0.12128 0.228068 0 
0.144561 0.198682 0 
0.147182 0.22337 0 
0.126742 0.25303 0 
0.130463 0.280194 0 
0.151767 0.24901 0 
0.154557 0.274814 0 
0.161133 0.0935184 0 
0.160462 0.119882 0 
0.187723 0.0923782 0 
0.18493 0.118262 0 
0.16426 0.144982 0 
0.165258 0.169565 0 
0.189263 0.142649 0 
0.189614 0.167134 0 
0.168832 0.194653 0 
0.172168 0.219216 0 
0.192866 0.191933 0 
0.196206 0.215993 0 
0.176046 0.246376 0 
0.179105 0.271473 0 
0.199601 0.242018 0 
0.203572 0.267796 0 
0.212612 0.0887028 0 
0.2087 0.115973 0 
0.236407 0.0862212 0 
0.232869 0.112704 0 
0.213817 0.139488 0 
0.214427 0.163564 0 
0.239251 0.135283 0 
0.239984 0.160176 0 
0.217091 0.187814 0 
0.221138 0.212293 0 
0.242218 0.185933 0 
0.246766 0.210717 0 
0.223307 0.238354 0 
0.227084 0.262946 0 
0.248043 0.236718 0 
0.252647 0.261004 0 
CELLS 64 128
1 0
1 1
1 2
1 3
1 4
1 5
1 6
1 7
1 8
1 9
1 10
1 11
1 12
1 13
1 14
1 15
1 16
1 17
1 18
1 19
1 20
1 21
1 22
1 23
1 24
1 25
1 26
1 27
1 28
1 29
1 30
1 31
1 32
1 33
1 34
1 35
1 36
1 37
1 38
1 39
1 40
1 41
1 42
1 43
1 44
1 45
1 46
1 47
1 48
1 49
1 50
1 51
1 52
1 53
1 54
1 55
1 56
1 57
1 58
1 59
1 60
1 61
1 62
1 63
CELL_TYPES 64
1
1
1
1
1
1
1
1
1
1
1
1
1
1
1
1
1
1
1
1
1
1
1
1
1
1
1
1
1
1
1
1
1
1
1
1
1
1
1
1
1
1
1
1
1
1
1
1
1
1
1
1
1
1
1
1
1
1
1
1
1
1
1
1
POINT_DATA 64
VECTORS displacement double
-0.346543 -0.308417 0 
-0.344525 -0.308349 0 
-0.347007 -0.310084 0 
-0.345561 -0.310098 0 
-0.345185 -0.307575 0 
-0.342598 -0.307151 0 
-0.344584 -0.309965 0 
-0.342025 -0.309535 0 
-0.343039 -0.307556 0 
-0.340456 -0.306303 0 
-0.340954 -0.309148 0 
-0.339501 -0.309109 0 
-0.334139 -0.306959 0 
-0.332251 -0.307764 0 
-0.333663 -0.309154 0 
-0.331798 -0.30918 0 
-0.347399 -0.310759 0 
-0.34746 -0.310494 0 
-0.349197 -0.314447 0 
-0.349131 -0.314205 0 
-0.346381 -0.31007 0 
-0.345043 -0.310063 0 
-0.346462 -0.31402 0 
-0.34563 -0.314523 0 
-0.343128 -0.309416 0 
-0.34122 -0.309432 0 
-0.342939 -0.313818 0 
-0.340318 -0.31413 0 
-0.335758 -0.30947 0 
-0.332037 -0.307306 0 
-0.335733 -0.31349 0 
-0.332943 -0.312686 0 
-0.351367 -0.318982 0 
-0.352038 -0.317618 0 
-0.349777 -0.320122 0 
-0.35257 -0.319238 0 
-0.34824 -0.317518 0 
-0.347242 -0.317935 0 
-0.348237 -0.319851 0 
-0.347886 -0.320366 0 
-0.343668 -0.317847 0 
-0.340332 -0.318284 0 
-0.344634 -0.320567 0 
-0.341294 -0.321507 0 
-0.336454 -0.316124 0 
-0.333395 -0.316027 0 
-0.337899 -0.320482 0 
-0.333928 -0.319704 0 
-0.349888 -0.323797 0 
-0.3538 -0.321527 0 
-0.351093 -0.326279 0 
-0.354631 -0.324796 0 
-0.348683 -0.323012 0 
-0.348073 -0.323936 0 
-0.348249 -0.327217 0 
-0.347516 -0.327324 0 
-0.345409 -0.324686 0 
-0.341362 -0.325207 0 
-0.345282 -0.326567 0 
-0.340734 -0.326783 0 
-0.339193 -0.324146 0 
-0.335416 -0.324554 0 
-0.339457 -0.325782 0 
-0.334853 -0.326496 0 
VECTORS velocity double
0.355585 0.132892 0 
0.670158 0.385814 0 
0.102818 0.0604338 0 
0.437092 -0.0817822 0 
0.323755 0.260864 0 
0.353248 0.685994 0 
0.659116 -0.421347 0 
0.606735 0.288946 0 
0.713402 0.525137 0 
0.565206 0.420513 0 
0.760004 0.0931051 0 
0.843262 -0.255391 0 
1.0417 0.759757 0 
1.52285 0.864068 0 
0.827621 0.26452 0 
1.54366 0.208508 0 
0.526246 -0.200186 0 
0.724174 0.212357 0 
0.445145 -0.191702 0 
1.01857 0.23102 0 
0.473217 -0.0118178 0 
0.489938 0.493509 0 
0.586799 -0.0663037 0 
0.458911 0.342582 0 
0.624903 0.201719 0 
0.837303 -0.146705 0 
0.71679 0.288612 0 
0.91855 -0.0540839 0 
0.641768 0.394723 0 
1.1398 0.442771 0 
0.781904 0.547167 0 
1.34016 0.367716 0 
0.274905 -0.297397 0 
0.667319 -0.390765 0 
0.30931 -0.0433022 0 
0.764839 -0.0894575 0 
0.286089 -0.629123 0 
0.465041 -0.186324 0 
0.542997 -0.406942 0 
0.518544 0.0803074 0 
0.634228 -0.290671 0 
1.0849 -0.413304 0 
0.313589 0.00807996 0 
0.849823 -0.185889 0 
0.732704 -0.166986 0 
1.20096 -0.0397934 0 
0.681132 0.0754734 0 
1.02603 0.0432308 0 
0.30867 -0.419705 0 
0.901054 -0.118778 0 
0.32026 -0.485691 0 
0.556795 -0.531506 0 
0.345734 -0.460902 0 
0.515113 0.0251082 0 
0.530207 -0.620926 0 
0.437544 -0.381669 0 
0.36892 -0.041563 0 
0.697778 -0.666481 0 
0.384531 -0.296746 0 
0.572304 -0.577331 0 
0.482829 -0.0993818 0 
0.939024 -0.274416 0 
0.614857 -0.514349 0 
0.975273 -0.519801 0 
SCALARS mass double 1
LOOKUP_TABLE default
0.625
0.625
0.625
0.625
0.625
0.625
0.625
0.625
0.625
0.625
0.625
0.625
0.625
0.625
0.625
0.625
0.625
0.625
0.625
0.625
0.625
0.625
0.625
0.625
0.625
0.625
0.625
0.625
0.625
0.625
0.625
0.625
0.625
0.625
0.625
0.625
0.625
0.625
0.625
0.625
0.625
0.625
0.625
0.625
0.625
0.625
0.625
0.625
0.625
0.625
0.625
0.625
0.625
0.625
0.625
0.625
0.625
0.625
0.625
0.625
0.625
0.625
0.625
0.625
SCALARS volume double 1
LOOKUP_TABLE default
0.000663821
0.000630252
0.000602868
0.000600554
0.000656413
0.000636434
0.00063795
0.000614542
0.000623794
0.000651067
0.000631194
0.000647538
0.000610431
0.000646851
0.000616315
0.000632258
0.000643744
0.000610622
0.000614166
0.000607753
0.000623579
0.000613524
0.000620393
0.000611536
0.000632699
0.000595101
0.000631757
0.00064264
0.000638465
0.000615583
0.000608763
0.00061937
0.00061068
0.000592884
0.000623085
0.00061703
0.000628135
0.000616014
0.000619802
0.000596083
0.000627955
0.000604189
0.000650257
0.000586641
0.000638393
0.000623814
0.00064179
0.000614017
0.000634766
0.00062782
0.000619231
0.000636509
0.000603611
0.000613096
0.000627817
0.00062439
0.000608151
0.00062687
0.000635588
0.000619885
0.000629992
0.000626753
0.000628965
0.000627897
VECTORS momentum double
0.222241 0.0830573 0 
0.418849 0.241134 0 
0.0642614 0.0377711 0 
0.273182 -0.0511139 0 
0.202347 0.16304 0 
0.22078 0.428746 0 
0.411947 -0.263342 0 
0.379209 0.180591 0 
0.445876 0.328211 0 
0.353254 0.262821 0 
0.475002 0.0581907 0 
0.527039 -0.159619 0 
0.65106 0.474848 0 
0.951784 0.540042 0 
0.517263 0.165325 0 
0.964787 0.130317 0 
0.328904 -0.125116 0 
0.452609 0.132723 0 
0.278216 -0.119814 0 
0.636605 0.144388 0 
0.295761 -0.00738614 0 
0.306211 0.308443 0 
0.36675 -0.0414398 0 
0.286819 0.214113 0 
0.390565 0.126074 0 
0.523315 -0.0916906 0 
0.447994 0.180383 0 
0.574094 -0.0338024 0 
0.401105 0.246702 0 
0.712372 0.276732 0 
0.48869 0.34198 0 
0.837597 0.229822 0 
0.171816 -0.185873 0 
0.417074 -0.244228 0 
0.193319 -0.0270639 0 
0.478024 -0.0559109 0 
0.178806 -0.393202 0 
0.290651 -0.116452 0 
0.339373 -0.254339 0 
0.32409 0.0501921 0 
0.396393 -0.181669 0 
0.67806 -0.258315 0 
0.195993 0.00504997 0 
0.531139 -0.116181 0 
0.45794 -0.104367 0 
0.7506 -0.0248709 0 
0.425707 0.0471709 0 
0.641266 0.0270193 0 
0.192919 -0.262315 0 
0.563159 -0.0742363 0 
0.200163 -0.303557 0 
0.347997 -0.332191 0 
0.216084 -0.288064 0 
0.321946 0.0156926 0 
0.331379 -0.388079 0 
0.273465 -0.238543 0 
0.230575 -0.0259769 0 
0.436111 -0.416551 0 
0.240332 -0.185466 0 
0.35769 -0.360832 0 
0.301768 -0.0621136 0 
0.58689 -0.17151 0 
0.384285 -0.321468 0 
0.609545 -0.324876 0 
VECTORS body_force double
0 -9.81 0 
0 -9.81 0 
0 -9.81 0 
0 -9.81 0 
0 -9.81 0 
0 -9.81 0 
0 -9.81 0 
0 -9.81 0 
0 -9.81 0 
0 -9.81 0 
0 -9.81 0 
0 -9.81 0 
0 -9.81 0 
0 -9.81 0 
0 -9.81 0 
0 -9.81 0 
0 -9.81 0 
0 -9.81 0 
0 -9.81 0 
0 -9.81 0 
0 -9.81 0 
0 -9.81 0 
0 -9.81 0 
0 -9.81 0 
0 -9.81 0 
0 -9.81 0 
0 -9.81 0 
0 -9.81 0 
0 -9.81 0 
0 -9.81 0 
0 -9.81 0 
0 -9.81 0 
0 -9.81 0 
0 -9.81 0 
0 -9.81 0 
0 -9.81 0 
0 -9.81 0 
0 -9.81 0 
0 -9.81 0 
0 -9.81 0 
0 -9.81 0 
0 -9.81 0 
0 -9.81 0 
0 -9.81 0 
0 -9.81 0 
0 -9.81 0 
0 -9.81 0 
0 -9.81 0 
0 -9.81 0 
0 -9.81 0 
0 -9.81 0 
0 -9.81 0 
0 -9.81 0 
0 -9.81 0 
0 -9.81 0 
0 -9.81 0 
0 -9.81 0 
0 -9.81 0 
0 -9.81 0 
0 -9.81 0 
0 -9.81 0 
0 -9.81 0 
0 -9.81 0 
0 -9.81 0 
TENSORS cauchy_stress double
7268.08 -505.15 0
-505.15 4320.5 0
0 0 0

-1925.38 -2179.83 0
-2179.83 3534.67 0
0 0 0

-5466.55 -792.334 0
-792.334 -1466.81 0
0 0 0

-5960.03 -1684.53 0
-1684.53 -1712.96 0
0 0 0

2383.43 1116.84 0
1116.84 7046.99 0
0 0 0

318.599 1571.02 0
1571.02 3167.87 0
0 0 0

1812.66 125.569 0
125.569 2131.18 0
0 0 0

-3375.5 -307.917 0
-307.917 130.443 0
0 0 0

122.63 -46.5639 0
-46.5639 -494.075 0
0 0 0

1979.18 4184.22 0
4184.22 5878.8 0
0 0 0

1124.44 -481.748 0
-481.748 772.095 0
0 0 0

4733.75 4897.33 0
4897.33 2079.05 0
0 0 0

-154.527 -640.368 0
-640.368 -4381.22 0
0 0 0

-883.115 2685.46 0
2685.46 7491.69 0
0 0 0

-4668.46 867.371 0
867.371 1977.42 0
0 0 0

1826.42 1385.73 0
1385.73 394.041 0
0 0 0

1740.59 -90.341 0
-90.341 3942.1 0
0 0 0

-6413.99 646.35 0
646.35 1938.17 0
0 0 0

-3274.39 -479.596 0
-479.596 -88.3933 0
0 0 0

-6239.14 -1383.18 0
-1383.18 857.821 0
0 0 0

-586.624 4270.31 0
4270.31 148.886 0
0 0 0

-2707.41 1294.56 0
1294.56 -856.395 0
0 0 0

-860.781 -1849.43 0
-1849.43 -561.929 0
0 0 0

-4191.99 -3697.76 0
-3697.76 3.91619 0
0 0 0

183.803 2726.15 0
2726.15 2170.66 0
0 0 0

-3538.24 2659.07 0
2659.07 -5888.77 0
0 0 0

-1151.45 1591.18 0
1591.18 3219.34 0
0 0 0

3710.94 -1123.39 0
-1123.39 1641.48 0
0 0 0

1115.87 3004.6 0
3004.6 2983.31 0
0 0 0

-2662.26 -242.027 0
-242.027 -257.282 0
0 0 0

-4581.55 -25.6795 0
-25.6795 -480.431 0
0 0 0

-3404.54 1121.96 0
1121.96 1664.49 0
0 0 0

-4903.62 1672.08 0
1672.08 446.111 0
0 0 0

-10252.9 932.511 0
932.511 108.064 0
0 0 0

801.151 280.849 0
280.849 -1391.27 0
0 0 0

-3058.59 -568.132 0
-568.132 590.48 0
0 0 0

843.399 -146.552 0
-146.552 118.818 0
0 0 0

-1634.17 -2350.79 0
-2350.79 -1150.72 0
0 0 0

85.1268 -1307.33 0
-1307.33 -1691.24 0
0 0 0

-4450.66 -481.745 0
-481.745 -4659.21 0
0 0 0

-1409.69 2466.41 0
2466.41 2316.64 0
0 0 0

-3512.22 -1126.19 0
-1126.19 -3000.32 0
0 0 0

1628.14 2360.59 0
2360.59 5990.29 0
0 0 0

-2382.34 -4146.45 0
-4146.45 -9798.14 0
0 0 0

-3012.58 2370.39 0
2370.39 7089.89 0
0 0 0

3302.08 -2951.31 0
-2951.31 -3667.23 0
0 0 0

-2076.26 2881.84 0
2881.84 7174.19 0
0 0 0

-5485.62 -569.947 0
-569.947 2076.28 0
0 0 0

549.461 -604.829 0
-604.829 2432.24 0
0 0 0

-3172.95 -1611.22 0
-1611.22 4038.65 0
0 0 0

-990.354 -659.191 0
-659.191 -792.898 0
0 0 0

-92.2834 633.049 0
633.049 3601.18 0
0 0 0

-2933.05 -2467.06 0
-2467.06 -3763.37 0
0 0 0

-352.613 -3644.1 0
-3644.1 -3345.45 0
0 0 0

144.704 1780.91 0
1780.91 720.027 0
0 0 0

223.8 -417.34 0
-417.34 -411.691 0
0 0 0

-3991.32 732.734 0
732.734 -1264.27 0
0 0 0

1267.58 -1251.25 0
-1251.25 -693.126 0
0 0 0

-151.443 995.266 0
995.266 3382.06 0
0 0 0

-579.13 -419.451 0
-419.451 -1001.23 0
0 0 0

-1139.49 1839.02 0
1839.02 2669.37 0
0 0 0

59.1604 -1641.34 0
-1641.34 479.444 0
0 0 0

-1321.27 -561.969 0
-561.969 2537.54 0
0 0 0

-356.072 155.599 0
155.599 1245.55 0
0 0 0

TENSORS velocity_gradient double
0.92292 2.30312 0
-3.19084 0.701206 0
0 0 0

1.08183 2.08857 0
-3.54789 1.74289 0
0 0 0

0.930499 2.458 0
-3.24477 0.295721 0
0 0 0

1.06941 2.26744 0
-3.5161 1.28476 0
0 0 0

1.22525 2.43643 0
-4.09822 3.33719 0
0 0 0

1.19604 2.48267 0
-4.84444 3.48516 0
0 0 0

1.21835 2.39611 0
-4.04244 2.33004 0
0 0 0

1.1432 2.44925 0
-4.66406 2.74084 0
0 0 0

0.982147 5.73549 0
-5.54541 2.83156 0
0 0 0

0.105434 6.15946 0
-6.1912 2.66784 0
0 0 0

0.93403 4.60648 0
-5.15647 2.26571 0
0 0 0

0.187127 5.29165 0
-5.25478 2.10962 0
0 0 0

-0.60822 8.36844 0
-6.87026 3.12298 0
0 0 0

-0.917333 8.59903 0
-7.80929 3.11976 0
0 0 0

-0.442818 7.38861 0
-3.67379 2.31133 0
0 0 0

-1.36689 8.11817 0
-3.10919 2.356 0
0 0 0

1.83202 2.08751 0
-3.59596 0.499799 0
0 0 0

1.1241 1.91622 0
-3.5066 1.13398 0
0 0 0

1.92454 1.65229 0
-3.65327 0.460392 0
0 0 0

1.22762 1.25062 0
-3.50976 1.15429 0
0 0 0

0.539164 2.31053 0
-3.49264 2.11892 0
0 0 0

0.572754 2.50371 0
-3.51439 2.55494 0
0 0 0

0.586817 1.72011 0
-3.49236 1.68405 0
0 0 0

0.555982 2.59753 0
-3.50995 2.53011 0
0 0 0

0.571977 4.21997 0
-3.44116 2.40196 0
0 0 0

0.165832 4.80298 0
-2.9639 2.38446 0
0 0 0

0.575023 3.30368 0
-3.48834 2.65805 0
0 0 0

-0.248987 4.38474 0
-3.40098 2.85436 0
0 0 0

-0.391779 6.52651 0
-2.52319 2.43885 0
0 0 0

-1.52385 7.06899 0
-2.3694 2.43414 0
0 0 0

-1.1512 5.14337 0
-4.16044 2.67957 0
0 0 0

-1.8206 6.18734 0
-5.12415 2.42925 0
0 0 0

-0.415821 2.19599 0
-2.49725 0.505189 0
0 0 0

-0.414127 0.727577 0
-2.68717 1.05709 0
0 0 0

-0.476686 3.70492 0
-2.50199 0.622651 0
0 0 0

-0.386626 0.293921 0
-2.67031 0.791257 0
0 0 0

-0.8666 0.833618 0
-2.96626 1.15113 0
0 0 0

-1.52387 2.19945 0
-3.41664 2.21989 0
0 0 0

-0.818516 0.217227 0
-2.93506 0.744244 0
0 0 0

-1.45486 1.48113 0
-3.36847 1.71852 0
0 0 0

-2.24066 2.28296 0
-3.93472 2.17399 0
0 0 0

-2.15846 4.56772 0
-4.5692 2.40235 0
0 0 0

-2.18417 1.38622 0
-3.87751 1.65228 0
0 0 0

-2.08043 4.87854 0
-4.54643 1.72859 0
0 0 0

-1.82331 4.8935 0
-5.30476 2.24528 0
0 0 0

-1.93993 5.916 0
-5.83177 1.98404 0
0 0 0

-1.66683 4.89844 0
-5.50035 1.61929 0
0 0 0

-1.57441 5.72493 0
-6.51841 1.45158 0
0 0 0

-0.756425 4.53254 0
-3.27372 0.572147 0
0 0 0

-0.772947 -0.0376182 0
-3.16138 0.726966 0
0 0 0

-0.776881 4.73536 0
-3.25259 0.362611 0
0 0 0

-0.751411 -0.200925 0
-3.2023 1.03729 0
0 0 0

-0.931694 -0.072202 0
-2.85972 0.792684 0
0 0 0

-1.09528 1.06389 0
-3.16052 1.05971 0
0 0 0

-0.903826 -0.244085 0
-2.91267 1.11931 0
0 0 0

-1.07268 0.888952 0
-3.05735 0.261328 0
0 0 0

-1.26097 1.04583 0
-3.91669 0.977303 0
0 0 0

-1.3586 4.92534 0
-4.78164 0.810233 0
0 0 0

-1.24879 0.873816 0
-3.8611 0.192251 0
0 0 0

-0.473862 4.90692 0
-3.99019 -0.164384 0
0 0 0

-1.39201 4.92272 0
-5.80471 0.729977 0
0 0 0

-1.43083 5.66861 0
-6.67427 0.720573 0
0 0 0

-0.00364774 4.91225 0
-4.463 -0.193814 0
0 0 0

1.16036 5.27866 0
-3.67958 -0.191629 0
0 0 0

SCALARS active double 1
LOOKUP_TABLE default
1
1
1
1
1
1
1
1
1
1
1
1
1
1
1
1
1
1
1
1
1
1
1
1
1
1
1
1
1
1
1
1
1
1
1
1
1
1
1
1
1
1
1
1
1
1
1
1
1
1
1
1
1
1
1
1
1
1
1
1
1
1
1
1
SCALARS extent double 1
LOOKUP_TABLE default
0.0125
0.0125
0.0125
0.0125
0.0125
0.0125
0.0125
0.0125
0.0125
0.0125
0.0125
0.0125
0.0125
0.0125
0.0125
0.0125
0.0125
0.0125
0.0125
0.0125
0.0125
0.0125
0.0125
0.0125
0.0125
0.0125
0.0125
0.0125
0.0125
0.0125
0.0125
0.0125
0.0125
0.0125
0.0125
0.0125
0.0125
0.0125
0.0125
0.0125
0.0125
0.0125
0.0125
0.0125
0.0125
0.0125
0.0125
0.0125
0.0125
0.0125
0.0125
0.0125
0.0125
0.0125
0.0125
0.0125
0.0125
0.0125
0.0125
0.0125
0.0125
0.0125
0.0125
0.0125
SCALARS pressure double 1
LOOKUP_TABLE default
-5794.29
-804.643
3466.68
3836.5
-4715.21
-1743.23
-1971.92
1622.53
185.723
-3928.99
-948.269
-3406.4
2267.87
-3304.29
1345.52
-1110.23
-2841.34
2237.91
1681.39
2690.66
218.869
1781.9
711.355
2094.04
-1177.23
4713.5
-1033.95
-2676.21
-2049.59
1459.77
2530.99
870.027
2228.76
5072.42
295.059
1234.05
-481.108
1392.44
803.057
4554.93
-453.475
3256.27
-3809.21
6090.24
-2038.66
182.574
-2548.97
1704.67
-1490.85
-432.85
891.626
-1754.45
3348.21
1849.03
-432.366
93.9458
2627.8
-287.224
-1615.31
790.179
-764.942
-269.302
-608.134
-444.736
SCALARS density double 1
LOOKUP_TABLE default
941.519
991.667
1036.71
1040.71
952.145
982.034
979.701
1017.02
1001.93
959.962
990.186
965.194
1023.87
966.219
1014.09
988.52
970.882
1023.55
1017.64
1028.38
1002.28
1018.7
1007.43
1022.02
987.831
1050.24
989.305
972.551
978.91
1015.3
1026.67
1009.09
1023.45
1054.17
1003.07
1012.92
995.009
1014.59
1008.39
1048.51
995.295
1034.45
961.159
1065.39
979.021
1001.9
973.839
1017.89
984.615
995.508
1009.32
981.919
1035.43
1019.42
995.513
1000.98
1027.71
997.017
983.341
1008.25
992.076
997.203
993.695
995.385
