# vtk DataFile Version 3.0
Frame: 57, Time: 0.967
ASCII
DATASET UNSTRUCTURED_GRID
POINTS 64 double
0.0753382 0.0463351 0 
0.067958 0.0697846 0 
0.09919 0.0544395 0 
0.0912415 0.0778077 0 
0.0576897 0.0930678 0 
0.051732 0.118589 0 
0.082276 0.101078 0 
0.0759583 0.126078 0 
0.0464564 0.142278 0 
0.0412349 0.167627 0 
0.0703769 0.151412 0 
0.0629937 0.1755 0 
0.0383022 0.193204 0 
0.0332613 0.218795 0 
0.0586322 0.201237 0 
0.0511268 0.226165 0 
0.123395 0.0637882 0 
0.113164 0.0865497 0 
0.146811 0.0707265 0 
0.136126 0.0936784 0 
0.103919 0.109866 0 
0.0966667 0.133412 0 
0.128999 0.117952 0 
0.121062 0.140444 0 
0.0903184 0.158978 0 
0.0825722 0.18431 0 
0.114086 0.165233 0 
0.107741 0.189755 0 
0.0778601 0.210724 0 
0.0694983 0.23715 0 
0.10173 0.216404 0 
0.0921689 0.242143 0 
0.170912 0.0784567 0 
0.157714 0.100505 0 
0.196493 0.0916975 0 
0.181078 0.111742 0 
0.15085 0.125315 0 
0.142374 0.14911 0 
0.174536 0.135071 0 
0.16512 0.157454 0 
0.135854 0.174774 0 
0.129805 0.199041 0 
0.158279 0.181959 0 
0.150902 0.207178 0 
0.123276 0.224752 0 
0.115109 0.249851 0 
0.144267 0.232633 0 
0.136127 0.257701 0 
0.219641 0.102134 0 
0.202832 0.123166 0 
0.242191 0.112371 0 
0.225806 0.132789 0 
0.196868 0.146396 0 
0.187656 0.1686 0 
0.221227 0.15494 0 
0.211533 0.176842 0 
0.180569 0.191509 0 
0.174183 0.215865 0 
0.203855 0.200944 0 
0.199148 0.225426 0 
0.166121 0.240554 0 
0.157718 0.26443 0 
0.190679 0.249952 0 
0.185671 0.274155 0 
CELLS 64 128
1 0
1 1
1 2
1 3
1 4
1 5
1 6
1 7
1 8
1 9
1 10
1 11
1 12
1 13
1 14
1 15
1 16
1 17
1 18
1 19
1 20
1 21
1 22
1 23
1 24
1 25
1 26
1 27
1 28
1 29
1 30
1 31
1 32
1 33
1 34
1 35
1 36
1 37
1 38
1 39
1 40
1 41
1 42
1 43
1 44
1 45
1 46
1 47
1 48
1 49
1 50
1 51
1 52
1 53
1 54
1 55
1 56
1 57
1 58
1 59
1 60
1 61
1 62
1 63
CELL_TYPES 64
1
1
1
1
1
1
1
1
1
1
1
1
1
1
1
1
1
1
1
1
1
1
1
1
1
1
1
1
1
1
1
1
1
1
1
1
1
1
1
1
1
1
1
1
1
1
1
1
1
1
1
1
1
1
1
1
1
1
1
1
1
1
1
1
POINT_DATA 64
VECTORS displacement double
-0.337162 -0.366165 0 
-0.344542 -0.367715 0 
-0.33831 -0.35806 0 
-0.346258 -0.359692 0 
-0.35481 -0.369432 0 
-0.360768 -0.368911 0 
-0.355224 -0.361422 0 
-0.361542 -0.361422 0 
-0.366044 -0.370222 0 
-0.371265 -0.369873 0 
-0.367123 -0.361088 0 
-0.374506 -0.362 0 
-0.374198 -0.369296 0 
-0.379239 -0.368705 0 
-0.378868 -0.361263 0 
-0.386373 -0.361335 0 
-0.339105 -0.348712 0 
-0.349336 -0.35095 0 
-0.340689 -0.341774 0 
-0.351374 -0.343822 0 
-0.358581 -0.352634 0 
-0.365833 -0.354088 0 
-0.358501 -0.344548 0 
-0.366438 -0.347056 0 
-0.372182 -0.353522 0 
-0.379928 -0.35319 0 
-0.373414 -0.347267 0 
-0.379759 -0.347745 0 
-0.38464 -0.351776 0 
-0.393002 -0.35035 0 
-0.38577 -0.346096 0 
-0.395331 -0.345357 0 
-0.341588 -0.334043 0 
-0.354786 -0.336995 0 
-0.341007 -0.320802 0 
-0.356422 -0.325758 0 
-0.36165 -0.337185 0 
-0.370126 -0.33839 0 
-0.362964 -0.327429 0 
-0.37238 -0.330046 0 
-0.376646 -0.337726 0 
-0.382695 -0.338459 0 
-0.379221 -0.330541 0 
-0.386598 -0.330322 0 
-0.389224 -0.337748 0 
-0.397391 -0.337649 0 
-0.393233 -0.329867 0 
-0.401373 -0.329799 0 
-0.342859 -0.310366 0 
-0.359668 -0.314334 0 
-0.345309 -0.300129 0 
-0.361694 -0.304711 0 
-0.365632 -0.316104 0 
-0.374844 -0.3189 0 
-0.366273 -0.30756 0 
-0.375967 -0.310658 0 
-0.381931 -0.320991 0 
-0.388317 -0.321635 0 
-0.383645 -0.311556 0 
-0.388352 -0.312074 0 
-0.396379 -0.321946 0 
-0.404782 -0.32307 0 
-0.396821 -0.312548 0 
-0.401829 -0.313345 0 
VECTORS velocity double
0.738756 0.0754873 0 
0.281936 0.572905 0 
0.595988 0.546721 0 
0.105674 0.769719 0 
0.758556 0.254872 0 
0.486783 0.767251 0 
0.626316 0.0978589 0 
0.539855 0.352422 0 
0.228355 0.379574 0 
-0.372146 -0.0396943 0 
0.362276 0.22392 0 
0.519935 0.176702 0 
0.0620086 0.0563788 0 
-1.06225 0.0460119 0 
0.745029 0.551972 0 
0.568957 0.00784747 0 
0.506988 0.0606467 0 
0.330934 0.731037 0 
0.478321 0.169176 0 
0.658795 0.528366 0 
0.633479 0.402385 0 
0.479759 0.484072 0 
0.860884 0.0930105 0 
0.523317 0.459314 0 
0.0724518 0.141759 0 
0.525146 0.0333637 0 
0.0862634 0.606046 0 
0.302977 0.361096 0 
0.677299 0.298855 0 
0.0138521 0.196967 0 
0.569507 0.480155 0 
-0.515749 0.230845 0 
1.03731 0.411243 0 
0.216279 0.159075 0 
0.637715 0.468423 0 
0.00785825 0.531068 0 
0.392482 -0.25157 0 
0.664518 0.112816 0 
0.530165 0.284102 0 
0.642197 0.533169 0 
0.205949 0.225597 0 
0.328979 0.259601 0 
0.0515731 0.278815 0 
0.409257 0.0925421 0 
0.500518 0.137285 0 
-0.309896 0.514193 0 
0.828419 0.290911 0 
-0.114685 0.376368 0 
0.892469 0.237357 0 
0.277756 0.187813 0 
0.486137 0.709943 0 
0.268488 0.478026 0 
0.400127 -0.363658 0 
0.515438 0.140427 0 
0.56365 0.549321 0 
0.191764 0.635686 0 
0.140318 0.114496 0 
0.360719 -0.400426 0 
0.213061 0.504666 0 
0.276234 0.236271 0 
0.0888704 0.0492698 0 
-0.611724 -0.0417363 0 
0.158181 0.251602 0 
0.0617718 0.0593816 0 
SCALARS mass double 1
LOOKUP_TABLE default
0.625
0.625
0.625
0.625
0.625
0.625
0.625
0.625
0.625
0.625
0.625
0.625
0.625
0.625
0.625
0.625
0.625
0.625
0.625
0.625
0.625
0.625
0.625
0.625
0.625
0.625
0.625
0.625
0.625
0.625
0.625
0.625
0.625
0.625
0.625
0.625
0.625
0.625
0.625
0.625
0.625
0.625
0.625
0.625
0.625
0.625
0.625
0.625
0.625
0.625
0.625
0.625
0.625
0.625
0.625
0.625
0.625
0.625
0.625
0.625
0.625
0.625
0.625
0.625
SCALARS volume double 1
LOOKUP_TABLE default
0.000613273
0.00064222
0.000624069
0.000602897
0.000639368
0.000622071
0.000622284
0.000614796
0.000558647
0.000519279
0.000592385
0.000571463
0.000500938
0.000464907
0.000564516
0.000542636
0.000645903
0.000613064
0.000634223
0.000597141
0.000636419
0.000617188
0.000629164
0.000576576
0.000643174
0.000591796
0.000621855
0.000612011
0.000610056
0.000560074
0.000608262
0.000623194
0.000652747
0.0005967
0.00062479
0.000614662
0.00064951
0.000617403
0.000607803
0.000602562
0.000610316
0.000567615
0.00064449
0.000609058
0.000595462
0.000614985
0.000624582
0.000603303
0.00063209
0.000622613
0.000622406
0.000614631
0.000588462
0.000600485
0.000618666
0.000605361
0.000592884
0.000630173
0.000633022
0.000607716
0.000602643
0.000625088
0.000627095
0.000626077
VECTORS momentum double
0.461723 0.0471795 0 
0.17621 0.358066 0 
0.372493 0.3417 0 
0.066046 0.481075 0 
0.474098 0.159295 0 
0.304239 0.479532 0 
0.391448 0.0611618 0 
0.337409 0.220264 0 
0.142722 0.237234 0 
-0.232591 -0.024809 0 
0.226422 0.13995 0 
0.324959 0.110439 0 
0.0387554 0.0352368 0 
-0.663907 0.0287574 0 
0.465643 0.344983 0 
0.355598 0.00490467 0 
0.316868 0.0379042 0 
0.206834 0.456898 0 
0.298951 0.105735 0 
0.411747 0.330229 0 
0.395924 0.251491 0 
0.299849 0.302545 0 
0.538053 0.0581316 0 
0.327073 0.287071 0 
0.0452824 0.0885995 0 
0.328216 0.0208523 0 
0.0539146 0.378779 0 
0.189361 0.225685 0 
0.423312 0.186784 0 
0.00865755 0.123104 0 
0.355942 0.300097 0 
-0.322343 0.144278 0 
0.64832 0.257027 0 
0.135174 0.0994222 0 
0.398572 0.292764 0 
0.0049114 0.331917 0 
0.245301 -0.157231 0 
0.415324 0.0705102 0 
0.331353 0.177564 0 
0.401373 0.333231 0 
0.128718 0.140998 0 
0.205612 0.16225 0 
0.0322332 0.17426 0 
0.255786 0.0578388 0 
0.312824 0.0858033 0 
-0.193685 0.32137 0 
0.517762 0.18182 0 
-0.0716779 0.23523 0 
0.557793 0.148348 0 
0.173598 0.117383 0 
0.303836 0.443715 0 
0.167805 0.298766 0 
0.25008 -0.227286 0 
0.322149 0.0877666 0 
0.352281 0.343325 0 
0.119853 0.397303 0 
0.0876985 0.0715598 0 
0.225449 -0.250266 0 
0.133163 0.315416 0 
0.172646 0.14767 0 
0.055544 0.0307936 0 
-0.382327 -0.0260852 0 
0.0988631 0.157251 0 
0.0386074 0.0371135 0 
VECTORS body_force double
0 -9.81 0 
0 -9.81 0 
0 -9.81 0 
0 -9.81 0 
0 -9.81 0 
0 -9.81 0 
0 -9.81 0 
0 -9.81 0 
0 -9.81 0 
0 -9.81 0 
0 -9.81 0 
0 -9.81 0 
0 -9.81 0 
0 -9.81 0 
0 -9.81 0 
0 -9.81 0 
0 -9.81 0 
0 -9.81 0 
0 -9.81 0 
0 -9.81 0 
0 -9.81 0 
0 -9.81 0 
0 -9.81 0 
0 -9.81 0 
0 -9.81 0 
0 -9.81 0 
0 -9.81 0 
0 -9.81 0 
0 -9.81 0 
0 -9.81 0 
0 -9.81 0 
0 -9.81 0 
0 -9.81 0 
0 -9.81 0 
0 -9.81 0 
0 -9.81 0 
0 -9.81 0 
0 -9.81 0 
0 -9.81 0 
0 -9.81 0 
0 -9.81 0 
0 -9.81 0 
0 -9.81 0 
0 -9.81 0 
0 -9.81 0 
0 -9.81 0 
0 -9.81 0 
0 -9.81 0 
0 -9.81 0 
0 -9.81 0 
0 -9.81 0 
0 -9.81 0 
0 -9.81 0 
0 -9.81 0 
0 -9.81 0 
0 -9.81 0 
0 -9.81 0 
0 -9.81 0 
0 -9.81 0 
0 -9.81 0 
0 -9.81 0 
0 -9.81 0 
0 -9.81 0 
0 -9.81 0 
TENSORS cauchy_stress double
2012.32 -1101.56 0
-1101.56 -5654.95 0
0 0 0

2587.5 -479.801 0
-479.801 2639.27 0
0 0 0

497.767 -1869.1 0
-1869.1 -784.375 0
0 0 0

-2072.25 -2821.96 0
-2821.96 -4851.99 0
0 0 0

577.076 -1623.13 0
-1623.13 3793.85 0
0 0 0

-4357.74 1886.25 0
1886.25 3454.36 0
0 0 0

1319.81 -306.16 0
-306.16 -2157.41 0
0 0 0

-5905.29 1066.61 0
1066.61 2739.71 0
0 0 0

-14679.3 1046.19 0
1046.19 -6904.05 0
0 0 0

-28153.1 -551.801 0
-551.801 -7483.43 0
0 0 0

-10304.5 2494.46 0
2494.46 -2.29485 0
0 0 0

-16550.1 4072.79 0
4072.79 -671.48 0
0 0 0

-32133.4 673.517 0
673.517 -10418.5 0
0 0 0

-49212.1 -3815.36 0
-3815.36 -7694.33 0
0 0 0

-20128.9 -315.096 0
-315.096 555.376 0
0 0 0

-23904 -1054.16 0
-1054.16 -3271.66 0
0 0 0

5155.81 -74.3578 0
-74.3578 1170.72 0
0 0 0

-3944.36 -1222.8 0
-1222.8 236.172 0
0 0 0

4481.46 -846.476 0
-846.476 -1664.43 0
0 0 0

-4486.96 -3751.28 0
-3751.28 -4282.04 0
0 0 0

-3350.43 7976.08 0
7976.08 6832.34 0
0 0 0

-2799.07 1320.27 0
1320.27 380.383 0
0 0 0

-1711.06 3065.87 0
3065.87 2987.96 0
0 0 0

-8696.79 1665.96 0
1665.96 -6811.7 0
0 0 0

-4181.31 -1357.22 0
-1357.22 9693.62 0
0 0 0

-9305.06 -292.68 0
-292.68 -1192.83 0
0 0 0

-10644.8 4258.87 0
4258.87 9674.76 0
0 0 0

-6654.57 3291.46 0
3291.46 2615.83 0
0 0 0

-8730.02 -3.58316 0
-3.58316 4076.03 0
0 0 0

-13716.2 -6198.9 0
-6198.9 -7376.59 0
0 0 0

-8759.08 -1374.17 0
-1374.17 3538.8 0
0 0 0

-2316.42 -4371.31 0
-4371.31 1759.94 0
0 0 0

4881.18 1762.61 0
1762.61 3472.18 0
0 0 0

-7096.88 -1774.37 0
-1774.37 -1814.06 0
0 0 0

7.6636 2801.91 0
2801.91 -72.3667 0
0 0 0

-1573.53 1823.62 0
1823.62 -1634.14 0
0 0 0

2129.17 2071.02 0
2071.02 5268.38 0
0 0 0

-3510.27 -1069.38 0
-1069.38 1158.37 0
0 0 0

-2990.24 3311.39 0
3311.39 -2375.24 0
0 0 0

-6665.85 2724.82 0
2724.82 -364.994 0
0 0 0

-8429.24 2062.48 0
2062.48 3857.12 0
0 0 0

-12989.6 3197.14 0
3197.14 -5531.1 0
0 0 0

-1781.95 338.314 0
338.314 7687.31 0
0 0 0

-4132.81 2621.88 0
2621.88 -836.182 0
0 0 0

-13312.1 259.92 0
259.92 4001.83 0
0 0 0

-1247.3 -2141.77 0
-2141.77 -1859.26 0
0 0 0

-8144.18 -1081 0
-1081 8015.51 0
0 0 0

-6768.12 -4444.62 0
-4444.62 -26.4003 0
0 0 0

421.685 114.395 0
114.395 1747.54 0
0 0 0

-2552.28 -792.672 0
-792.672 1816.36 0
0 0 0

-1074.46 2291.36 0
2291.36 274.705 0
0 0 0

-1225.36 1295.01 0
1295.01 -1991.97 0
0 0 0

-7441.45 2404.57 0
2404.57 -4142.88 0
0 0 0

-5032.02 2443.75 0
2443.75 -2662.94 0
0 0 0

-2152.78 2127.69 0
2127.69 193.98 0
0 0 0

-610.845 1576.58 0
1576.58 -5528.89 0
0 0 0

-8454.65 1314.79 0
1314.79 -1690.16 0
0 0 0

-1384.11 4467.11 0
4467.11 2969.4 0
0 0 0

-536.053 -365.89 0
-365.89 2988.66 0
0 0 0

-2965.56 2883.23 0
2883.23 -2427.36 0
0 0 0

-7154.05 -2429.93 0
-2429.93 148.933 0
0 0 0

-1695.64 -1990.77 0
-1990.77 1722.64 0
0 0 0

990.179 567.884 0
567.884 -346.766 0
0 0 0

-556.332 -1145.2 0
-1145.2 887.437 0
0 0 0

TENSORS velocity_gradient double
-1.64464 -0.730459 0
0.5698 6.48028 0
0 0 0

-0.906381 0.858165 0
0.904782 0.629248 0
0 0 0

-0.475081 1.31404 0
-0.857777 2.22468 0
0 0 0

-0.689251 1.49081 0
1.02367 0.975636 0
0 0 0

-0.274041 0.57865 0
1.251 0.476206 0
0 0 0

4.02203 -6.01567 0
-0.290226 -3.4356 0
0 0 0

0.0539214 -2.02766 0
1.38466 -0.906122 0
0 0 0

1.45094 -5.04859 0
1.85352 -2.4414 0
0 0 0

4.9147 -5.83178 0
2.19501 -4.08233 0
0 0 0

4.44705 -0.0709203 0
3.97773 -0.880011 0
0 0 0

2.74877 -2.22658 0
2.22987 -1.72109 0
0 0 0

2.9539 -0.055124 0
2.04214 -1.06615 0
0 0 0

4.40281 -0.0658792 0
3.84538 -0.864931 0
0 0 0

3.22754 -2.06708 0
2.4644 0.250308 0
0 0 0

2.64825 -2.32578 0
1.9134 -0.833062 0
0 0 0

1.42159 -3.31193 0
2.31363 -0.660736 0
0 0 0

0.701574 1.02316 0
-3.36607 0.828579 0
0 0 0

-0.0120305 1.34542 0
-3.64869 0.956211 0
0 0 0

1.12809 0.136648 0
-2.12447 0.476469 0
0 0 0

-0.238561 0.623903 0
-3.73841 0.670455 0
0 0 0

0.0564406 -3.48859 0
-2.3764 -1.85055 0
0 0 0

1.6829 -3.84404 0
1.03608 -2.02951 0
0 0 0

0.256622 -2.45846 0
-3.27842 -1.09413 0
0 0 0

1.15515 -2.77288 0
-2.5857 -1.33653 0
0 0 0

2.91316 0.0117413 0
2.22451 -1.36546 0
0 0 0

2.97546 -0.00721433 0
1.94566 -1.28061 0
0 0 0

1.06614 -0.407641 0
-2.37488 -1.56134 0
0 0 0

0.270881 -0.202442 0
-2.52855 -1.52169 0
0 0 0

1.97762 -5.85039 0
2.09989 -0.0954271 0
0 0 0

-0.639949 -5.03773 0
2.93188 -0.353729 0
0 0 0

0.867099 -7.68614 0
-0.803215 0.509078 0
0 0 0

-1.12728 -7.2861 0
3.08678 0.360912 0
0 0 0

2.50736 -2.89201 0
2.62578 -0.738186 0
0 0 0

-0.335245 -1.27429 0
1.37349 -0.327555 0
0 0 0

0.692246 -6.54836 0
2.06891 -2.1416 0
0 0 0

-0.800013 -1.64301 0
0.9045 -1.50196 0
0 0 0

-0.17342 -1.72211 0
-1.20765 -0.638544 0
0 0 0

1.31942 -1.67748 0
-2.41133 -1.11194 0
0 0 0

-0.832858 -1.63386 0
0.0876206 -1.27438 0
0 0 0

-1.01175 -1.90438 0
-0.0432302 -0.974542 0
0 0 0

0.754787 -1.11253 0
-2.43504 -1.69755 0
0 0 0

0.144178 -3.37592 0
-2.58735 -0.81508 0
0 0 0

-1.54699 -1.75595 0
1.31558 -1.35136 0
0 0 0

-0.747457 -6.1107 0
-0.138313 0.117998 0
0 0 0

0.839025 -7.20898 0
-2.75036 0.461733 0
0 0 0

1.49289 -5.1034 0
-3.1959 0.781934 0
0 0 0

1.1009 -6.42511 0
-2.70564 0.319172 0
0 0 0

1.35294 -3.56294 0
-3.69651 -1.10814 0
0 0 0

1.60098 -3.83876 0
3.76959 -1.46978 0
0 0 0

0.547026 -1.78499 0
3.23865 -1.9903 0
0 0 0

1.45769 -2.80443 0
4.15428 -0.998289 0
0 0 0

0.89922 -2.36038 0
4.73637 -1.46112 0
0 0 0

-0.568921 -1.87215 0
0.946882 -1.4536 0
0 0 0

-1.25483 -2.39705 0
0.573879 0.276209 0
0 0 0

0.334014 -2.97917 0
5.25508 0.784277 0
0 0 0

-0.111607 -2.89897 0
5.44565 1.06899 0
0 0 0

-1.75471 -2.24338 0
1.8429 -0.113921 0
0 0 0

-1.00434 -4.77397 0
1.45165 -1.04458 0
0 0 0

-0.307294 -2.58186 0
4.26399 -1.48957 0
0 0 0

1.29451 -2.98566 0
0.673946 -2.84092 0
0 0 0

0.47902 -5.25059 0
0.0731756 -0.601662 0
0 0 0

1.77129 -3.97542 0
-0.101253 -2.36415 0
0 0 0

1.01381 -3.07668 0
-0.206652 -1.7595 0
0 0 0

2.25873 -2.57833 0
0.145371 -1.65728 0
0 0 0

SCALARS active double 1
LOOKUP_TABLE default
1
1
1
1
1
1
1
1
1
1
1
1
1
1
1
1
1
1
1
1
1
1
1
1
1
1
1
1
1
1
1
1
1
1
1
1
1
1
1
1
1
1
1
1
1
1
1
1
1
1
1
1
1
1
1
1
1
1
1
1
1
1
1
1
SCALARS extent double 1
LOOKUP_TABLE default
0.0125
0.0125
0.0125
0.0125
0.0125
0.0125
0.0125
0.0125
0.0125
0.0125
0.0125
0.0125
0.0125
0.0125
0.0125
0.0125
0.0125
0.0125
0.0125
0.0125
0.0125
0.0125
0.0125
0.0125
0.0125
0.0125
0.0125
0.0125
0.0125
0.0125
0.0125
0.0125
0.0125
0.0125
0.0125
0.0125
0.0125
0.0125
0.0125
0.0125
0.0125
0.0125
0.0125
0.0125
0.0125
0.0125
0.0125
0.0125
0.0125
0.0125
0.0125
0.0125
0.0125
0.0125
0.0125
0.0125
0.0125
0.0125
0.0125
0.0125
0.0125
0.0125
0.0125
0.0125
SCALARS pressure double 1
LOOKUP_TABLE default
1821.31
-2613.39
143.304
3462.12
-2185.46
451.692
418.802
1582.79
10791.7
17818.2
5153.42
8610.77
21276
28453.2
9786.74
13587.8
-3163.26
1854.09
-1408.51
4384.5
-1740.95
1209.35
-638.453
7754.25
-2756.15
5248.95
485.002
2019.37
2327
10546.4
2610.14
278.238
-4176.68
4455.47
32.3515
1603.83
-3698.78
1175.95
2682.74
3515.42
2286.06
9260.35
-2952.68
2484.5
4655.15
1553.28
64.3333
3397.26
-1084.61
367.96
399.878
1608.67
5792.16
3847.48
979.399
3069.87
5072.41
-792.645
-1226.3
2696.46
3502.56
-13.4974
-321.707
-165.553
SCALARS density double 1
LOOKUP_TABLE default
1019.12
973.187
1001.49
1036.66
977.528
1004.71
1004.37
1016.6
1118.77
1203.59
1055.06
1093.68
1247.66
1344.35
1107.14
1151.79
967.637
1019.47
985.458
1046.65
982.057
1012.66
993.382
1083.99
971.743
1056.11
1005.06
1021.22
1024.5
1115.92
1027.52
1002.9
957.492
1047.43
1000.34
1016.82
962.263
1012.3
1028.29
1037.24
1024.06
1101.1
969.759
1026.18
1049.6
1016.29
1000.67
1035.96
988.783
1003.83
1004.17
1016.87
1062.09
1040.83
1010.24
1032.44
1054.17
991.79
987.327
1028.44
1037.1
999.86
996.66
998.28
