# vtk DataFile Version 3.0
Frame: 39, Time: 0.667
ASCII
DATASET UNSTRUCTURED_GRID
POINTS 64 double
0.802768 0.213927 0 
0.791391 0.190699 0 
0.778269 0.225112 0 
0.76635 0.201176 0 
0.780325 0.168453 0 
0.769686 0.144999 0 
0.756865 0.178267 0 
0.745079 0.153817 0 
0.760794 0.121557 0 
0.750179 0.0974789 0 
0.735622 0.130361 0 
0.726301 0.106943 0 
0.740987 0.0729767 0 
0.729257 0.050204 0 
0.716965 0.0842629 0 
0.705367 0.0610175 0 
0.75648 0.234797 0 
0.743451 0.21194 0 
0.734356 0.246794 0 
0.721076 0.222112 0 
0.733479 0.188587 0 
0.722583 0.164877 0 
0.710834 0.199445 0 
0.699689 0.175284 0 
0.712055 0.141236 0 
0.702825 0.118111 0 
0.689109 0.151461 0 
0.678853 0.127967 0 
0.693425 0.094152 0 
0.681467 0.0710531 0 
0.669209 0.104231 0 
0.657765 0.0815604 0 
0.711632 0.257037 0 
0.698182 0.234475 0 
0.687701 0.266886 0 
0.675184 0.244574 0 
0.689011 0.211158 0 
0.677286 0.187192 0 
0.664329 0.221141 0 
0.654605 0.197193 0 
0.666402 0.163365 0 
0.65643 0.138718 0 
0.643768 0.174592 0 
0.634793 0.150581 0 
0.64584 0.115273 0 
0.63451 0.0931552 0 
0.622915 0.127636 0 
0.611031 0.105257 0 
0.664019 0.276814 0 
0.651707 0.254846 0 
0.642126 0.289903 0 
0.628992 0.267037 0 
0.641038 0.231333 0 
0.630805 0.207543 0 
0.618413 0.242825 0 
0.606846 0.22001 0 
0.620739 0.184017 0 
0.61096 0.160386 0 
0.596976 0.196321 0 
0.587241 0.172352 0 
0.598618 0.136556 0 
0.58768 0.113375 0 
0.575498 0.149043 0 
0.565831 0.123477 0 
CELLS 64 128
1 0
1 1
1 2
1 3
1 4
1 5
1 6
1 7
1 8
1 9
1 10
1 11
1 12
1 13
1 14
1 15
1 16
1 17
1 18
1 19
1 20
1 21
1 22
1 23
1 24
1 25
1 26
1 27
1 28
1 29
1 30
1 31
1 32
1 33
1 34
1 35
1 36
1 37
1 38
1 39
1 40
1 41
1 42
1 43
1 44
1 45
1 46
1 47
1 48
1 49
1 50
1 51
1 52
1 53
1 54
1 55
1 56
1 57
1 58
1 59
1 60
1 61
1 62
1 63
CELL_TYPES 64
1
1
1
1
1
1
1
1
1
1
1
1
1
1
1
1
1
1
1
1
1
1
1
1
1
1
1
1
1
1
1
1
1
1
1
1
1
1
1
1
1
1
1
1
1
1
1
1
1
1
1
1
1
1
1
1
1
1
1
1
1
1
1
1
POINT_DATA 64
VECTORS displacement double
0.290268 -0.398573 0 
0.278891 -0.446801 0 
0.240769 -0.387388 0 
0.22885 -0.436324 0 
0.267825 -0.494047 0 
0.257186 -0.542501 0 
0.219365 -0.484233 0 
0.207579 -0.533683 0 
0.248294 -0.590943 0 
0.237679 -0.640021 0 
0.198122 -0.582139 0 
0.188801 -0.630557 0 
0.228487 -0.689523 0 
0.216757 -0.737296 0 
0.179465 -0.678237 0 
0.167867 -0.726482 0 
0.19398 -0.377703 0 
0.180951 -0.42556 0 
0.146856 -0.365706 0 
0.133576 -0.415388 0 
0.170979 -0.473913 0 
0.160083 -0.522623 0 
0.123334 -0.463055 0 
0.112189 -0.512216 0 
0.149555 -0.571264 0 
0.140325 -0.619389 0 
0.101609 -0.561039 0 
0.0913531 -0.609533 0 
0.130925 -0.668348 0 
0.118967 -0.716447 0 
0.0817093 -0.658269 0 
0.0702653 -0.70594 0 
0.099132 -0.355463 0 
0.0856825 -0.403025 0 
0.0502008 -0.345614 0 
0.0376838 -0.392926 0 
0.0765108 -0.451342 0 
0.064786 -0.500308 0 
0.026829 -0.441359 0 
0.0171051 -0.490307 0 
0.0539022 -0.549135 0 
0.0439305 -0.598782 0 
0.0062675 -0.537908 0 
-0.00270747 -0.586919 0 
0.0333397 -0.647227 0 
0.0220101 -0.694345 0 
-0.014585 -0.634864 0 
-0.0264687 -0.682243 0 
0.00151894 -0.335686 0 
-0.0107931 -0.382654 0 
-0.0453745 -0.322597 0 
-0.0585078 -0.370463 0 
-0.021462 -0.431167 0 
-0.0316953 -0.479957 0 
-0.0690872 -0.419675 0 
-0.0806539 -0.46749 0 
-0.0417613 -0.528483 0 
-0.0515398 -0.577114 0 
-0.0905235 -0.516179 0 
-0.100259 -0.565148 0 
-0.0638816 -0.625944 0 
-0.0748202 -0.674125 0 
-0.112002 -0.613457 0 
-0.121669 -0.664023 0 
VECTORS velocity double
-1.69713 -1.59982 0 
-1.72749 -1.39333 0 
-1.71516 -1.04354 0 
-1.98673 -1.09091 0 
-1.17271 -1.88354 0 
-1.61404 -1.1902 0 
-1.71421 -1.19039 0 
-1.5839 -1.35273 0 
-1.64848 -0.967096 0 
-1.623 -1.55827 0 
-1.4886 -1.06087 0 
-1.69426 -1.58482 0 
-1.52009 -1.13264 0 
-1.99719 -1.84609 0 
-1.66345 -1.21859 0 
-1.75673 -1.5819 0 
-1.59521 -1.61039 0 
-1.22177 -2.17953 0 
-1.70216 -0.995408 0 
-1.60734 -1.40983 0 
-1.64638 -1.64565 0 
-1.60598 -1.99838 0 
-1.90051 -1.33883 0 
-1.91665 -1.26451 0 
-1.64997 -1.75528 0 
-1.44785 -1.68481 0 
-2.00964 -1.3006 0 
-1.63358 -1.56935 0 
-1.63864 -1.68838 0 
-1.47563 -1.65163 0 
-1.7924 -1.44575 0 
-1.73634 -1.27288 0 
-1.39893 -1.64533 0 
-1.2489 -1.48565 0 
-1.14179 -1.57612 0 
-1.44166 -1.64244 0 
-1.27175 -1.74728 0 
-1.14149 -1.72101 0 
-1.56494 -1.40263 0 
-1.69117 -1.42635 0 
-1.15493 -1.59852 0 
-1.32225 -1.58552 0 
-1.99916 -1.80689 0 
-1.85611 -1.2391 0 
-1.80258 -1.81806 0 
-1.59514 -1.52946 0 
-1.86061 -1.4373 0 
-1.37392 -1.93376 0 
-0.717154 -1.25677 0 
-1.48224 -1.23462 0 
-1.05105 -1.45751 0 
-1.18187 -1.14564 0 
-1.32001 -1.25375 0 
-1.36776 -1.07397 0 
-1.33891 -1.63911 0 
-1.64849 -1.49533 0 
-1.25819 -0.991965 0 
-1.41164 -0.916561 0 
-1.46482 -1.85987 0 
-1.62038 -2.11221 0 
-1.32315 -1.48112 0 
-1.1206 -1.67434 0 
-1.4527 -1.68101 0 
-1.58157 -1.6282 0 
SCALARS mass double 1
LOOKUP_TABLE default
0.625
0.625
0.625
0.625
0.625
0.625
0.625
0.625
0.625
0.625
0.625
0.625
0.625
0.625
0.625
0.625
0.625
0.625
0.625
0.625
0.625
0.625
0.625
0.625
0.625
0.625
0.625
0.625
0.625
0.625
0.625
0.625
0.625
0.625
0.625
0.625
0.625
0.625
0.625
0.625
0.625
0.625
0.625
0.625
0.625
0.625
0.625
0.625
0.625
0.625
0.625
0.625
0.625
0.625
0.625
0.625
0.625
0.625
0.625
0.625
0.625
0.625
0.625
0.625
SCALARS volume double 1
LOOKUP_TABLE default
0.000627644
0.00061766
0.000613435
0.00063851
0.000635436
0.000625152
0.000601474
0.000611806
0.000622039
0.000616125
0.000638971
0.000616279
0.000644185
0.00061514
0.000615065
0.000626399
0.000620872
0.000619999
0.000623194
0.000623856
0.000621319
0.000640067
0.000637209
0.000621161
0.00059633
0.000635027
0.000624905
0.000644127
0.000625884
0.000629179
0.000616661
0.000617747
0.000615306
0.000617939
0.000622488
0.000638117
0.000600433
0.000640669
0.000640313
0.000628375
0.00063673
0.00062209
0.000626308
0.000613436
0.000610507
0.000611329
0.000624788
0.000632008
0.000618425
0.000613551
0.00062814
0.000643317
0.000599539
0.000650104
0.00063178
0.000643873
0.00061543
0.00064649
0.000613627
0.000624711
0.000619806
0.000608243
0.000628484
0.000639866
VECTORS momentum double
-1.06071 -0.999886 0 
-1.07968 -0.870829 0 
-1.07197 -0.65221 0 
-1.24171 -0.681821 0 
-0.732943 -1.17721 0 
-1.00877 -0.743874 0 
-1.07138 -0.743994 0 
-0.989936 -0.845454 0 
-1.0303 -0.604435 0 
-1.01438 -0.973917 0 
-0.930375 -0.663042 0 
-1.05892 -0.990511 0 
-0.950055 -0.707903 0 
-1.24824 -1.15381 0 
-1.03966 -0.761616 0 
-1.09795 -0.988689 0 
-0.997009 -1.00649 0 
-0.763608 -1.3622 0 
-1.06385 -0.62213 0 
-1.00459 -0.881143 0 
-1.02899 -1.02853 0 
-1.00373 -1.24899 0 
-1.18782 -0.836772 0 
-1.19791 -0.790318 0 
-1.03123 -1.09705 0 
-0.904904 -1.05301 0 
-1.25603 -0.812877 0 
-1.02099 -0.980841 0 
-1.02415 -1.05524 0 
-0.922266 -1.03227 0 
-1.12025 -0.903594 0 
-1.08521 -0.79555 0 
-0.874328 -1.02833 0 
-0.78056 -0.928531 0 
-0.713621 -0.985074 0 
-0.90104 -1.02653 0 
-0.794841 -1.09205 0 
-0.713429 -1.07563 0 
-0.978089 -0.876643 0 
-1.05698 -0.891472 0 
-0.721833 -0.999072 0 
-0.826407 -0.99095 0 
-1.24948 -1.12931 0 
-1.16007 -0.774437 0 
-1.12661 -1.13629 0 
-0.996964 -0.955915 0 
-1.16288 -0.898314 0 
-0.8587 -1.2086 0 
-0.448221 -0.785482 0 
-0.926403 -0.771637 0 
-0.656904 -0.910944 0 
-0.73867 -0.716027 0 
-0.825006 -0.783591 0 
-0.854847 -0.671232 0 
-0.836818 -1.02444 0 
-1.0303 -0.934583 0 
-0.786366 -0.619978 0 
-0.882274 -0.572851 0 
-0.915515 -1.16242 0 
-1.01274 -1.32013 0 
-0.826968 -0.925701 0 
-0.700377 -1.04646 0 
-0.907935 -1.05063 0 
-0.988478 -1.01762 0 
VECTORS body_force double
0 -9.81 0 
0 -9.81 0 
0 -9.81 0 
0 -9.81 0 
0 -9.81 0 
0 -9.81 0 
0 -9.81 0 
0 -9.81 0 
0 -9.81 0 
0 -9.81 0 
0 -9.81 0 
0 -9.81 0 
0 -9.81 0 
0 -9.81 0 
0 -9.81 0 
0 -9.81 0 
0 -9.81 0 
0 -9.81 0 
0 -9.81 0 
0 -9.81 0 
0 -9.81 0 
0 -9.81 0 
0 -9.81 0 
0 -9.81 0 
0 -9.81 0 
0 -9.81 0 
0 -9.81 0 
0 -9.81 0 
0 -9.81 0 
0 -9.81 0 
0 -9.81 0 
0 -9.81 0 
0 -9.81 0 
0 -9.81 0 
0 -9.81 0 
0 -9.81 0 
0 -9.81 0 
0 -9.81 0 
0 -9.81 0 
0 -9.81 0 
0 -9.81 0 
0 -9.81 0 
0 -9.81 0 
0 -9.81 0 
0 -9.81 0 
0 -9.81 0 
0 -9.81 0 
0 -9.81 0 
0 -9.81 0 
0 -9.81 0 
0 -9.81 0 
0 -9.81 0 
0 -9.81 0 
0 -9.81 0 
0 -9.81 0 
0 -9.81 0 
0 -9.81 0 
0 -9.81 0 
0 -9.81 0 
0 -9.81 0 
0 -9.81 0 
0 -9.81 0 
0 -9.81 0 
0 -9.81 0 
TENSORS cauchy_stress double
663.568 230.942 0
230.942 148.125 0
0 0 0

-1903.21 -1782.45 0
-1782.45 -368.708 0
0 0 0

-1824.61 3517 0
3517 -1767.18 0
0 0 0

3181.63 550.205 0
550.205 930.994 0
0 0 0

2405.99 503.333 0
503.333 778.559 0
0 0 0

793.662 -2504.92 0
-2504.92 -746.811 0
0 0 0

-4030.01 146.018 0
146.018 -3348.58 0
0 0 0

-4494.57 668.524 0
668.524 391.417 0
0 0 0

643.421 2638.2 0
2638.2 -1556.51 0
0 0 0

-977.3 100.805 0
100.805 -1773.19 0
0 0 0

2415.4 -1960.82 0
-1960.82 1836.01 0
0 0 0

184.38 -1311 0
-1311 -2886.61 0
0 0 0

2955.15 -920.323 0
-920.323 2859.26 0
0 0 0

-804.051 1244.12 0
1244.12 -2254.05 0
0 0 0

687.755 -1137.03 0
-1137.03 -3769.17 0
0 0 0

313.406 216.39 0
216.39 116.624 0
0 0 0

1173.65 -374.957 0
-374.957 -2448.02 0
0 0 0

-1918.99 691.323 0
691.323 374.076 0
0 0 0

-2677.03 3082.73 0
3082.73 2120.69 0
0 0 0

-1085.96 -851.064 0
-851.064 733.763 0
0 0 0

93.1447 194.988 0
194.988 -1229.11 0
0 0 0

2982.39 945.485 0
945.485 1598.47 0
0 0 0

244.767 3475.09 0
3475.09 3475.62 0
0 0 0

-2363.45 -579.811 0
-579.811 1178.63 0
0 0 0

-4793.86 1502.23 0
1502.23 -4236.32 0
0 0 0

2074.06 141.267 0
141.267 986.719 0
0 0 0

-780.321 -2265.2 0
-2265.2 751.187 0
0 0 0

100.697 -148.624 0
-148.624 5696.37 0
0 0 0

1600.26 1041.1 0
1041.1 -1328.45 0
0 0 0

960.38 -622.633 0
-622.633 321.087 0
0 0 0

-675.495 -1234.5 0
-1234.5 -1907.66 0
0 0 0

-1024.91 -792.485 0
-792.485 -1219.85 0
0 0 0

-510.374 -3162.11 0
-3162.11 -2495.67 0
0 0 0

-1593.29 2463.54 0
2463.54 -591.537 0
0 0 0

-451.665 1576.4 0
1576.4 -322.91 0
0 0 0

2716.36 2072.3 0
2072.3 1277.97 0
0 0 0

-6966.57 -3482.37 0
-3482.37 -745.15 0
0 0 0

-321.521 4123.22 0
4123.22 5083.18 0
0 0 0

3739.82 -1384.58 0
-1384.58 915.2 0
0 0 0

4677.78 431.895 0
431.895 -3642.01 0
0 0 0

-2822.45 -1874.4 0
-1874.4 6398.38 0
0 0 0

-2946.46 2054.55 0
2054.55 2048.96 0
0 0 0

-1109.52 248.316 0
248.316 1511.43 0
0 0 0

-654.426 275.168 0
275.168 -2937.06 0
0 0 0

443.841 -408.831 0
-408.831 -4955.66 0
0 0 0

-2645.16 -546.748 0
-546.748 -1608.02 0
0 0 0

-818.221 -1859.99 0
-1859.99 752.966 0
0 0 0

-194.143 489.065 0
489.065 2338.42 0
0 0 0

-932.167 -1391.77 0
-1391.77 -1101.56 0
0 0 0

-1647.59 -1957.5 0
-1957.5 -1907.81 0
0 0 0

363.152 802.719 0
802.719 600.714 0
0 0 0

1997.16 2078.57 0
2078.57 3557.84 0
0 0 0

-5919.94 -558.353 0
-558.353 -2078.1 0
0 0 0

3903.24 -1127.94 0
-1127.94 3670.07 0
0 0 0

-273.495 -439.43 0
-439.43 2348.3 0
0 0 0

1458.69 -1084.23 0
-1084.23 4262.5 0
0 0 0

-2328.15 -2002.15 0
-2002.15 -639.14 0
0 0 0

1818.68 2380.57 0
2380.57 4682.55 0
0 0 0

-259.08 1970.26 0
1970.26 -3272.59 0
0 0 0

960.836 434.932 0
434.932 -1049.71 0
0 0 0

-812.315 456.523 0
456.523 -792.434 0
0 0 0

-5061.45 1395.73 0
1395.73 -165.046 0
0 0 0

2560 2603.47 0
2603.47 -1490.87 0
0 0 0

2334.12 3698.19 0
3698.19 2186.56 0
0 0 0

TENSORS velocity_gradient double
-2.77592 -1.98207 0
-4.21778 1.41382 0
0 0 0

-0.390047 -2.54268 0
1.76808 -0.537261 0
0 0 0

-2.29171 -0.94303 0
1.6286 2.03987 0
0 0 0

-0.874465 -0.630051 0
2.02089 1.07117 0
0 0 0

0.383886 -2.156 0
0.474227 -1.18372 0
0 0 0

0.934188 0.942895 0
-0.484369 -1.55133 0
0 0 0

0.0412993 -1.34085 0
1.04696 -2.54648 0
0 0 0

1.10172 -0.662938 0
1.83751 -2.57417 0
0 0 0

0.552605 1.50194 0
-0.0199369 -1.2677 0
0 0 0

0.345052 2.05683 0
1.33148 2.01371 0
0 0 0

0.866753 0.804722 0
3.28262 -0.594937 0
0 0 0

0.0276104 0.47108 0
3.96052 -0.325405 0
0 0 0

-1.08344 3.02756 0
3.00539 3.20285 0
0 0 0

-1.63398 1.82139 0
1.96199 -9.63821 0
0 0 0

-0.724139 2.26448 0
3.5361 2.07571 0
0 0 0

-1.45855 1.89795 0
2.45132 1.53432 0
0 0 0

-2.88688 0.397699 0
1.41031 2.5316 0
0 0 0

-1.94264 1.12469 0
1.09465 2.44398 0
0 0 0

-3.7697 2.42011 0
2.53396 2.47738 0
0 0 0

-2.48651 2.21583 0
1.46224 1.4654 0
0 0 0

-0.77934 -0.190593 0
0.854574 -2.33203 0
0 0 0

0.582625 0.434256 0
1.97935 -1.816 0
0 0 0

-1.37057 2.03509 0
0.67525 0.0487615 0
0 0 0

-0.304868 1.62623 0
0.19951 -0.758451 0
0 0 0

1.25957 -0.0398555 0
2.96528 0.0873546 0
0 0 0

0.416308 -0.313647 0
3.08274 0.345527 0
0 0 0

-0.511099 1.32959 0
-0.912864 -0.0737953 0
0 0 0

0.0526621 0.012267 0
-0.391605 0.849202 0
0 0 0

0.544497 1.20574 0
0.348524 0.940577 0
0 0 0

-0.115768 1.0651 0
-0.942673 0.524247 0
0 0 0

0.697269 0.293527 0
0.0384196 0.991297 0
0 0 0

0.262981 0.209098 0
-0.520119 -0.430761 0
0 0 0

-4.53444 6.01543 0
2.86242 2.67563 0
0 0 0

-2.31852 3.22979 0
-0.780703 0.630681 0
0 0 0

-1.1842 6.7617 0
-2.58981 1.8058 0
0 0 0

-1.76935 4.22084 0
-3.37715 0.927874 0
0 0 0

-1.18396 3.49231 0
-2.83197 0.612469 0
0 0 0

-0.841307 1.99832 0
-2.18304 0.0992242 0
0 0 0

-1.37784 3.97691 0
-3.0175 1.07621 0
0 0 0

-0.945709 2.9564 0
-2.45377 1.05189 0
0 0 0

-0.642198 2.08889 0
-1.31593 0.493619 0
0 0 0

-0.245885 0.636378 0
-0.592545 1.26927 0
0 0 0

-1.31189 1.98631 0
1.15689 0.998782 0
0 0 0

-2.50564 1.09972 0
1.18945 1.26177 0
0 0 0

-3.06534 0.548946 0
1.7973 1.60094 0
0 0 0

-4.38012 2.37403 0
3.63785 -0.103527 0
0 0 0

-3.8019 -0.652153 0
2.01598 2.67403 0
0 0 0

-5.12166 -1.36052 0
3.10968 3.26106 0
0 0 0

-0.79146 5.8151 0
-2.08366 0.585854 0
0 0 0

-0.720367 5.37991 0
-1.76867 0.194176 0
0 0 0

2.19123 5.164 0
-0.863353 0.419823 0
0 0 0

2.03445 5.07483 0
1.20238 1.59456 0
0 0 0

1.14017 3.94839 0
2.60349 1.25544 0
0 0 0

0.0848671 3.49765 0
2.23998 1.10017 0
0 0 0

1.64347 3.02761 0
2.75281 0.976442 0
0 0 0

0.64109 2.43125 0
2.43158 0.732839 0
0 0 0

-0.968571 0.988027 0
1.78118 0.533822 0
0 0 0

-2.03307 0.547219 0
1.2583 0.317297 0
0 0 0

0.702868 0.54867 0
3.61694 0.502652 0
0 0 0

0.625331 -0.266049 0
4.07037 -0.514158 0
0 0 0

-1.58964 -1.89884 0
1.41299 3.29181 0
0 0 0

0.251767 -2.05132 0
-1.96421 2.36209 0
0 0 0

0.182388 -1.18637 0
2.67175 -0.297556 0
0 0 0

0.206076 -1.95226 0
-0.567216 -0.666651 0
0 0 0

SCALARS active double 1
LOOKUP_TABLE default
1
1
1
1
1
1
1
1
1
1
1
1
1
1
1
1
1
1
1
1
1
1
1
1
1
1
1
1
1
1
1
1
1
1
1
1
1
1
1
1
1
1
1
1
1
1
1
1
1
1
1
1
1
1
1
1
1
1
1
1
1
1
1
1
SCALARS extent double 1
LOOKUP_TABLE default
0.0125
0.0125
0.0125
0.0125
0.0125
0.0125
0.0125
0.0125
0.0125
0.0125
0.0125
0.0125
0.0125
0.0125
0.0125
0.0125
0.0125
0.0125
0.0125
0.0125
0.0125
0.0125
0.0125
0.0125
0.0125
0.0125
0.0125
0.0125
0.0125
0.0125
0.0125
0.0125
0.0125
0.0125
0.0125
0.0125
0.0125
0.0125
0.0125
0.0125
0.0125
0.0125
0.0125
0.0125
0.0125
0.0125
0.0125
0.0125
0.0125
0.0125
0.0125
0.0125
0.0125
0.0125
0.0125
0.0125
0.0125
0.0125
0.0125
0.0125
0.0125
0.0125
0.0125
0.0125
SCALARS pressure double 1
LOOKUP_TABLE default
-405.847
1135.96
1795.89
-2056.31
-1592.27
-23.4255
3689.3
2051.58
456.545
1375.25
-2125.7
1351.11
-2907.2
1529.05
1540.71
-215.015
637.188
772.457
278.172
176.096
567.983
-2290.43
-1860.19
592.41
4515.09
-1530.39
14.5669
-2898.53
-135.901
-640.734
1291.58
1122.38
1503.02
1092.41
387.287
-1997.17
3855.86
-2380.83
-2327.51
-517.884
-1787.96
448.748
-200.954
1795.74
2255.91
2126.59
32.6279
-1072.14
1016.86
1777.7
-481.933
-2777.5
3999.02
-3786.66
-1037.4
-2860.59
1483.64
-3250.61
1765.83
44.4372
802.374
2613.25
-534.563
-2260.34
SCALARS density double 1
LOOKUP_TABLE default
995.788
1011.88
1018.85
978.841
983.577
999.756
1039.11
1021.57
1004.76
1014.41
978.135
1014.15
970.218
1016.03
1016.15
997.766
1006.65
1008.07
1002.9
1001.83
1005.92
976.461
980.84
1006.18
1048.08
984.21
1000.15
970.305
998.588
993.359
1013.52
1011.74
1015.75
1011.43
1004.04
979.444
1040.92
975.543
976.085
994.628
981.577
1004.68
997.912
1018.85
1023.74
1022.36
1000.34
988.912
1010.63
1018.66
995
971.527
1042.47
961.384
989.269
970.688
1015.55
966.759
1018.53
1000.46
1008.38
1027.55
994.456
976.767
