# vtk DataFile Version 3.0
Frame: 36, Time: 0.617
ASCII
DATASET UNSTRUCTURED_GRID
POINTS 64 double
0.0958299 0.0366816 0 
0.095907 0.0570234 0 
0.123369 0.0360992 0 
0.122318 0.0563679 0 
0.0935058 0.0787664 0 
0.0932556 0.101157 0 
0.120529 0.0779156 0 
0.12 0.100503 0 
0.0898771 0.123473 0 
0.0873078 0.147102 0 
0.117927 0.124188 0 
0.114246 0.14723 0 
0.0886963 0.170912 0 
0.086549 0.193406 0 
0.114868 0.171815 0 
0.112569 0.195711 0 
0.152436 0.0371458 0 
0.1491 0.057904 0 
0.179461 0.0379154 0 
0.175464 0.0582106 0 
0.145987 0.079949 0 
0.143754 0.102359 0 
0.173297 0.0802147 0 
0.169944 0.102066 0 
0.141458 0.126236 0 
0.137746 0.149318 0 
0.167643 0.125942 0 
0.164414 0.149116 0 
0.138106 0.17343 0 
0.137725 0.200169 0 
0.16369 0.173484 0 
0.162426 0.199124 0 
0.207352 0.0379228 0 
0.200667 0.0591418 0 
0.237485 0.0408399 0 
0.228164 0.0618496 0 
0.19883 0.0818386 0 
0.195177 0.103765 0 
0.225813 0.0843872 0 
0.220977 0.106443 0 
0.193156 0.126933 0 
0.190445 0.15032 0 
0.217831 0.129462 0 
0.215223 0.152816 0 
0.188367 0.17556 0 
0.187027 0.200038 0 
0.213106 0.17666 0 
0.212051 0.201467 0 
0.264026 0.0436215 0 
0.253557 0.0652239 0 
0.29015 0.0457 0 
0.279846 0.0680143 0 
0.252374 0.0871587 0 
0.24738 0.108284 0 
0.280337 0.0894104 0 
0.274375 0.111247 0 
0.242964 0.130313 0 
0.240829 0.154027 0 
0.268711 0.134081 0 
0.267515 0.157722 0 
0.237667 0.17783 0 
0.236271 0.201701 0 
0.263374 0.18149 0 
0.262596 0.205189 0 
CELLS 64 128
1 0
1 1
1 2
1 3
1 4
1 5
1 6
1 7
1 8
1 9
1 10
1 11
1 12
1 13
1 14
1 15
1 16
1 17
1 18
1 19
1 20
1 21
1 22
1 23
1 24
1 25
1 26
1 27
1 28
1 29
1 30
1 31
1 32
1 33
1 34
1 35
1 36
1 37
1 38
1 39
1 40
1 41
1 42
1 43
1 44
1 45
1 46
1 47
1 48
1 49
1 50
1 51
1 52
1 53
1 54
1 55
1 56
1 57
1 58
1 59
1 60
1 61
1 62
1 63
CELL_TYPES 64
1
1
1
1
1
1
1
1
1
1
1
1
1
1
1
1
1
1
1
1
1
1
1
1
1
1
1
1
1
1
1
1
1
1
1
1
1
1
1
1
1
1
1
1
1
1
1
1
1
1
1
1
1
1
1
1
1
1
1
1
1
1
1
1
POINT_DATA 64
VECTORS displacement double
-0.31667 -0.375818 0 
-0.316593 -0.380477 0 
-0.314131 -0.376401 0 
-0.315182 -0.381132 0 
-0.318994 -0.383734 0 
-0.319244 -0.386343 0 
-0.316971 -0.384584 0 
-0.3175 -0.386997 0 
-0.322623 -0.389027 0 
-0.325192 -0.390398 0 
-0.319573 -0.388312 0 
-0.323254 -0.39027 0 
-0.323804 -0.391588 0 
-0.325951 -0.394094 0 
-0.322632 -0.390685 0 
-0.324931 -0.391789 0 
-0.310064 -0.375354 0 
-0.3134 -0.379596 0 
-0.308039 -0.374585 0 
-0.312036 -0.379289 0 
-0.316513 -0.382551 0 
-0.318746 -0.385141 0 
-0.314203 -0.382285 0 
-0.317556 -0.385434 0 
-0.321042 -0.386264 0 
-0.324754 -0.388182 0 
-0.319857 -0.386558 0 
-0.323086 -0.388384 0 
-0.324394 -0.38907 0 
-0.324775 -0.387331 0 
-0.32381 -0.389016 0 
-0.325074 -0.388376 0 
-0.305148 -0.374577 0 
-0.311833 -0.378358 0 
-0.300015 -0.37166 0 
-0.309336 -0.37565 0 
-0.31367 -0.380661 0 
-0.317323 -0.383735 0 
-0.311687 -0.378113 0 
-0.316523 -0.381057 0 
-0.319344 -0.385567 0 
-0.322055 -0.38718 0 
-0.319669 -0.383038 0 
-0.322277 -0.384684 0 
-0.324133 -0.38694 0 
-0.325473 -0.387462 0 
-0.324394 -0.38584 0 
-0.325449 -0.386033 0 
-0.298474 -0.368878 0 
-0.308943 -0.372276 0 
-0.29735 -0.3668 0 
-0.307654 -0.369486 0 
-0.310126 -0.375341 0 
-0.31512 -0.379216 0 
-0.307163 -0.37309 0 
-0.313125 -0.376253 0 
-0.319536 -0.382187 0 
-0.321671 -0.383473 0 
-0.318789 -0.378419 0 
-0.319985 -0.379778 0 
-0.324833 -0.38467 0 
-0.326229 -0.385799 0 
-0.324126 -0.38101 0 
-0.324904 -0.382311 0 
VECTORS velocity double
-0.95812 -0.99037 0 
-0.958925 -0.178325 0 
-0.952946 -0.426271 0 
-1.40385 -0.419524 0 
-1.4053 -0.645594 0 
-1.38777 -0.259265 0 
-1.28076 -0.715008 0 
-1.46107 -0.0413664 0 
-1.35867 -0.0989882 0 
-1.91322 -0.0960043 0 
-1.3525 0.124902 0 
-1.20211 -0.341666 0 
-1.19686 -0.278508 0 
-1.45291 -0.472471 0 
-1.116 -0.29027 0 
-1.28129 -0.331935 0 
-0.780998 -0.634696 0 
-1.08478 -0.251476 0 
-1.0836 -0.385807 0 
-0.899857 0.176202 0 
-1.11452 -0.621533 0 
-1.48008 -0.311055 0 
-0.735749 -0.308385 0 
-1.3542 -0.371638 0 
-1.43693 -0.126073 0 
-1.13574 -0.359408 0 
-1.28018 -0.141851 0 
-1.00669 -0.387798 0 
-1.36182 -0.295418 0 
-1.27423 -0.455656 0 
-1.23466 -0.301216 0 
-1.0297 -0.69716 0 
-0.624957 -0.526723 0 
-0.950379 -0.22409 0 
-0.689556 -0.390948 0 
-0.497592 0.131254 0 
-0.715356 -0.436023 0 
-0.994637 -0.305037 0 
-0.399436 -0.447139 0 
-0.761807 -0.228666 0 
-1.14467 -0.274433 0 
-0.678896 -0.349672 0 
-1.27687 -0.156955 0 
-0.874322 -0.174229 0 
-1.19424 -0.714963 0 
-1.08119 -0.728511 0 
-1.16973 -0.411563 0 
-1.02703 -0.510235 0 
-0.533087 -0.252304 0 
-0.360946 0.409454 0 
-0.270611 0.336494 0 
-0.487955 0.448028 0 
-0.798583 -0.580515 0 
-0.66237 -0.496963 0 
-0.367551 0.237081 0 
-0.371596 0.102137 0 
-0.973866 -0.304293 0 
-0.799882 -0.662517 0 
-0.811741 0.0614327 0 
-0.907881 -0.0618124 0 
-1.02474 -0.607541 0 
-0.929778 -0.988004 0 
-0.583759 -0.374011 0 
-0.84742 -0.524228 0 
SCALARS mass double 1
LOOKUP_TABLE default
0.625
0.625
0.625
0.625
0.625
0.625
0.625
0.625
0.625
0.625
0.625
0.625
0.625
0.625
0.625
0.625
0.625
0.625
0.625
0.625
0.625
0.625
0.625
0.625
0.625
0.625
0.625
0.625
0.625
0.625
0.625
0.625
0.625
0.625
0.625
0.625
0.625
0.625
0.625
0.625
0.625
0.625
0.625
0.625
0.625
0.625
0.625
0.625
0.625
0.625
0.625
0.625
0.625
0.625
0.625
0.625
0.625
0.625
0.625
0.625
0.625
0.625
0.625
0.625
SCALARS volume double 1
LOOKUP_TABLE default
0.000513377
0.000607509
0.000511318
0.000613652
0.00058599
0.000609117
0.00057203
0.000596478
0.000594223
0.000608329
0.000591922
0.000614226
0.000595774
0.000621209
0.000606078
0.000610995
0.000541383
0.000630518
0.00051854
0.00059328
0.000589798
0.000622384
0.000592855
0.000610475
0.000595116
0.000568428
0.00059551
0.000620012
0.000633371
0.000620154
0.000593896
0.000627539
0.000555622
0.000581649
0.000533091
0.000609247
0.000597506
0.000594231
0.000612524
0.000585102
0.000604085
0.000597808
0.000639232
0.000567605
0.000612118
0.000613643
0.000612233
0.000617267
0.00056978
0.000593927
0.000591085
0.000631351
0.000581391
0.00058891
0.000593566
0.000586705
0.0005888
0.000608635
0.000603796
0.00059995
0.000601634
0.000625027
0.000606168
0.000618692
VECTORS momentum double
-0.598825 -0.618981 0 
-0.599328 -0.111453 0 
-0.595591 -0.266419 0 
-0.877407 -0.262202 0 
-0.878313 -0.403496 0 
-0.867355 -0.16204 0 
-0.800474 -0.44688 0 
-0.913166 -0.025854 0 
-0.84917 -0.0618676 0 
-1.19576 -0.0600027 0 
-0.84531 0.0780636 0 
-0.751317 -0.213541 0 
-0.748039 -0.174067 0 
-0.908067 -0.295294 0 
-0.697499 -0.181419 0 
-0.800803 -0.20746 0 
-0.488124 -0.396685 0 
-0.677989 -0.157173 0 
-0.677248 -0.24113 0 
-0.56241 0.110126 0 
-0.696573 -0.388458 0 
-0.925048 -0.194409 0 
-0.459843 -0.192741 0 
-0.846372 -0.232274 0 
-0.898078 -0.0787954 0 
-0.709836 -0.22463 0 
-0.800115 -0.0886569 0 
-0.629181 -0.242374 0 
-0.851135 -0.184637 0 
-0.796393 -0.284785 0 
-0.771665 -0.18826 0 
-0.643561 -0.435725 0 
-0.390598 -0.329202 0 
-0.593987 -0.140057 0 
-0.430972 -0.244342 0 
-0.310995 0.0820335 0 
-0.447098 -0.272514 0 
-0.621648 -0.190648 0 
-0.249648 -0.279462 0 
-0.47613 -0.142916 0 
-0.715422 -0.171521 0 
-0.42431 -0.218545 0 
-0.798046 -0.0980969 0 
-0.546452 -0.108893 0 
-0.746399 -0.446852 0 
-0.675743 -0.455319 0 
-0.731078 -0.257227 0 
-0.641891 -0.318897 0 
-0.33318 -0.15769 0 
-0.225591 0.255909 0 
-0.169132 0.210309 0 
-0.304972 0.280018 0 
-0.499114 -0.362822 0 
-0.413981 -0.310602 0 
-0.22972 0.148176 0 
-0.232247 0.0638355 0 
-0.608666 -0.190183 0 
-0.499926 -0.414073 0 
-0.507338 0.0383954 0 
-0.567426 -0.0386327 0 
-0.64046 -0.379713 0 
-0.581111 -0.617502 0 
-0.364849 -0.233757 0 
-0.529637 -0.327643 0 
VECTORS body_force double
0 -9.81 0 
0 -9.81 0 
0 -9.81 0 
0 -9.81 0 
0 -9.81 0 
0 -9.81 0 
0 -9.81 0 
0 -9.81 0 
0 -9.81 0 
0 -9.81 0 
0 -9.81 0 
0 -9.81 0 
0 -9.81 0 
0 -9.81 0 
0 -9.81 0 
0 -9.81 0 
0 -9.81 0 
0 -9.81 0 
0 -9.81 0 
0 -9.81 0 
0 -9.81 0 
0 -9.81 0 
0 -9.81 0 
0 -9.81 0 
0 -9.81 0 
0 -9.81 0 
0 -9.81 0 
0 -9.81 0 
0 -9.81 0 
0 -9.81 0 
0 -9.81 0 
0 -9.81 0 
0 -9.81 0 
0 -9.81 0 
0 -9.81 0 
0 -9.81 0 
0 -9.81 0 
0 -9.81 0 
0 -9.81 0 
0 -9.81 0 
0 -9.81 0 
0 -9.81 0 
0 -9.81 0 
0 -9.81 0 
0 -9.81 0 
0 -9.81 0 
0 -9.81 0 
0 -9.81 0 
0 -9.81 0 
0 -9.81 0 
0 -9.81 0 
0 -9.81 0 
0 -9.81 0 
0 -9.81 0 
0 -9.81 0 
0 -9.81 0 
0 -9.81 0 
0 -9.81 0 
0 -9.81 0 
0 -9.81 0 
0 -9.81 0 
0 -9.81 0 
0 -9.81 0 
0 -9.81 0 
TENSORS cauchy_stress double
-1687.48 -1233.01 0
-1233.01 -36147.3 0
0 0 0

3568.09 -2511.31 0
-2511.31 -9026.58 0
0 0 0

-820.602 -2517.77 0
-2517.77 -37787.2 0
0 0 0

6005.7 -1166.86 0
-1166.86 -9529.38 0
0 0 0

1274.72 -943.819 0
-943.819 -13668.8 0
0 0 0

1429.29 1781.86 0
1781.86 -6379.42 0
0 0 0

734.321 -3292.94 0
-3292.94 -17765.2 0
0 0 0

-1736.75 -976.924 0
-976.924 -7245.81 0
0 0 0

958.944 -2203.91 0
-2203.91 -10670 0
0 0 0

-165.741 1990.07 0
1990.07 -5033.39 0
0 0 0

-298.862 -4891.5 0
-4891.5 -10158.2 0
0 0 0

1828.08 2850.04 0
2850.04 -5172.08 0
0 0 0

167.782 -1110.8 0
-1110.8 -9377.35 0
0 0 0

358.736 1049.69 0
1049.69 -1528.75 0
0 0 0

-4107.52 -1840.57 0
-1840.57 -1804.5 0
0 0 0

1668.64 783.776 0
783.776 -6026.73 0
0 0 0

3027.27 -1228.18 0
-1228.18 -30647.4 0
0 0 0

6035.34 541.54 0
541.54 -4344.94 0
0 0 0

-2072.52 -199.86 0
-199.86 -33837.9 0
0 0 0

1463.28 948.428 0
948.428 -11479.7 0
0 0 0

2368.7 1190.62 0
1190.62 -13517.1 0
0 0 0

3463.26 3433.12 0
3433.12 -4270.03 0
0 0 0

4420.62 -2520.35 0
-2520.35 -14574.7 0
0 0 0

1739.88 -1151.53 0
-1151.53 -6261.74 0
0 0 0

-1698.69 -1261.45 0
-1261.45 -7723.38 0
0 0 0

-5586.67 -499.329 0
-499.329 -12659.1 0
0 0 0

-2801.66 -2927.85 0
-2927.85 -6493.34 0
0 0 0

3664.78 -3631.1 0
-3631.1 -5205.82 0
0 0 0

1721.71 -15.6724 0
-15.6724 836.772 0
0 0 0

341.033 -745.123 0
-745.123 -1837.92 0
0 0 0

-4684.36 -2144.92 0
-2144.92 -5132.48 0
0 0 0

-2787.96 1200.51 0
1200.51 3567.5 0
0 0 0

6120.03 -1114.59 0
-1114.59 -28747.6 0
0 0 0

-2497.39 1312.26 0
1312.26 -11326.5 0
0 0 0

-1219.73 -953.739 0
-953.739 -29368.7 0
0 0 0

4698.01 -2307.31 0
-2307.31 -9607.37 0
0 0 0

2276.31 -101.062 0
-101.062 -10927.8 0
0 0 0

729.464 1434.62 0
1434.62 -10437.8 0
0 0 0

6762.77 -3354.34 0
-3354.34 -10640.5 0
0 0 0

-73.533 -2489.8 0
-2489.8 -12612.1 0
0 0 0

-1778.17 964.213 0
964.213 -4767.48 0
0 0 0

-985.363 75.1153 0
75.1153 -7568.91 0
0 0 0

2764.16 -2393.1 0
-2393.1 1565.88 0
0 0 0

-954.823 -3589.05 0
-3589.05 -17569.3 0
0 0 0

-4674.86 1275.91 0
1275.91 669.665 0
0 0 0

2300.05 166.158 0
166.158 -5826.66 0
0 0 0

-2817.75 242.283 0
242.283 -1151.26 0
0 0 0

-2943.31 -1554.73 0
-1554.73 548.93 0
0 0 0

-191.897 2493.45 0
2493.45 -17596.7 0
0 0 0

-1683.43 123.789 0
123.789 -8123.41 0
0 0 0

4049.66 150.083 0
150.083 -14778.9 0
0 0 0

6469.53 -2745.9 0
-2745.9 -4525.12 0
0 0 0

1694.3 1639.4 0
1639.4 -15603.5 0
0 0 0

2840.37 -1713.38 0
-1713.38 -14278.6 0
0 0 0

1559.65 2189.41 0
2189.41 -11483.4 0
0 0 0

-552.786 -1941.48 0
-1941.48 -11606.8 0
0 0 0

-4081.69 -1348.88 0
-1348.88 -7392.34 0
0 0 0

2227.6 335.159 0
335.159 -7329.92 0
0 0 0

-732.175 -1806.69 0
-1806.69 -5905.3 0
0 0 0

447.784 2134.95 0
2134.95 -8314.15 0
0 0 0

-2283.04 1518.88 0
1518.88 -5044.5 0
0 0 0

946.636 -529.021 0
-529.021 -938.181 0
0 0 0

-1604.06 -1074.44 0
-1074.44 -4279.4 0
0 0 0

-477.365 910.109 0
910.109 -1473.54 0
0 0 0

TENSORS velocity_gradient double
-0.761308 -4.07338 0
3.57619 -11.1963 0
0 0 0

-2.72781 -5.03213 0
4.27059 5.73622 0
0 0 0

1.60691 -5.38773 0
2.40827 -9.18872 0
0 0 0

1.52097 -4.68844 0
2.78216 3.7556 0
0 0 0

-3.30015 -5.07166 0
3.19861 5.90075 0
0 0 0

-2.47819 -2.75282 0
1.811 3.00123 0
0 0 0

1.75226 -4.7066 0
1.13276 3.88514 0
0 0 0

2.11298 -1.8524 0
-0.380226 2.04148 0
0 0 0

-0.224252 -1.69176 0
0.860717 1.32767 0
0 0 0

2.50779 -0.739143 0
-0.180163 0.252617 0
0 0 0

3.07127 0.277147 0
-0.910002 0.614428 0
0 0 0

3.92302 0.494617 0
-1.28571 -0.464072 0
0 0 0

2.52626 2.40593 0
-0.335156 -2.7295 0
0 0 0

1.88581 2.46833 0
-0.266523 -2.73619 0
0 0 0

3.16413 1.36296 0
-1.92081 -3.15282 0
0 0 0

2.07475 1.3011 0
-2.81234 -1.33964 0
0 0 0

3.73084 -5.34998 0
1.51725 -7.43075 0
0 0 0

3.60189 -4.29807 0
1.99589 1.83577 0
0 0 0

4.4103 -3.66756 0
1.25941 -6.49541 0
0 0 0

5.563 -3.27692 0
1.35034 0.788078 0
0 0 0

3.06528 -4.37832 0
0.871631 2.00403 0
0 0 0

2.65096 -0.318917 0
-0.435846 0.76323 0
0 0 0

6.49994 -3.36564 0
0.578279 0.861188 0
0 0 0

6.94518 -0.976734 0
-0.160648 -0.0121832 0
0 0 0

3.16306 1.31819 0
-0.941609 0.25596 0
0 0 0

3.92017 0.748797 0
-1.33168 -1.60772 0
0 0 0

5.49004 0.325369 0
-0.857261 -0.3931 0
0 0 0

3.99347 0.022195 0
-1.50267 -2.18444 0
0 0 0

3.08573 0.272643 0
-1.9675 -3.80231 0
0 0 0

1.93556 0.236966 0
-3.36803 -1.2416 0
0 0 0

3.23575 -0.594866 0
-2.06414 -4.42823 0
0 0 0

2.77971 -0.0523039 0
-2.43097 -2.76128 0
0 0 0

4.74496 -1.93553 0
3.51823 -5.09987 0
0 0 0

5.39899 -2.40958 0
3.01685 -0.181884 0
0 0 0

4.8914 -0.376969 0
3.77834 -2.33164 0
0 0 0

5.25 -2.54136 0
3.91302 -1.72295 0
0 0 0

5.85065 -2.43905 0
1.5789 -0.0990583 0
0 0 0

6.50046 -1.72043 0
0.144563 -0.946336 0
0 0 0

5.03888 -2.52003 0
2.59519 -1.58978 0
0 0 0

4.63207 -2.71788 0
1.58893 -1.63912 0
0 0 0

5.36824 -1.44741 0
-0.81793 -1.11737 0
0 0 0

3.93439 -1.25811 0
-1.53427 -3.24545 0
0 0 0

3.72855 -2.59751 0
1.21691 -1.58956 0
0 0 0

3.06718 -1.53156 0
0.908208 -4.32462 0
0 0 0

3.18307 -1.20103 0
-2.11125 -4.97023 0
0 0 0

2.78522 0.243665 0
-2.41925 -2.11338 0
0 0 0

3.34507 -1.24872 0
0.849605 -5.22415 0
0 0 0

3.47522 0.412365 0
0.650335 -1.59674 0
0 0 0

2.59646 -0.866107 0
5.2268 0.509684 0
0 0 0

3.02222 -2.57226 0
6.13508 -2.68011 0
0 0 0

2.54371 -2.66397 0
5.38931 2.93218 0
0 0 0

2.65034 -1.82041 0
6.73992 -1.69551 0
0 0 0

3.69929 -2.584 0
6.21718 -2.67071 0
0 0 0

4.19514 -3.69261 0
3.6937 -2.12221 0
0 0 0

3.29921 -1.80442 0
7.6315 -1.67353 0
0 0 0

3.46709 -4.16491 0
7.5855 -3.17674 0
0 0 0

3.6956 -3.57842 0
1.21235 -1.99382 0
0 0 0

3.05281 -1.23249 0
0.897691 -4.77005 0
0 0 0

3.15307 -4.08893 0
6.59176 -2.93629 0
0 0 0

2.9969 -0.570911 0
5.4985 -6.22095 0
0 0 0

3.36248 -0.879887 0
0.847861 -5.2611 0
0 0 0

3.47205 -0.151745 0
0.645732 -2.17815 0
0 0 0

3.17579 -0.60166 0
4.26712 -6.00929 0
0 0 0

2.81556 -1.43773 0
3.28041 -1.60836 0
0 0 0

SCALARS active double 1
LOOKUP_TABLE default
1
1
1
1
1
1
1
1
1
1
1
1
1
1
1
1
1
1
1
1
1
1
1
1
1
1
1
1
1
1
1
1
1
1
1
1
1
1
1
1
1
1
1
1
1
1
1
1
1
1
1
1
1
1
1
1
1
1
1
1
1
1
1
1
SCALARS extent double 1
LOOKUP_TABLE default
0.0125
0.0125
0.0125
0.0125
0.0125
0.0125
0.0125
0.0125
0.0125
0.0125
0.0125
0.0125
0.0125
0.0125
0.0125
0.0125
0.0125
0.0125
0.0125
0.0125
0.0125
0.0125
0.0125
0.0125
0.0125
0.0125
0.0125
0.0125
0.0125
0.0125
0.0125
0.0125
0.0125
0.0125
0.0125
0.0125
0.0125
0.0125
0.0125
0.0125
0.0125
0.0125
0.0125
0.0125
0.0125
0.0125
0.0125
0.0125
0.0125
0.0125
0.0125
0.0125
0.0125
0.0125
0.0125
0.0125
0.0125
0.0125
0.0125
0.0125
0.0125
0.0125
0.0125
0.0125
SCALARS pressure double 1
LOOKUP_TABLE default
18917.4
2729.24
19303.9
1761.84
6197.06
2475.06
8515.46
4491.28
4855.52
2599.56
5228.55
1672
4604.78
585.007
2956.01
2179.04
13810.1
-845.199
17955.2
5008.2
5574.19
403.381
5077.04
2260.93
4711.04
9122.87
4647.5
770.52
-1279.24
748.445
4908.42
-389.773
11313.8
6911.93
15294.2
2454.68
4325.72
4854.18
1938.86
6342.83
3272.82
4277.14
-2165.02
9262.08
2002.6
1763.3
1984.51
1197.19
8894.3
4903.42
5364.61
-972.205
6954.59
5719.11
4961.87
6079.78
5737.01
2551.16
3318.74
3933.18
3663.77
-4.22767
2941.73
975.451
SCALARS density double 1
LOOKUP_TABLE default
1217.43
1028.79
1222.33
1018.49
1066.57
1026.07
1092.6
1047.82
1051.79
1027.4
1055.88
1017.54
1049.05
1006.1
1031.22
1022.92
1154.45
991.248
1205.31
1053.47
1059.68
1004.2
1054.22
1023.79
1050.21
1099.52
1049.52
1008.05
986.784
1007.81
1052.37
995.955
1124.87
1074.53
1172.41
1025.86
1046.01
1051.78
1020.37
1068.19
1034.62
1045.49
977.735
1101.12
1021.05
1018.51
1020.85
1012.53
1096.91
1052.32
1057.38
989.94
1075.01
1061.28
1052.96
1065.27
1061.48
1026.89
1035.12
1041.75
1038.84
999.956
1031.07
1010.2
