# vtk DataFile Version 3.0
Frame: 24, Time: 0.417
ASCII
DATASET UNSTRUCTURED_GRID
POINTS 64 double
0.677957 0.396112 0 
0.701731 0.388722 0 
0.669523 0.371688 0 
0.694571 0.363344 0 
0.724773 0.382962 0 
0.748822 0.378229 0 
0.718664 0.35746 0 
0.743998 0.352964 0 
0.773574 0.373793 0 
0.799349 0.369179 0 
0.769472 0.348542 0 
0.79529 0.344743 0 
0.825061 0.364141 0 
0.850324 0.358524 0 
0.820941 0.339816 0 
0.846133 0.333078 0 
0.663406 0.347458 0 
0.687968 0.33966 0 
0.656415 0.323039 0 
0.680967 0.315189 0 
0.712041 0.332989 0 
0.736984 0.328484 0 
0.704906 0.308005 0 
0.730733 0.303874 0 
0.763031 0.324288 0 
0.788232 0.320549 0 
0.75715 0.300568 0 
0.783414 0.29677 0 
0.814667 0.315275 0 
0.839686 0.308316 0 
0.808697 0.290955 0 
0.833933 0.283691 0 
0.650585 0.298615 0 
0.674096 0.289892 0 
0.644155 0.273607 0 
0.669216 0.265274 0 
0.699605 0.284511 0 
0.72576 0.279773 0 
0.69625 0.260258 0 
0.720497 0.255828 0 
0.751898 0.276013 0 
0.778027 0.273183 0 
0.746313 0.251734 0 
0.7725 0.247933 0 
0.802778 0.266933 0 
0.82785 0.25949 0 
0.796315 0.242628 0 
0.821921 0.236608 0 
0.639931 0.248194 0 
0.66458 0.241639 0 
0.633562 0.223141 0 
0.658217 0.216945 0 
0.690176 0.23574 0 
0.716512 0.231415 0 
0.684652 0.211868 0 
0.71234 0.207246 0 
0.743529 0.22759 0 
0.768768 0.2218 0 
0.737605 0.203038 0 
0.762908 0.196223 0 
0.793588 0.216541 0 
0.818896 0.213271 0 
0.789171 0.191973 0 
0.816006 0.189748 0 
CELLS 64 128
1 0
1 1
1 2
1 3
1 4
1 5
1 6
1 7
1 8
1 9
1 10
1 11
1 12
1 13
1 14
1 15
1 16
1 17
1 18
1 19
1 20
1 21
1 22
1 23
1 24
1 25
1 26
1 27
1 28
1 29
1 30
1 31
1 32
1 33
1 34
1 35
1 36
1 37
1 38
1 39
1 40
1 41
1 42
1 43
1 44
1 45
1 46
1 47
1 48
1 49
1 50
1 51
1 52
1 53
1 54
1 55
1 56
1 57
1 58
1 59
1 60
1 61
1 62
1 63
CELL_TYPES 64
1
1
1
1
1
1
1
1
1
1
1
1
1
1
1
1
1
1
1
1
1
1
1
1
1
1
1
1
1
1
1
1
1
1
1
1
1
1
1
1
1
1
1
1
1
1
1
1
1
1
1
1
1
1
1
1
1
1
1
1
1
1
1
1
POINT_DATA 64
VECTORS displacement double
0.165457 -0.216388 0 
0.189231 -0.248778 0 
0.132023 -0.240812 0 
0.157071 -0.274156 0 
0.212273 -0.279538 0 
0.236322 -0.309271 0 
0.181164 -0.30504 0 
0.206498 -0.334536 0 
0.261074 -0.338707 0 
0.286849 -0.368321 0 
0.231972 -0.363958 0 
0.25779 -0.392757 0 
0.312561 -0.398359 0 
0.337824 -0.428976 0 
0.283441 -0.422684 0 
0.308633 -0.454422 0 
0.100906 -0.265042 0 
0.125468 -0.29784 0 
0.0689151 -0.289461 0 
0.0934673 -0.322311 0 
0.149541 -0.329511 0 
0.174484 -0.359016 0 
0.117406 -0.354495 0 
0.143233 -0.383626 0 
0.200531 -0.388212 0 
0.225732 -0.416951 0 
0.16965 -0.411932 0 
0.195914 -0.44073 0 
0.252167 -0.447225 0 
0.277186 -0.479184 0 
0.221197 -0.471545 0 
0.246433 -0.503809 0 
0.0380845 -0.313885 0 
0.061596 -0.347608 0 
0.00665519 -0.338893 0 
0.0317158 -0.372226 0 
0.0871047 -0.377989 0 
0.11326 -0.407727 0 
0.0587496 -0.402242 0 
0.0829974 -0.431672 0 
0.139398 -0.436487 0 
0.165527 -0.464317 0 
0.108813 -0.460766 0 
0.135 -0.489567 0 
0.190278 -0.495567 0 
0.21535 -0.52801 0 
0.158815 -0.519872 0 
0.184421 -0.550892 0 
-0.0225695 -0.364306 0 
0.00207981 -0.395861 0 
-0.0539379 -0.389359 0 
-0.0292831 -0.420555 0 
0.0276755 -0.42676 0 
0.0540124 -0.456085 0 
-0.002848 -0.450632 0 
0.0248399 -0.480254 0 
0.0810291 -0.48491 0 
0.106268 -0.5157 0 
0.0501051 -0.509462 0 
0.0754078 -0.541277 0 
0.131088 -0.545959 0 
0.156396 -0.574229 0 
0.101671 -0.570527 0 
0.128506 -0.597752 0 
VECTORS velocity double
3.56773 2.27156 0 
3.64924 1.30577 0 
2.05301 2.36006 0 
1.92114 1.05078 0 
3.13975 1.12812 0 
3.24982 0.926834 0 
1.32967 1.2804 0 
1.66802 0.775591 0 
3.17751 -0.272683 0 
3.02523 -1.45151 0 
2.26465 -0.204378 0 
2.44381 -0.88659 0 
3.11618 -1.15037 0 
3.27408 -2.24092 0 
2.22639 -0.969664 0 
1.97145 -2.44799 0 
2.33335 2.74139 0 
2.06618 1.17021 0 
1.9259 2.90453 0 
1.66658 1.34473 0 
1.79069 1.87278 0 
2.0948 1.23224 0 
1.42075 1.64859 0 
1.47679 1.51889 0 
2.23469 0.116648 0 
2.30422 -0.271461 0 
1.27753 0.12153 0 
1.49488 -0.492426 0 
2.00125 -0.50584 0 
1.51225 -2.27739 0 
1.45323 -0.564915 0 
1.1453 -2.4921 0 
1.67205 2.23533 0 
1.40797 1.2831 0 
1.51631 2.54468 0 
1.37355 1.6114 0 
1.38664 1.26611 0 
1.21696 1.82338 0 
1.49402 1.19436 0 
1.35347 1.58559 0 
1.44961 0.351522 0 
1.50051 -0.694884 0 
1.3789 0.170723 0 
1.52747 -0.641886 0 
1.04204 -0.852779 0 
0.998737 -2.46265 0 
0.986377 -0.391063 0 
0.984861 -1.57432 0 
1.63996 2.80354 0 
1.4269 1.54871 0 
0.197127 2.89779 0 
0.239407 1.60801 0 
1.32565 1.19765 0 
1.3538 1.28953 0 
-0.171695 1.66568 0 
-0.691308 1.06623 0 
1.28007 0.646569 0 
1.05772 -0.0161929 0 
-0.763534 0.183129 0 
-0.726777 -0.389289 0 
0.8812 0.0942418 0 
0.955187 -1.45298 0 
-0.957643 -0.582115 0 
-0.806951 -1.85285 0 
SCALARS mass double 1
LOOKUP_TABLE default
0.625
0.625
0.625
0.625
0.625
0.625
0.625
0.625
0.625
0.625
0.625
0.625
0.625
0.625
0.625
0.625
0.625
0.625
0.625
0.625
0.625
0.625
0.625
0.625
0.625
0.625
0.625
0.625
0.625
0.625
0.625
0.625
0.625
0.625
0.625
0.625
0.625
0.625
0.625
0.625
0.625
0.625
0.625
0.625
0.625
0.625
0.625
0.625
0.625
0.625
0.625
0.625
0.625
0.625
0.625
0.625
0.625
0.625
0.625
0.625
0.625
0.625
0.625
0.625
SCALARS volume double 1
LOOKUP_TABLE default
0.000647171
0.000629493
0.000610805
0.000630408
0.000623711
0.000628931
0.000608605
0.000631575
0.000631292
0.000635399
0.000644893
0.000643584
0.000633762
0.00064183
0.000616419
0.000638898
0.000636053
0.000624547
0.000640391
0.000621989
0.000624342
0.000659602
0.000619379
0.00063042
0.000602668
0.000632986
0.00066811
0.000633771
0.000644104
0.00063486
0.0006439
0.000629845
0.000621381
0.000654278
0.000642996
0.000661688
0.000603494
0.000636926
0.000637621
0.000618958
0.000649792
0.000605958
0.000670436
0.000625244
0.000620228
0.000594524
0.000643201
0.00060187
0.000642144
0.000628955
0.000649622
0.000624555
0.000639143
0.000639682
0.000658863
0.000655716
0.000632105
0.000640099
0.000644069
0.000653852
0.000622068
0.000601877
0.00065425
0.000642226
VECTORS momentum double
2.22983 1.41973 0 
2.28077 0.816109 0 
1.28313 1.47504 0 
1.20071 0.656737 0 
1.96235 0.705073 0 
2.03114 0.579271 0 
0.831041 0.800253 0 
1.04251 0.484744 0 
1.98594 -0.170427 0 
1.89077 -0.907196 0 
1.4154 -0.127736 0 
1.52738 -0.554119 0 
1.94761 -0.718982 0 
2.0463 -1.40057 0 
1.39149 -0.60604 0 
1.23216 -1.53 0 
1.45834 1.71337 0 
1.29136 0.73138 0 
1.20369 1.81533 0 
1.04161 0.840455 0 
1.11918 1.17049 0 
1.30925 0.770149 0 
0.887966 1.03037 0 
0.922995 0.949304 0 
1.39668 0.0729052 0 
1.44014 -0.169663 0 
0.798457 0.075956 0 
0.9343 -0.307766 0 
1.25078 -0.31615 0 
0.945154 -1.42337 0 
0.908271 -0.353072 0 
0.715813 -1.55756 0 
1.04503 1.39708 0 
0.879984 0.801934 0 
0.947691 1.59042 0 
0.858466 1.00712 0 
0.866647 0.79132 0 
0.760598 1.13961 0 
0.933762 0.746473 0 
0.84592 0.990997 0 
0.906007 0.219701 0 
0.937821 -0.434303 0 
0.861811 0.106702 0 
0.954668 -0.401179 0 
0.651275 -0.532987 0 
0.624211 -1.53915 0 
0.616485 -0.244414 0 
0.615538 -0.983951 0 
1.02497 1.75221 0 
0.891812 0.967946 0 
0.123205 1.81112 0 
0.14963 1.00501 0 
0.828532 0.748534 0 
0.846127 0.805956 0 
-0.107309 1.04105 0 
-0.432067 0.666392 0 
0.800044 0.404106 0 
0.661076 -0.0101206 0 
-0.477209 0.114456 0 
-0.454236 -0.243305 0 
0.55075 0.0589011 0 
0.596992 -0.908114 0 
-0.598527 -0.363822 0 
-0.504345 -1.15803 0 
VECTORS body_force double
0 -9.81 0 
0 -9.81 0 
0 -9.81 0 
0 -9.81 0 
0 -9.81 0 
0 -9.81 0 
0 -9.81 0 
0 -9.81 0 
0 -9.81 0 
0 -9.81 0 
0 -9.81 0 
0 -9.81 0 
0 -9.81 0 
0 -9.81 0 
0 -9.81 0 
0 -9.81 0 
0 -9.81 0 
0 -9.81 0 
0 -9.81 0 
0 -9.81 0 
0 -9.81 0 
0 -9.81 0 
0 -9.81 0 
0 -9.81 0 
0 -9.81 0 
0 -9.81 0 
0 -9.81 0 
0 -9.81 0 
0 -9.81 0 
0 -9.81 0 
0 -9.81 0 
0 -9.81 0 
0 -9.81 0 
0 -9.81 0 
0 -9.81 0 
0 -9.81 0 
0 -9.81 0 
0 -9.81 0 
0 -9.81 0 
0 -9.81 0 
0 -9.81 0 
0 -9.81 0 
0 -9.81 0 
0 -9.81 0 
0 -9.81 0 
0 -9.81 0 
0 -9.81 0 
0 -9.81 0 
0 -9.81 0 
0 -9.81 0 
0 -9.81 0 
0 -9.81 0 
0 -9.81 0 
0 -9.81 0 
0 -9.81 0 
0 -9.81 0 
0 -9.81 0 
0 -9.81 0 
0 -9.81 0 
0 -9.81 0 
0 -9.81 0 
0 -9.81 0 
0 -9.81 0 
0 -9.81 0 
TENSORS cauchy_stress double
2703.5 2649.92 0
2649.92 4000.15 0
0 0 0

-1839.25 1595.93 0
1595.93 3216.85 0
0 0 0

234.657 1763.18 0
1763.18 -4652.83 0
0 0 0

-755.304 -5401.8 0
-5401.8 2412 0
0 0 0

-4015.89 1906.7 0
1906.7 3618.96 0
0 0 0

-1001.94 1278.45 0
1278.45 2207.72 0
0 0 0

-1322.2 2740.07 0
2740.07 -3789.64 0
0 0 0

3168.33 645.436 0
645.436 -1155.85 0
0 0 0

2355.36 -501.818 0
-501.818 -428.945 0
0 0 0

4319.41 -672.177 0
-672.177 -1146.07 0
0 0 0

4600.88 2259.73 0
2259.73 1424.71 0
0 0 0

5073.3 -224.118 0
-224.118 561.592 0
0 0 0

2090.2 -2777.33 0
-2777.33 586.975 0
0 0 0

1472.17 -1684.25 0
-1684.25 3637.84 0
0 0 0

-2255.54 -3305.52 0
-3305.52 -403.041 0
0 0 0

2548.41 -900.312 0
-900.312 1680.98 0
0 0 0

752.626 1042.86 0
1042.86 2618.72 0
0 0 0

588.069 -1314.27 0
-1314.27 -727.553 0
0 0 0

2642.35 -405.671 0
-405.671 2035.95 0
0 0 0

-2804.91 -284.153 0
-284.153 1876.16 0
0 0 0

-752.072 5502.12 0
5502.12 549.405 0
0 0 0

6193.57 2705.09 0
2705.09 4168.82 0
0 0 0

981.86 -3376.49 0
-3376.49 -2719.08 0
0 0 0

2765.5 426.469 0
426.469 -1104.95 0
0 0 0

-461.618 897.607 0
897.607 -6535.6 0
0 0 0

5121.41 2783.67 0
2783.67 -2679.73 0
0 0 0

9801.87 2728.97 0
2728.97 3025.14 0
0 0 0

5044.16 1259.93 0
1259.93 -2364.24 0
0 0 0

5512.3 420.355 0
420.355 277.701 0
0 0 0

2062.93 -614.437 0
-614.437 947.088 0
0 0 0

3477 -2452.24 0
-2452.24 2252.13 0
0 0 0

551.577 -2230.47 0
-2230.47 933.452 0
0 0 0

-1706.9 -1129.4 0
-1129.4 590.119 0
0 0 0

2170.79 -3053.13 0
-3053.13 6633.08 0
0 0 0

2286.56 -2620.15 0
-2620.15 3172.5 0
0 0 0

10160.3 -3482.95 0
-3482.95 809.414 0
0 0 0

1698.34 1924.71 0
1924.71 -8432 0
0 0 0

6591.36 1719.21 0
1719.21 -2956.49 0
0 0 0

2665.96 1206.5 0
1206.5 1178.73 0
0 0 0

-3184.79 2964.03 0
2964.03 1316.58 0
0 0 0

7429.59 5298.16 0
5298.16 51.3885 0
0 0 0

-221.655 1373.67 0
1373.67 -5728.68 0
0 0 0

11863.7 -1531.36 0
-1531.36 1631.7 0
0 0 0

-5754.51 -601.956 0
-601.956 5829.43 0
0 0 0

-49.2905 -2389.42 0
-2389.42 -1424.57 0
0 0 0

-3653 -876.89 0
-876.89 -5960.52 0
0 0 0

2981.26 484.382 0
484.382 2539.19 0
0 0 0

3451.95 -532.627 0
-532.627 -10703.9 0
0 0 0

1892.51 527.252 0
527.252 3311.55 0
0 0 0

1088.28 190.307 0
190.307 124.856 0
0 0 0

3441.24 -687.139 0
-687.139 3989.35 0
0 0 0

132.514 -991.722 0
-991.722 -269.518 0
0 0 0

4264.2 86.8869 0
86.8869 38.9676 0
0 0 0

7640.16 416.77 0
416.77 -3175.01 0
0 0 0

11109.4 -1718.58 0
-1718.58 -962.514 0
0 0 0

7787.5 -320.444 0
-320.444 1438.6 0
0 0 0

3648.79 -2642.88 0
-2642.88 -1475.01 0
0 0 0

1247.22 -775.928 0
-775.928 3343.35 0
0 0 0

1591.71 -2480.6 0
-2480.6 4187.92 0
0 0 0

3268.87 -1705.69 0
-1705.69 5409.79 0
0 0 0

-1106.04 689.298 0
689.298 201.714 0
0 0 0

-1651.75 -1592.49 0
-1592.49 -5597.84 0
0 0 0

6858.7 -1632.12 0
-1632.12 1937.14 0
0 0 0

4502.67 -1951.07 0
-1951.07 725.893 0
0 0 0

TENSORS velocity_gradient double
0.858387 18.3009 0
-15.1449 -0.674361 0
0 0 0

0.629147 20.5088 0
-16.5035 -0.545535 0
0 0 0

-1.21374 18.2546 0
-14.9875 -0.404611 0
0 0 0

-1.90247 20.4357 0
-14.9176 -0.625918 0
0 0 0

1.66544 18.7438 0
-18.6727 0.294028 0
0 0 0

2.15164 16.1948 0
-21.0584 1.22626 0
0 0 0

4.40481 19.3434 0
-19.8198 0.0429542 0
0 0 0

4.48583 15.4066 0
-19.9139 0.639281 0
0 0 0

2.5959 13.993 0
-30.1411 -0.097203 0
0 0 0

2.85796 12.0486 0
-27.2173 -1.979 0
0 0 0

4.1165 14.4945 0
-28.387 -0.400821 0
0 0 0

4.13007 15.9561 0
-28.2417 -1.26473 0
0 0 0

2.31069 13.1872 0
-18.5458 -1.87126 0
0 0 0

3.53084 14.5321 0
-13.7155 -1.61412 0
0 0 0

0.29912 18.8926 0
-19.5461 0.0422598 0
0 0 0

-0.217808 21.3511 0
-19.7826 1.85659 0
0 0 0

-2.86698 10.8242 0
-14.3421 2.40463 0
0 0 0

-2.96471 9.88011 0
-13.7499 0.636585 0
0 0 0

-2.62719 9.75266 0
-11.1046 3.4456 0
0 0 0

-3.06483 9.85245 0
-11.582 1.23557 0
0 0 0

3.83773 10.6239 0
-20.1379 -0.577793 0
0 0 0

3.56706 12.3061 0
-20.1459 -0.527777 0
0 0 0

0.906303 10.2538 0
-18.016 -0.458403 0
0 0 0

1.9645 10.3512 0
-20.2049 0.793445 0
0 0 0

2.65211 14.1515 0
-27.8507 -0.672795 0
0 0 0

2.42247 16.0528 0
-27.8026 -1.07089 0
0 0 0

0.900761 10.5033 0
-26.9085 1.75435 0
0 0 0

0.605803 10.8746 0
-27.204 1.62703 0
0 0 0

-2.09259 18.3282 0
-21.3118 -0.374428 0
0 0 0

-2.71439 20.7724 0
-21.7709 1.43008 0
0 0 0

-3.42162 10.2718 0
-21.997 0.993958 0
0 0 0

-3.20275 9.44366 0
-21.5881 -0.55287 0
0 0 0

-1.21385 9.00433 0
-5.98184 0.323087 0
0 0 0

-2.23747 7.32525 0
-11.474 1.77655 0
0 0 0

-0.199323 8.97304 0
-6.97368 -1.70688 0
0 0 0

-0.41339 7.67333 0
-13.7016 1.35146 0
0 0 0

-0.763869 5.65206 0
-14.8946 3.90733 0
0 0 0

1.14271 5.93218 0
-20.3634 4.44205 0
0 0 0

-0.0052023 5.729 0
-14.7303 3.74959 0
0 0 0

0.499583 7.88109 0
-20.5396 4.27593 0
0 0 0

-0.0817515 6.79081 0
-23.3484 4.40102 0
0 0 0

-1.23582 8.68206 0
-25.767 2.92975 0
0 0 0

0.0628356 14.1232 0
-20.9453 3.99347 0
0 0 0

-2.4348 18.3075 0
-24.0277 1.92942 0
0 0 0

-2.26748 10.1929 0
-22.3922 1.34801 0
0 0 0

-2.40905 9.63507 0
-20.1056 -0.195336 0
0 0 0

-2.22603 21.0722 0
-23.0951 -0.970985 0
0 0 0

-1.17455 18.9795 0
-19.0004 -2.21478 0
0 0 0

-0.233998 14.8448 0
-11.9598 -0.906944 0
0 0 0

-0.98544 18.1384 0
-15.2822 1.99164 0
0 0 0

-0.0923424 16.1666 0
-16.6129 -1.66059 0
0 0 0

-4.78181 17.2266 0
-16.1657 1.77941 0
0 0 0

-1.82779 22.0886 0
-15.4782 2.91098 0
0 0 0

-0.566548 24.5035 0
-20.5398 3.25889 0
0 0 0

-5.49287 21.3177 0
-16.3312 2.73157 0
0 0 0

-1.74711 24.3282 0
-20.4856 3.26694 0
0 0 0

-0.725694 25.8283 0
-20.5325 3.19802 0
0 0 0

0.111006 24.1122 0
-21.6668 1.49436 0
0 0 0

-1.64355 23.2589 0
-19.9572 2.53818 0
0 0 0

1.76147 19.4403 0
-20.2416 -0.730398 0
0 0 0

0.646494 21.2869 0
-21.2293 -0.813585 0
0 0 0

0.526839 19.1667 0
-18.1486 -2.12105 0
0 0 0

1.567 21.7613 0
-20.3629 1.17116 0
0 0 0

0.685788 24.8418 0
-16.9625 1.06888 0
0 0 0

SCALARS active double 1
LOOKUP_TABLE default
1
1
1
1
1
1
1
1
1
1
1
1
1
1
1
1
1
1
1
1
1
1
1
1
1
1
1
1
1
1
1
1
1
1
1
1
1
1
1
1
1
1
1
1
1
1
1
1
1
1
1
1
1
1
1
1
1
1
1
1
1
1
1
1
SCALARS extent double 1
LOOKUP_TABLE default
0.0125
0.0125
0.0125
0.0125
0.0125
0.0125
0.0125
0.0125
0.0125
0.0125
0.0125
0.0125
0.0125
0.0125
0.0125
0.0125
0.0125
0.0125
0.0125
0.0125
0.0125
0.0125
0.0125
0.0125
0.0125
0.0125
0.0125
0.0125
0.0125
0.0125
0.0125
0.0125
0.0125
0.0125
0.0125
0.0125
0.0125
0.0125
0.0125
0.0125
0.0125
0.0125
0.0125
0.0125
0.0125
0.0125
0.0125
0.0125
0.0125
0.0125
0.0125
0.0125
0.0125
0.0125
0.0125
0.0125
0.0125
0.0125
0.0125
0.0125
0.0125
0.0125
0.0125
0.0125
SCALARS pressure double 1
LOOKUP_TABLE default
-3351.83
-688.803
2209.09
-828.347
198.461
-602.891
2555.92
-1006.24
-963.207
-1586.67
-3012.79
-2817.44
-1338.59
-2555.01
1329.29
-2114.69
-1685.67
69.7422
-2339.15
464.375
101.334
-5181.2
868.609
-830.274
3498.61
-1220.84
-6413.5
-1339.96
-2895
-1505.01
-2864.57
-742.514
558.388
-4401.93
-2729.53
-5484.86
3366.83
-1817.44
-1922.35
934.108
-3740.49
2975.17
-6747.72
-37.4574
736.93
4806.76
-2760.23
3625.98
-2602.03
-606.567
-3715.3
68.5019
-2151.59
-2232.57
-5073.43
-4613.05
-1086.89
-2295.28
-2889.82
-4339.33
452.161
3624.8
-4397.92
-2614.28
SCALARS density double 1
LOOKUP_TABLE default
965.742
992.862
1023.24
991.422
1002.07
993.75
1026.94
989.59
990.033
983.634
969.153
971.124
986.175
973.778
1013.92
978.247
982.622
1000.73
975.966
1004.84
1001.05
947.542
1009.07
991.402
1037.06
987.384
935.475
986.161
970.341
984.47
970.648
992.308
1005.82
955.252
972.012
944.554
1035.64
981.276
980.206
1009.76
961.846
1031.43
932.229
999.611
1007.69
1051.26
971.702
1038.43
973.302
993.712
962.098
1000.71
977.872
977.049
948.604
953.157
988.76
976.412
970.393
955.874
1004.71
1038.42
955.292
973.178
