# vtk DataFile Version 3.0
Frame: 3, Time: 0.067
ASCII
DATASET UNSTRUCTURED_GRID
POINTS 64 double
0.4125 0.389486 0 
0.4125 0.414486 0 
0.4375 0.389486 0 
0.4375 0.414486 0 
0.4125 0.439486 0 
0.4125 0.464486 0 
0.4375 0.439486 0 
0.4375 0.464486 0 
0.4125 0.489486 0 
0.4125 0.514486 0 
0.4375 0.489486 0 
0.4375 0.514486 0 
0.4125 0.539486 0 
0.4125 0.564486 0 
0.4375 0.539486 0 
0.4375 0.564486 0 
0.4625 0.389486 0 
0.4625 0.414486 0 
0.4875 0.389486 0 
0.4875 0.414486 0 
0.4625 0.439486 0 
0.4625 0.464486 0 
0.4875 0.439486 0 
0.4875 0.464486 0 
0.4625 0.489486 0 
0.4625 0.514486 0 
0.4875 0.489486 0 
0.4875 0.514486 0 
0.4625 0.539486 0 
0.4625 0.564486 0 
0.4875 0.539486 0 
0.4875 0.564486 0 
0.5125 0.389486 0 
0.5125 0.414486 0 
0.5375 0.389486 0 
0.5375 0.414486 0 
0.5125 0.439486 0 
0.5125 0.464486 0 
0.5375 0.439486 0 
0.5375 0.464486 0 
0.5125 0.489486 0 
0.5125 0.514486 0 
0.5375 0.489486 0 
0.5375 0.514486 0 
0.5125 0.539486 0 
0.5125 0.564486 0 
0.5375 0.539486 0 
0.5375 0.564486 0 
0.5625 0.389486 0 
0.5625 0.414486 0 
0.5875 0.389486 0 
0.5875 0.414486 0 
0.5625 0.439486 0 
0.5625 0.464486 0 
0.5875 0.439486 0 
0.5875 0.464486 0 
0.5625 0.489486 0 
0.5625 0.514486 0 
0.5875 0.489486 0 
0.5875 0.514486 0 
0.5625 0.539486 0 
0.5625 0.564486 0 
0.5875 0.539486 0 
0.5875 0.564486 0 
CELLS 64 128
1 0
1 1
1 2
1 3
1 4
1 5
1 6
1 7
1 8
1 9
1 10
1 11
1 12
1 13
1 14
1 15
1 16
1 17
1 18
1 19
1 20
1 21
1 22
1 23
1 24
1 25
1 26
1 27
1 28
1 29
1 30
1 31
1 32
1 33
1 34
1 35
1 36
1 37
1 38
1 39
1 40
1 41
1 42
1 43
1 44
1 45
1 46
1 47
1 48
1 49
1 50
1 51
1 52
1 53
1 54
1 55
1 56
1 57
1 58
1 59
1 60
1 61
1 62
1 63
CELL_TYPES 64
1
1
1
1
1
1
1
1
1
1
1
1
1
1
1
1
1
1
1
1
1
1
1
1
1
1
1
1
1
1
1
1
1
1
1
1
1
1
1
1
1
1
1
1
1
1
1
1
1
1
1
1
1
1
1
1
1
1
1
1
1
1
1
1
POINT_DATA 64
VECTORS displacement double
2.66735e-18 -0.0230143 0 
-2.13018e-18 -0.0230143 0 
2.0704e-18 -0.0230143 0 
-1.22356e-18 -0.0230143 0 
-7.63221e-18 -0.0230143 0 
-6.40019e-18 -0.0230143 0 
-4.96355e-18 -0.0230143 0 
-5.51919e-18 -0.0230143 0 
-3.64585e-18 -0.0230143 0 
-4.83372e-18 -0.0230143 0 
-5.31407e-18 -0.0230143 0 
-6.10411e-18 -0.0230143 0 
-5.8957e-18 -0.0230143 0 
-4.08854e-18 -0.0230143 0 
-6.41098e-18 -0.0230143 0 
-4.66496e-18 -0.0230143 0 
2.01858e-18 -0.0230143 0 
-3.42186e-19 -0.0230143 0 
2.5119e-18 -0.0230143 0 
5.13935e-19 -0.0230143 0 
-2.95783e-18 -0.0230143 0 
-4.78349e-18 -0.0230143 0 
-1.61505e-18 -0.0230143 0 
-4.19307e-18 -0.0230143 0 
-6.41193e-18 -0.0230143 0 
-7.17849e-18 -0.0230143 0 
-6.93941e-18 -0.0230143 0 
-8.05685e-18 -0.0230143 0 
-7.20855e-18 -0.0230143 0 
-5.31085e-18 -0.0230143 0 
-8.2884e-18 -0.0230143 0 
-6.02623e-18 -0.0230143 0 
3.30101e-18 -0.0230143 0 
1.67766e-18 -0.0230143 0 
4.38592e-18 -0.0230143 0 
3.14898e-18 -0.0230143 0 
-5.13048e-20 -0.0230143 0 
-2.98169e-18 -0.0230143 0 
1.73341e-18 -0.0230143 0 
-1.14936e-18 -0.0230143 0 
-6.30969e-18 -0.0230143 0 
-8.06585e-18 -0.0230143 0 
-4.52278e-18 -0.0230143 0 
-7.20547e-18 -0.0230143 0 
-9.08913e-18 -0.0230143 0 
-7.57746e-18 -0.0230143 0 
-9.61074e-18 -0.0230143 0 
-9.96455e-18 -0.0230143 0 
4.82026e-18 -0.0230143 0 
4.74156e-18 -0.0230143 0 
4.60405e-18 -0.0230143 0 
6.4554e-18 -0.0230143 0 
4.63289e-18 -0.0230143 0 
1.27137e-18 -0.0230143 0 
8.64714e-18 -0.0230143 0 
4.28051e-18 -0.0230143 0 
-2.98613e-18 -0.0230143 0 
-6.25634e-18 -0.0230143 0 
-1.69975e-18 -0.0230143 0 
-5.21845e-18 -0.0230143 0 
-9.63906e-18 -0.0230143 0 
-1.21464e-17 -0.0230143 0 
-9.17412e-18 -0.0230143 0 
-1.41229e-17 -0.0230143 0 
VECTORS velocity double
1.18385e-16 -0.66708 0 
-9.97773e-16 -0.66708 0 
-2.11026e-16 -0.66708 0 
-6.79689e-16 -0.66708 0 
-2.51704e-15 -0.66708 0 
-2.04074e-15 -0.66708 0 
-1.31095e-15 -0.66708 0 
-1.31256e-15 -0.66708 0 
-1.2486e-15 -0.66708 0 
-8.90279e-16 -0.66708 0 
-1.20807e-15 -0.66708 0 
-9.44928e-16 -0.66708 0 
-1.72057e-16 -0.66708 0 
6.83515e-16 -0.66708 0 
-4.38771e-16 -0.66708 0 
2.87514e-16 -0.66708 0 
-2.91344e-16 -0.66708 0 
-4.0554e-16 -0.66708 0 
-1.22569e-16 -0.66708 0 
-1.75325e-16 -0.66708 0 
-5.25431e-16 -0.66708 0 
-7.72556e-16 -0.66708 0 
-1.60488e-16 -0.66708 0 
-4.20711e-16 -0.66708 0 
-1.03578e-15 -0.66708 0 
-9.09911e-16 -0.66708 0 
-7.31735e-16 -0.66708 0 
-7.85228e-16 -0.66708 0 
-6.20282e-16 -0.66708 0 
1.53881e-16 -0.66708 0 
-7.16591e-16 -0.66708 0 
2.82619e-16 -0.66708 0 
5.82332e-17 -0.66708 0 
2.38477e-17 -0.66708 0 
2.51063e-16 -0.66708 0 
1.91979e-16 -0.66708 0 
5.20766e-17 -0.66708 0 
-1.24077e-16 -0.66708 0 
1.12261e-16 -0.66708 0 
1.17347e-16 -0.66708 0 
-3.45836e-16 -0.66708 0 
-5.5979e-16 -0.66708 0 
1.21913e-16 -0.66708 0 
-2.33597e-16 -0.66708 0 
-7.30193e-16 -0.66708 0 
1.15094e-16 -0.66708 0 
-6.61087e-16 -0.66708 0 
-3.48693e-16 -0.66708 0 
9.06305e-17 -0.66708 0 
3.96136e-16 -0.66708 0 
-4.23064e-16 -0.66708 0 
6.36318e-16 -0.66708 0 
7.71018e-16 -0.66708 0 
7.03562e-16 -0.66708 0 
2.02835e-15 -0.66708 0 
1.63457e-15 -0.66708 0 
5.56072e-16 -0.66708 0 
9.90087e-17 -0.66708 0 
9.56641e-16 -0.66708 0 
4.38028e-16 -0.66708 0 
-5.8032e-16 -0.66708 0 
-9.43556e-16 -0.66708 0 
-4.8789e-16 -0.66708 0 
-1.66949e-15 -0.66708 0 
SCALARS mass double 1
LOOKUP_TABLE default
0.625
0.625
0.625
0.625
0.625
0.625
0.625
0.625
0.625
0.625
0.625
0.625
0.625
0.625
0.625
0.625
0.625
0.625
0.625
0.625
0.625
0.625
0.625
0.625
0.625
0.625
0.625
0.625
0.625
0.625
0.625
0.625
0.625
0.625
0.625
0.625
0.625
0.625
0.625
0.625
0.625
0.625
0.625
0.625
0.625
0.625
0.625
0.625
0.625
0.625
0.625
0.625
0.625
0.625
0.625
0.625
0.625
0.625
0.625
0.625
0.625
0.625
0.625
0.625
SCALARS volume double 1
LOOKUP_TABLE default
0.000625
0.000625
0.000625
0.000625
0.000625
0.000625
0.000625
0.000625
0.000625
0.000625
0.000625
0.000625
0.000625
0.000625
0.000625
0.000625
0.000625
0.000625
0.000625
0.000625
0.000625
0.000625
0.000625
0.000625
0.000625
0.000625
0.000625
0.000625
0.000625
0.000625
0.000625
0.000625
0.000625
0.000625
0.000625
0.000625
0.000625
0.000625
0.000625
0.000625
0.000625
0.000625
0.000625
0.000625
0.000625
0.000625
0.000625
0.000625
0.000625
0.000625
0.000625
0.000625
0.000625
0.000625
0.000625
0.000625
0.000625
0.000625
0.000625
0.000625
0.000625
0.000625
0.000625
0.000625
VECTORS momentum double
7.39905e-17 -0.416925 0 
-6.23608e-16 -0.416925 0 
-1.31891e-16 -0.416925 0 
-4.24806e-16 -0.416925 0 
-1.57315e-15 -0.416925 0 
-1.27546e-15 -0.416925 0 
-8.19343e-16 -0.416925 0 
-8.20353e-16 -0.416925 0 
-7.80374e-16 -0.416925 0 
-5.56424e-16 -0.416925 0 
-7.55045e-16 -0.416925 0 
-5.9058e-16 -0.416925 0 
-1.07536e-16 -0.416925 0 
4.27197e-16 -0.416925 0 
-2.74232e-16 -0.416925 0 
1.79696e-16 -0.416925 0 
-1.8209e-16 -0.416925 0 
-2.53462e-16 -0.416925 0 
-7.66057e-17 -0.416925 0 
-1.09578e-16 -0.416925 0 
-3.28394e-16 -0.416925 0 
-4.82847e-16 -0.416925 0 
-1.00305e-16 -0.416925 0 
-2.62944e-16 -0.416925 0 
-6.47365e-16 -0.416925 0 
-5.68694e-16 -0.416925 0 
-4.57335e-16 -0.416925 0 
-4.90767e-16 -0.416925 0 
-3.87676e-16 -0.416925 0 
9.61759e-17 -0.416925 0 
-4.47869e-16 -0.416925 0 
1.76637e-16 -0.416925 0 
3.63958e-17 -0.416925 0 
1.49048e-17 -0.416925 0 
1.56914e-16 -0.416925 0 
1.19987e-16 -0.416925 0 
3.25479e-17 -0.416925 0 
-7.75481e-17 -0.416925 0 
7.01633e-17 -0.416925 0 
7.33417e-17 -0.416925 0 
-2.16148e-16 -0.416925 0 
-3.49869e-16 -0.416925 0 
7.61958e-17 -0.416925 0 
-1.45998e-16 -0.416925 0 
-4.5637e-16 -0.416925 0 
7.19337e-17 -0.416925 0 
-4.13179e-16 -0.416925 0 
-2.17933e-16 -0.416925 0 
5.6644e-17 -0.416925 0 
2.47585e-16 -0.416925 0 
-2.64415e-16 -0.416925 0 
3.97699e-16 -0.416925 0 
4.81886e-16 -0.416925 0 
4.39726e-16 -0.416925 0 
1.26772e-15 -0.416925 0 
1.02161e-15 -0.416925 0 
3.47545e-16 -0.416925 0 
6.18805e-17 -0.416925 0 
5.97901e-16 -0.416925 0 
2.73768e-16 -0.416925 0 
-3.627e-16 -0.416925 0 
-5.89722e-16 -0.416925 0 
-3.04931e-16 -0.416925 0 
-1.04343e-15 -0.416925 0 
VECTORS body_force double
0 -9.81 0 
0 -9.81 0 
0 -9.81 0 
0 -9.81 0 
0 -9.81 0 
0 -9.81 0 
0 -9.81 0 
0 -9.81 0 
0 -9.81 0 
0 -9.81 0 
0 -9.81 0 
0 -9.81 0 
0 -9.81 0 
0 -9.81 0 
0 -9.81 0 
0 -9.81 0 
0 -9.81 0 
0 -9.81 0 
0 -9.81 0 
0 -9.81 0 
0 -9.81 0 
0 -9.81 0 
0 -9.81 0 
0 -9.81 0 
0 -9.81 0 
0 -9.81 0 
0 -9.81 0 
0 -9.81 0 
0 -9.81 0 
0 -9.81 0 
0 -9.81 0 
0 -9.81 0 
0 -9.81 0 
0 -9.81 0 
0 -9.81 0 
0 -9.81 0 
0 -9.81 0 
0 -9.81 0 
0 -9.81 0 
0 -9.81 0 
0 -9.81 0 
0 -9.81 0 
0 -9.81 0 
0 -9.81 0 
0 -9.81 0 
0 -9.81 0 
0 -9.81 0 
0 -9.81 0 
0 -9.81 0 
0 -9.81 0 
0 -9.81 0 
0 -9.81 0 
0 -9.81 0 
0 -9.81 0 
0 -9.81 0 
0 -9.81 0 
0 -9.81 0 
0 -9.81 0 
0 -9.81 0 
0 -9.81 0 
0 -9.81 0 
0 -9.81 0 
0 -9.81 0 
0 -9.81 0 
TENSORS cauchy_stress double
-2.07912e-13 -1.92624e-12 0
-1.92624e-12 5.63739e-12 0
0 0 0

8.0956e-12 -8.91412e-12 0
-8.91412e-12 9.59102e-12 0
0 0 0

-3.26156e-12 -1.71459e-12 0
-1.71459e-12 -1.48779e-12 0
0 0 0

5.61841e-12 -5.12234e-12 0
-5.12234e-12 3.81092e-12 0
0 0 0

4.87369e-12 -6.17916e-12 0
-6.17916e-12 -1.59989e-11 0
0 0 0

-3.92034e-11 5.68694e-12 0
5.68694e-12 -1.0051e-10 0
0 0 0

6.55543e-12 -4.08349e-12 0
-4.08349e-12 -1.20748e-11 0
0 0 0

-3.57302e-11 2.27635e-12 0
2.27635e-12 -9.24063e-11 0
0 0 0

1.58648e-11 1.59847e-12 0
1.59847e-12 5.41278e-11 0
0 0 0

-1.03751e-12 -3.66382e-12 0
-3.66382e-12 1.06088e-11 0
0 0 0

1.05809e-11 -1.94303e-12 0
-1.94303e-12 4.17988e-11 0
0 0 0

-3.85897e-12 1.71409e-13 0
1.71409e-13 4.02537e-12 0
0 0 0

5.61492e-12 6.99461e-13 0
6.99461e-13 1.83864e-11 0
0 0 0

-2.49211e-12 2.92568e-12 0
2.92568e-12 9.70779e-14 0
0 0 0

8.2134e-12 5.08367e-13 0
5.08367e-13 2.44496e-11 0
0 0 0

-3.1038e-12 4.62597e-12 0
4.62597e-12 -1.3302e-12 0
0 0 0

5.24837e-12 -2.59953e-12 0
-2.59953e-12 7.18659e-12 0
0 0 0

6.31044e-12 -2.46008e-12 0
-2.46008e-12 5.94364e-12 0
0 0 0

2.75317e-12 -1.91838e-12 0
-1.91838e-12 1.36446e-12 0
0 0 0

6.47377e-12 -4.00715e-12 0
-4.00715e-12 6.32475e-12 0
0 0 0

-4.08792e-12 -4.94122e-12 0
-4.94122e-12 -2.33106e-11 0
0 0 0

-4.19098e-11 -2.0153e-12 0
-2.0153e-12 -1.03845e-10 0
0 0 0

-5.34853e-12 -3.86577e-12 0
-3.86577e-12 -2.6252e-11 0
0 0 0

-4.05935e-11 -4.27046e-12 0
-4.27046e-12 -1.00774e-10 0
0 0 0

1.87658e-11 -3.99095e-12 0
-3.99095e-12 4.9197e-11 0
0 0 0

-5.07074e-12 -6.47384e-12 0
-6.47384e-12 -2.82284e-12 0
0 0 0

1.48227e-11 -5.93228e-12 0
-5.93228e-12 3.99963e-11 0
0 0 0

-7.17963e-12 -4.87204e-12 0
-4.87204e-12 -7.74358e-12 0
0 0 0

1.19143e-12 -7.20397e-12 0
-7.20397e-12 1.38554e-11 0
0 0 0

-4.40606e-12 -5.50478e-12 0
-5.50478e-12 -2.94363e-12 0
0 0 0

2.23507e-12 -7.13782e-12 0
-7.13782e-12 1.62906e-11 0
0 0 0

-7.39122e-13 -1.29092e-12 0
-1.29092e-12 5.61256e-12 0
0 0 0

7.45031e-12 -7.7731e-13 0
-7.7731e-13 6.25678e-12 0
0 0 0

7.02258e-12 4.49392e-13 0
4.49392e-13 1.29554e-12 0
0 0 0

6.58161e-12 3.21133e-13 0
3.21133e-13 4.22982e-12 0
0 0 0

5.01458e-12 -7.00834e-13 0
-7.00834e-13 -3.38981e-12 0
0 0 0

4.02628e-13 -2.06519e-12 0
-2.06519e-12 -1.73653e-11 0
0 0 0

-3.97093e-11 -5.2948e-12 0
-5.2948e-12 -1.11448e-10 0
0 0 0

-2.08577e-12 -2.20642e-12 0
-2.20642e-12 -2.31716e-11 0
0 0 0

-3.9245e-11 -5.75017e-12 0
-5.75017e-12 -1.10365e-10 0
0 0 0

2.59185e-11 -5.93106e-12 0
-5.93106e-12 4.21492e-11 0
0 0 0

-6.69946e-12 -7.22617e-12 0
-7.22617e-12 -2.44565e-11 0
0 0 0

2.18909e-11 -5.01347e-12 0
-5.01347e-12 3.27514e-11 0
0 0 0

-8.35039e-12 -7.35102e-12 0
-7.35102e-12 -2.83087e-11 0
0 0 0

3.14971e-12 -6.7481e-12 0
-6.7481e-12 1.26992e-11 0
0 0 0

-1.10297e-11 -2.81936e-12 0
-2.81936e-12 -1.25299e-12 0
0 0 0

1.91672e-12 -1.01002e-11 0
-1.01002e-11 9.82219e-12 0
0 0 0

-7.79029e-12 -5.1229e-12 0
-5.1229e-12 6.3056e-12 0
0 0 0

-8.9762e-13 -8.46551e-13 0
-8.46551e-13 1.23141e-13 0
0 0 0

6.95294e-12 2.8121e-12 0
2.8121e-12 -1.35431e-12 0
0 0 0

2.39622e-12 1.5798e-12 0
1.5798e-12 7.80877e-12 0
0 0 0

8.20995e-12 5.84594e-12 0
5.84594e-12 1.57871e-12 0
0 0 0

1.13349e-11 1.9333e-12 0
1.9333e-12 -1.47236e-11 0
0 0 0

-3.69772e-11 -5.02347e-12 0
-5.02347e-12 -1.17143e-10 0
0 0 0

9.51587e-12 5.5181e-12 0
5.5181e-12 -1.8968e-11 0
0 0 0

-3.52174e-11 -6.22867e-12 0
-6.22867e-12 -1.13037e-10 0
0 0 0

2.02506e-11 -2.82265e-12 0
-2.82265e-12 3.40576e-11 0
0 0 0

-6.58916e-12 -7.40616e-13 0
-7.40616e-13 -2.60197e-11 0
0 0 0

2.16153e-11 -3.78294e-12 0
-3.78294e-12 3.72419e-11 0
0 0 0

1.43487e-12 1.75047e-12 0
1.75047e-12 -7.29692e-12 0
0 0 0

4.37508e-12 2.5568e-12 0
2.5568e-12 5.43979e-12 0
0 0 0

-7.50919e-12 4.19638e-12 0
4.19638e-12 2.75075e-12 0
0 0 0

7.6477e-12 1.24929e-12 0
1.24929e-12 1.30759e-11 0
0 0 0

-1.0518e-11 2.48137e-12 0
2.48137e-12 -4.26981e-12 0
0 0 0

TENSORS velocity_gradient double
1.95581e-15 -6.82523e-15 0
1.06581e-14 0 0
0 0 0

7.38493e-15 -2.24189e-14 0
-2.66454e-15 -9.76996e-15 0
0 0 0

1.95581e-15 -5.15728e-15 0
1.06581e-14 -3.55271e-15 0
0 0 0

7.38493e-15 -1.45456e-14 0
0 -1.77636e-14 0
0 0 0

1.52583e-14 -2.24189e-14 0
-1.06581e-14 -1.42109e-14 0
0 0 0

1.39171e-14 1.04838e-14 0
-9.76996e-15 -1.68754e-14 0
0 0 0

1.52583e-14 -1.45456e-14 0
0 -2.13163e-14 0
0 0 0

1.39171e-14 3.15457e-15 0
-8.88178e-15 -8.88178e-15 0
0 0 0

6.58792e-15 1.04838e-14 0
-1.24345e-14 1.77636e-15 0
0 0 0

3.82502e-16 2.26723e-14 0
-6.21725e-15 1.5099e-14 0
0 0 0

6.58792e-15 3.15457e-15 0
0 -1.42109e-14 0
0 0 0

3.82502e-16 1.71972e-14 0
-1.06581e-14 1.77636e-14 0
0 0 0

-5.09259e-15 2.26723e-14 0
-7.10543e-15 0 0
0 0 0

-4.9727e-15 5.3777e-15 0
-4.44089e-15 -4.44089e-15 0
0 0 0

-5.09259e-15 1.71972e-14 0
3.55271e-15 1.06581e-14 0
0 0 0

-4.9727e-15 9.13354e-15 0
-8.88178e-15 5.32907e-15 0
0 0 0

6.80695e-15 -3.31652e-15 0
-1.42109e-14 -1.42109e-14 0
0 0 0

9.99646e-15 -8.63205e-15 0
-1.77636e-15 -2.66454e-14 0
0 0 0

6.80695e-15 -1.30296e-15 0
-1.42109e-14 -3.55271e-15 0
0 0 0

9.99646e-15 -4.67834e-15 0
-3.55271e-15 -1.77636e-14 0
0 0 0

1.39502e-14 -8.63205e-15 0
-5.32907e-15 -1.59872e-14 0
0 0 0

1.35379e-14 -2.13485e-15 0
5.32907e-15 -2.30926e-14 0
0 0 0

1.39502e-14 -4.67834e-15 0
1.42109e-14 -1.42109e-14 0
0 0 0

1.35379e-14 -5.38446e-15 0
5.32907e-15 -2.30926e-14 0
0 0 0

1.02882e-14 -2.13485e-15 0
-7.10543e-15 -7.10543e-15 0
0 0 0

5.63572e-15 1.16775e-14 0
-1.15463e-14 2.66454e-15 0
0 0 0

1.02882e-14 -5.38446e-15 0
-3.55271e-15 -1.77636e-14 0
0 0 0

5.63572e-15 6.11332e-15 0
-7.10543e-15 7.10543e-15 0
0 0 0

7.1503e-17 1.16775e-14 0
-1.06581e-14 1.06581e-14 0
0 0 0

-2.05819e-15 1.10626e-14 0
-7.10543e-15 -7.10543e-15 0
0 0 0

7.1503e-17 6.11332e-15 0
-3.55271e-15 1.77636e-14 0
0 0 0

-2.05819e-15 1.11648e-14 0
0 7.10543e-15 0
0 0 0

5.10901e-15 1.11795e-15 0
-5.32907e-15 1.77636e-15 0
0 0 0

8.33043e-15 -9.63034e-16 0
-1.77636e-15 -1.24345e-14 0
0 0 0

5.10901e-15 3.94623e-15 0
-3.55271e-15 -1.06581e-14 0
0 0 0

8.33043e-15 2.51387e-15 0
0 -7.10543e-15 0
0 0 0

1.18073e-14 -9.63034e-16 0
-1.77636e-15 -1.95399e-14 0
0 0 0

1.33422e-14 -6.87287e-15 0
1.77636e-15 -1.24345e-14 0
0 0 0

1.18073e-14 2.51387e-15 0
-3.55271e-15 -1.06581e-14 0
0 0 0

1.33422e-14 -6.60008e-15 0
3.55271e-15 -3.19744e-14 0
0 0 0

1.3615e-14 -6.87287e-15 0
1.06581e-14 -2.13163e-14 0
0 0 0

8.63956e-15 -8.61789e-16 0
5.32907e-15 5.32907e-15 0
0 0 0

1.3615e-14 -6.60008e-15 0
3.55271e-15 -1.42109e-14 0
0 0 0

8.63956e-15 -9.24779e-15 0
8.88178e-15 1.77636e-15 0
0 0 0

2.53552e-16 -8.61789e-16 0
7.10543e-15 1.77636e-14 0
0 0 0

-7.18382e-15 7.80551e-15 0
7.99361e-15 -6.21725e-15 0
0 0 0

2.53552e-16 -9.24779e-15 0
1.42109e-14 2.13163e-14 0
0 0 0

-7.18382e-15 9.84622e-16 0
8.88178e-15 -1.77636e-15 0
0 0 0

-1.13917e-15 6.2156e-15 0
-7.10543e-15 -7.10543e-15 0
0 0 0

5.28899e-15 8.99931e-15 0
-1.5099e-14 -1.5099e-14 0
0 0 0

-1.13917e-15 7.92608e-15 0
-3.55271e-15 0 0
0 0 0

5.28899e-15 1.84933e-14 0
-5.32907e-15 -5.32907e-15 0
0 0 0

1.4783e-14 8.99931e-15 0
0 -1.42109e-14 0
0 0 0

1.60648e-14 -8.49113e-15 0
2.66454e-15 -7.99361e-15 0
0 0 0

1.4783e-14 1.84933e-14 0
-3.55271e-15 -1.06581e-14 0
0 0 0

1.60648e-14 -1.2546e-14 0
3.55271e-15 -1.42109e-14 0
0 0 0

1.20099e-14 -8.49113e-15 0
5.32907e-15 -1.95399e-14 0
0 0 0

5.09035e-15 -1.78314e-14 0
7.99361e-15 7.99361e-15 0
0 0 0

1.20099e-14 -1.2546e-14 0
0 -1.42109e-14 0
0 0 0

5.09035e-15 -2.66125e-14 0
1.42109e-14 1.77636e-14 0
0 0 0

-3.69081e-15 -1.78314e-14 0
5.32907e-15 2.66454e-14 0
0 0 0

-9.05667e-15 -3.99902e-15 0
3.55271e-15 -3.55271e-15 0
0 0 0

-3.69081e-15 -2.66125e-14 0
1.06581e-14 2.13163e-14 0
0 0 0

-9.05667e-15 -7.14542e-15 0
7.10543e-15 7.10543e-15 0
0 0 0

SCALARS active double 1
LOOKUP_TABLE default
1
1
1
1
1
1
1
1
1
1
1
1
1
1
1
1
1
1
1
1
1
1
1
1
1
1
1
1
1
1
1
1
1
1
1
1
1
1
1
1
1
1
1
1
1
1
1
1
1
1
1
1
1
1
1
1
1
1
1
1
1
1
1
1
SCALARS extent double 1
LOOKUP_TABLE default
0.0125
0.0125
0.0125
0.0125
0.0125
0.0125
0.0125
0.0125
0.0125
0.0125
0.0125
0.0125
0.0125
0.0125
0.0125
0.0125
0.0125
0.0125
0.0125
0.0125
0.0125
0.0125
0.0125
0.0125
0.0125
0.0125
0.0125
0.0125
0.0125
0.0125
0.0125
0.0125
0.0125
0.0125
0.0125
0.0125
0.0125
0.0125
0.0125
0.0125
0.0125
0.0125
0.0125
0.0125
0.0125
0.0125
0.0125
0.0125
0.0125
0.0125
0.0125
0.0125
0.0125
0.0125
0.0125
0.0125
0.0125
0.0125
0.0125
0.0125
0.0125
0.0125
0.0125
0.0125
SCALARS pressure double 1
LOOKUP_TABLE default
-2.71474e-12
-8.84331e-12
2.37467e-12
-4.71467e-12
5.56261e-12
6.98569e-11
2.7597e-12
6.40683e-11
-3.49963e-11
-4.78564e-12
-2.61899e-11
-8.32014e-14
-1.20007e-11
1.19752e-12
-1.63315e-11
2.217e-12
-6.21748e-12
-6.12704e-12
-2.05882e-12
-6.39926e-12
1.36992e-11
7.28774e-11
1.58003e-11
7.06836e-11
-3.39814e-11
3.94679e-12
-2.74095e-11
7.4616e-12
-7.52342e-12
3.67485e-12
-9.26281e-12
-2.43672e-12
-6.85354e-12
-4.15906e-12
-5.40572e-12
-8.12382e-13
8.48134e-12
7.55788e-11
1.26287e-11
7.48048e-11
-3.40338e-11
1.5578e-11
-2.73211e-11
1.83295e-11
-7.92444e-12
6.14134e-12
-5.86946e-12
7.42346e-13
3.87239e-13
-2.79932e-12
-5.10249e-12
-4.89433e-12
1.69432e-12
7.70601e-11
4.72609e-12
7.41271e-11
-2.71541e-11
1.63044e-11
-2.94286e-11
2.93103e-12
-4.90743e-12
2.37922e-12
-1.03618e-11
7.3939e-12
SCALARS density double 1
LOOKUP_TABLE default
1000
1000
1000
1000
1000
1000
1000
1000
1000
1000
1000
1000
1000
1000
1000
1000
1000
1000
1000
1000
1000
1000
1000
1000
1000
1000
1000
1000
1000
1000
1000
1000
1000
1000
1000
1000
1000
1000
1000
1000
1000
1000
1000
1000
1000
1000
1000
1000
1000
1000
1000
1000
1000
1000
1000
1000
1000
1000
1000
1000
1000
1000
1000
1000
