# vtk DataFile Version 3.0
Frame: 50, Time: 0.851
ASCII
DATASET UNSTRUCTURED_GRID
POINTS 64 double
0.419602 0.350046 0 
0.440406 0.333305 0 
0.40364 0.327035 0 
0.425887 0.310328 0 
0.460357 0.316384 0 
0.481087 0.299737 0 
0.446796 0.2951 0 
0.468017 0.27711 0 
0.502442 0.283359 0 
0.521514 0.265036 0 
0.487851 0.260465 0 
0.507805 0.24402 0 
0.541936 0.248721 0 
0.563415 0.233629 0 
0.528121 0.228031 0 
0.549101 0.211573 0 
0.390826 0.307325 0 
0.411829 0.289937 0 
0.376093 0.288119 0 
0.398616 0.270527 0 
0.432339 0.273929 0 
0.452535 0.257293 0 
0.41761 0.254213 0 
0.437874 0.236506 0 
0.472262 0.239943 0 
0.491277 0.224054 0 
0.458095 0.21936 0 
0.476794 0.202328 0 
0.512684 0.208293 0 
0.533161 0.191985 0 
0.497662 0.187145 0 
0.51842 0.17085 0 
0.364267 0.267685 0 
0.384124 0.249556 0 
0.350917 0.247189 0 
0.369975 0.228898 0 
0.403884 0.233527 0 
0.423469 0.214631 0 
0.390232 0.211447 0 
0.410033 0.19408 0 
0.443382 0.196457 0 
0.463399 0.180358 0 
0.428117 0.176424 0 
0.448215 0.160452 0 
0.483245 0.164538 0 
0.503716 0.148942 0 
0.468242 0.14343 0 
0.488147 0.127671 0 
0.33724 0.227432 0 
0.356767 0.209484 0 
0.326187 0.20862 0 
0.344984 0.1887 0 
0.376535 0.192073 0 
0.395266 0.173677 0 
0.361894 0.171614 0 
0.378145 0.152649 0 
0.41402 0.156387 0 
0.4331 0.140213 0 
0.396141 0.135572 0 
0.416313 0.118433 0 
0.453736 0.12228 0 
0.474121 0.106729 0 
0.435924 0.101385 0 
0.459548 0.0865383 0 
CELLS 64 128
1 0
1 1
1 2
1 3
1 4
1 5
1 6
1 7
1 8
1 9
1 10
1 11
1 12
1 13
1 14
1 15
1 16
1 17
1 18
1 19
1 20
1 21
1 22
1 23
1 24
1 25
1 26
1 27
1 28
1 29
1 30
1 31
1 32
1 33
1 34
1 35
1 36
1 37
1 38
1 39
1 40
1 41
1 42
1 43
1 44
1 45
1 46
1 47
1 48
1 49
1 50
1 51
1 52
1 53
1 54
1 55
1 56
1 57
1 58
1 59
1 60
1 61
1 62
1 63
CELL_TYPES 64
1
1
1
1
1
1
1
1
1
1
1
1
1
1
1
1
1
1
1
1
1
1
1
1
1
1
1
1
1
1
1
1
1
1
1
1
1
1
1
1
1
1
1
1
1
1
1
1
1
1
1
1
1
1
1
1
1
1
1
1
1
1
1
1
POINT_DATA 64
VECTORS displacement double
-0.092898 -0.262454 0 
-0.0720941 -0.304195 0 
-0.13386 -0.285465 0 
-0.111613 -0.327172 0 
-0.0521427 -0.346116 0 
-0.0314133 -0.387763 0 
-0.0907043 -0.3674 0 
-0.0694828 -0.41039 0 
-0.0100579 -0.429141 0 
0.00901395 -0.472464 0 
-0.0496495 -0.452035 0 
-0.0296951 -0.49348 0 
0.0294361 -0.513779 0 
0.0509148 -0.553871 0 
-0.00937945 -0.534469 0 
0.0116013 -0.575927 0 
-0.171674 -0.305175 0 
-0.150671 -0.347563 0 
-0.211407 -0.324381 0 
-0.188884 -0.366973 0 
-0.130161 -0.388571 0 
-0.109965 -0.430207 0 
-0.16989 -0.408287 0 
-0.149626 -0.450994 0 
-0.0902381 -0.472557 0 
-0.0712226 -0.513446 0 
-0.129405 -0.49314 0 
-0.110706 -0.535172 0 
-0.0498162 -0.554207 0 
-0.0293391 -0.595515 0 
-0.0898384 -0.575355 0 
-0.0690799 -0.61665 0 
-0.248233 -0.344815 0 
-0.228376 -0.387944 0 
-0.286583 -0.365311 0 
-0.267525 -0.408602 0 
-0.208616 -0.428973 0 
-0.189031 -0.472869 0 
-0.247268 -0.451053 0 
-0.227467 -0.49342 0 
-0.169118 -0.516043 0 
-0.149101 -0.557142 0 
-0.209383 -0.536076 0 
-0.189285 -0.577048 0 
-0.129255 -0.597962 0 
-0.108784 -0.638558 0 
-0.169258 -0.61907 0 
-0.149353 -0.659829 0 
-0.32526 -0.385068 0 
-0.305733 -0.428016 0 
-0.361313 -0.40388 0 
-0.342516 -0.4488 0 
-0.285965 -0.470427 0 
-0.267234 -0.513823 0 
-0.325606 -0.490886 0 
-0.309355 -0.534851 0 
-0.24848 -0.556113 0 
-0.2294 -0.597287 0 
-0.291359 -0.576928 0 
-0.271187 -0.619067 0 
-0.208764 -0.64022 0 
-0.188379 -0.680771 0 
-0.251576 -0.661115 0 
-0.227952 -0.700962 0 
VECTORS velocity double
-1.72956 0.342244 0 
-1.79019 0.83123 0 
-1.83016 -0.156017 0 
-1.3698 0.641388 0 
-1.63769 0.680203 0 
-1.3407 0.773778 0 
-1.10291 0.387365 0 
-0.744723 0.350932 0 
-1.28586 0.660114 0 
-0.59994 0.655085 0 
-0.970203 1.03747 0 
-0.677676 0.467623 0 
-1.18192 1.07375 0 
-0.532643 1.39789 0 
-0.668338 0.468894 0 
-0.209182 1.08516 0 
-1.51937 0.0395898 0 
-0.652831 0.284171 0 
-1.38829 -0.0384114 0 
-0.794837 0.543913 0 
-0.971083 0.664945 0 
-0.538748 0.482898 0 
-0.973751 0.342179 0 
-0.672034 0.673423 0 
-0.740368 0.828879 0 
-0.458987 0.808323 0 
-0.785521 0.652109 0 
-0.385204 0.562372 0 
-0.435633 0.680651 0 
0.069523 1.1201 0 
-0.325073 0.965537 0 
0.137291 1.19686 0 
-0.8911 -0.406189 0 
-0.297693 0.457204 0 
-0.401203 -0.197759 0 
-0.212957 0.387297 0 
-0.391193 -0.437097 0 
-0.16092 -0.149198 0 
-0.396033 0.248694 0 
-0.493455 0.232136 0 
0.191119 0.196391 0 
0.270466 0.345403 0 
-0.177557 -0.133014 0 
0.399198 0.394103 0 
-0.0466116 0.118037 0 
0.900101 0.822685 0 
0.166169 0.443231 0 
0.780994 0.773006 0 
-1.17258 -0.410267 0 
-0.694298 0.426091 0 
-0.268969 -0.651105 0 
0.0377628 -0.343558 0 
-0.0805994 0.363946 0 
0.0223933 0.238078 0 
0.25041 -0.295064 0 
0.21802 -0.0426015 0 
0.499682 0.101061 0 
0.587219 0.360898 0 
0.433544 0.389163 0 
0.677178 0.161933 0 
0.326395 0.017645 0 
0.968781 0.831209 0 
0.93926 0.0303455 0 
1.31963 0.417412 0 
SCALARS mass double 1
LOOKUP_TABLE default
0.625
0.625
0.625
0.625
0.625
0.625
0.625
0.625
0.625
0.625
0.625
0.625
0.625
0.625
0.625
0.625
0.625
0.625
0.625
0.625
0.625
0.625
0.625
0.625
0.625
0.625
0.625
0.625
0.625
0.625
0.625
0.625
0.625
0.625
0.625
0.625
0.625
0.625
0.625
0.625
0.625
0.625
0.625
0.625
0.625
0.625
0.625
0.625
0.625
0.625
0.625
0.625
0.625
0.625
0.625
0.625
0.625
0.625
0.625
0.625
0.625
0.625
0.625
0.625
SCALARS volume double 1
LOOKUP_TABLE default
0.000627933
0.000636052
0.000619968
0.000637021
0.00063457
0.000622208
0.000632083
0.000616211
0.000650811
0.000614494
0.000637942
0.000637198
0.000632354
0.000634166
0.000612546
0.000620377
0.000609986
0.000610527
0.000604817
0.000609282
0.00060883
0.000647827
0.000624253
0.000628038
0.000596983
0.000632244
0.000622127
0.000623935
0.000638454
0.000610017
0.000633111
0.000630817
0.000595161
0.00060681
0.000614098
0.000609932
0.000601309
0.000657353
0.000607279
0.000599454
0.000638803
0.000620165
0.000609837
0.000621689
0.000619702
0.000623997
0.000637583
0.000615652
0.000589546
0.000566714
0.000521292
0.000539563
0.000572453
0.00062851
0.000577307
0.000640068
0.000607653
0.00063022
0.000616732
0.000634212
0.000649902
0.000620305
0.000628646
0.000629697
VECTORS momentum double
-1.08098 0.213903 0 
-1.11887 0.519519 0 
-1.14385 -0.0975107 0 
-0.856126 0.400867 0 
-1.02356 0.425127 0 
-0.837939 0.483611 0 
-0.689316 0.242103 0 
-0.465452 0.219332 0 
-0.803662 0.412571 0 
-0.374962 0.409428 0 
-0.606377 0.648417 0 
-0.423547 0.292264 0 
-0.738702 0.671093 0 
-0.332902 0.87368 0 
-0.417711 0.293059 0 
-0.130739 0.678226 0 
-0.949607 0.0247436 0 
-0.408019 0.177607 0 
-0.867684 -0.0240071 0 
-0.496773 0.339946 0 
-0.606927 0.41559 0 
-0.336717 0.301811 0 
-0.608594 0.213862 0 
-0.420021 0.42089 0 
-0.46273 0.518049 0 
-0.286867 0.505202 0 
-0.490951 0.407568 0 
-0.240752 0.351483 0 
-0.272271 0.425407 0 
0.0434519 0.700065 0 
-0.203171 0.603461 0 
0.0858071 0.748039 0 
-0.556937 -0.253868 0 
-0.186058 0.285753 0 
-0.250752 -0.123599 0 
-0.133098 0.242061 0 
-0.244496 -0.273185 0 
-0.100575 -0.0932489 0 
-0.247521 0.155434 0 
-0.308409 0.145085 0 
0.119449 0.122744 0 
0.169041 0.215877 0 
-0.110973 -0.0831338 0 
0.249499 0.246314 0 
-0.0291322 0.0737734 0 
0.562563 0.514178 0 
0.103855 0.277019 0 
0.488121 0.483128 0 
-0.732863 -0.256417 0 
-0.433936 0.266307 0 
-0.168106 -0.40694 0 
0.0236017 -0.214724 0 
-0.0503746 0.227467 0 
0.0139958 0.148799 0 
0.156506 -0.184415 0 
0.136262 -0.0266259 0 
0.312302 0.0631633 0 
0.367012 0.225561 0 
0.270965 0.243227 0 
0.423236 0.101208 0 
0.203997 0.0110281 0 
0.605488 0.519506 0 
0.587037 0.0189659 0 
0.824766 0.260883 0 
VECTORS body_force double
0 -9.81 0 
0 -9.81 0 
0 -9.81 0 
0 -9.81 0 
0 -9.81 0 
0 -9.81 0 
0 -9.81 0 
0 -9.81 0 
0 -9.81 0 
0 -9.81 0 
0 -9.81 0 
0 -9.81 0 
0 -9.81 0 
0 -9.81 0 
0 -9.81 0 
0 -9.81 0 
0 -9.81 0 
0 -9.81 0 
0 -9.81 0 
0 -9.81 0 
0 -9.81 0 
0 -9.81 0 
0 -9.81 0 
0 -9.81 0 
0 -9.81 0 
0 -9.81 0 
0 -9.81 0 
0 -9.81 0 
0 -9.81 0 
0 -9.81 0 
0 -9.81 0 
0 -9.81 0 
0 -9.81 0 
0 -9.81 0 
0 -9.81 0 
0 -9.81 0 
0 -9.81 0 
0 -9.81 0 
0 -9.81 0 
0 -9.81 0 
0 -9.81 0 
0 -9.81 0 
0 -9.81 0 
0 -9.81 0 
0 -9.81 0 
0 -9.81 0 
0 -9.81 0 
0 -9.81 0 
0 -9.81 0 
0 -9.81 0 
0 -9.81 0 
0 -9.81 0 
0 -9.81 0 
0 -9.81 0 
0 -9.81 0 
0 -9.81 0 
0 -9.81 0 
0 -9.81 0 
0 -9.81 0 
0 -9.81 0 
0 -9.81 0 
0 -9.81 0 
0 -9.81 0 
0 -9.81 0 
TENSORS cauchy_stress double
1899.67 554.12 0
554.12 -999.302 0
0 0 0

2980.26 -1233.95 0
-1233.95 390.668 0
0 0 0

-2379.93 -2785.33 0
-2785.33 825.369 0
0 0 0

-626.038 -2514.45 0
-2514.45 4289.6 0
0 0 0

1256.95 -2581.27 0
-2581.27 1665.43 0
0 0 0

1232.36 -1010.64 0
-1010.64 -2093.48 0
0 0 0

-2238.03 -3120.04 0
-3120.04 4405.26 0
0 0 0

-3791.8 -2916.52 0
-2916.52 1068.29 0
0 0 0

4210.93 -1709.29 0
-1709.29 3571.42 0
0 0 0

-3420.47 -975.486 0
-975.486 160.444 0
0 0 0

-2060.96 -365.671 0
-365.671 6002.34 0
0 0 0

-1855.21 -1121.22 0
-1121.22 5572.21 0
0 0 0

1838.86 -1383.83 0
-1383.83 410.568 0
0 0 0

344.715 -830.336 0
-830.336 2454.99 0
0 0 0

-2419.2 -2369.57 0
-2369.57 -1451.6 0
0 0 0

-1605.8 -731.857 0
-731.857 178.184 0
0 0 0

-2134.38 -1396.92 0
-1396.92 -2541.71 0
0 0 0

-1986.14 -4214.93 0
-4214.93 -2519.46 0
0 0 0

-2187.88 -5882.6 0
-5882.6 -4124.87 0
0 0 0

-5412.32 -3174.5 0
-3174.5 514.167 0
0 0 0

-4517.37 -1213.79 0
-1213.79 -523.54 0
0 0 0

705.301 -903.953 0
-903.953 6193.28 0
0 0 0

-5463.14 -5331.37 0
-5331.37 5233.27 0
0 0 0

-2948.87 -1673.02 0
-1673.02 3881.46 0
0 0 0

-7749.22 -1636.48 0
-1636.48 -1070.61 0
0 0 0

-1437.56 -984.642 0
-984.642 3653.58 0
0 0 0

-6603.44 21.8568 0
21.8568 5717.31 0
0 0 0

-2935.71 -1089.19 0
-1089.19 2607.64 0
0 0 0

1251.95 -1181.18 0
-1181.18 2843.71 0
0 0 0

-4970.12 -1397.99 0
-1397.99 303.928 0
0 0 0

2509.22 -259.995 0
-259.995 -29.6406 0
0 0 0

-1945.28 -1938.09 0
-1938.09 3726.93 0
0 0 0

-5760.32 -2333.5 0
-2333.5 -3647.31 0
0 0 0

-8769.89 -3476.24 0
-3476.24 3090.03 0
0 0 0

-2366.16 -5220.84 0
-5220.84 -1017.79 0
0 0 0

-3706.21 -3769.28 0
-3769.28 -986.79 0
0 0 0

-8156.21 -1980.55 0
-1980.55 724.93 0
0 0 0

-1161.5 -7832.77 0
-7832.77 10867.3 0
0 0 0

-5841.56 -3313.99 0
-3313.99 310.111 0
0 0 0

-10845.6 335.189 0
335.189 2820.02 0
0 0 0

-2441.45 -788.009 0
-788.009 6642.35 0
0 0 0

-6564.92 -3184.25 0
-3184.25 5071.54 0
0 0 0

-5367.08 -2678.3 0
-2678.3 644.156 0
0 0 0

-3051.06 -1408.63 0
-1408.63 2029.71 0
0 0 0

-6333.77 -650.16 0
-650.16 4696.82 0
0 0 0

-2085.89 -860.109 0
-860.109 1777.04 0
0 0 0

3000.95 51.0505 0
51.0505 832.238 0
0 0 0

-2824.79 250.271 0
250.271 -73.3073 0
0 0 0

-8299.02 -5991.17 0
-5991.17 -2931.48 0
0 0 0

-14396.3 -5552.88 0
-5552.88 -4430.03 0
0 0 0

-25512.3 -17969.8 0
-17969.8 -9380.44 0
0 0 0

-23167.1 -3080.32 0
-3080.32 -5100.66 0
0 0 0

-15129.9 -2194.86 0
-2194.86 -1758.69 0
0 0 0

-4448.84 -1298.63 0
-1298.63 5525.9 0
0 0 0

-13501.5 1564.48 0
1564.48 -1763.44 0
0 0 0

-379.497 344.512 0
344.512 4960.8 0
0 0 0

-7002.61 394.049 0
394.049 1589.72 0
0 0 0

-1629.68 -1372.98 0
-1372.98 3229.03 0
0 0 0

-51.0966 366.291 0
366.291 -2509.74 0
0 0 0

-1087.74 195.531 0
195.531 3901.47 0
0 0 0

6222.64 134.479 0
134.479 1290.72 0
0 0 0

-2503.66 -1139.7 0
-1139.7 1053.5 0
0 0 0

1274.2 -258.916 0
-258.916 -155.745 0
0 0 0

17.3345 -1311.69 0
-1311.69 1422.64 0
0 0 0

TENSORS velocity_gradient double
-1.00367 -6.84915 0
7.70237 1.80657 0
0 0 0

-0.585057 -10.1581 0
7.71418 0.607031 0
0 0 0

-0.2962 -9.42939 0
7.24354 -0.714512 0
0 0 0

-0.116335 -9.85565 0
6.83924 0.0424379 0
0 0 0

1.80144 -9.4577 0
3.56431 1.98706 0
0 0 0

0.760531 -8.44118 0
2.38234 1.32599 0
0 0 0

0.0378395 -9.67246 0
5.12147 -0.254886 0
0 0 0

0.157501 -9.08784 0
2.23362 -0.515704 0
0 0 0

2.34405 -8.02757 0
2.98307 -0.928222 0
0 0 0

1.19792 -6.34662 0
4.22843 -1.90599 0
0 0 0

-0.182089 -8.68752 0
2.31443 -0.610966 0
0 0 0

-0.0741287 -9.21854 0
5.12358 -1.07121 0
0 0 0

0.0901827 -7.91499 0
4.97201 -2.06653 0
0 0 0

2.14583 -7.41692 0
8.0061 -1.86235 0
0 0 0

0.103356 -9.44064 0
5.37351 -1.38395 0
0 0 0

-0.490862 -9.17486 0
6.82764 -1.69267 0
0 0 0

0.840442 -9.50373 0
7.13223 -0.0803827 0
0 0 0

-0.443147 -11.3701 0
6.69596 0.421784 0
0 0 0

0.481598 -12.3602 0
7.28437 -0.586508 0
0 0 0

-0.533212 -11.9334 0
6.6677 0.457903 0
0 0 0

-1.26873 -10.3294 0
7.06416 -0.0423529 0
0 0 0

-0.683732 -9.45139 0
3.52341 -0.413679 0
0 0 0

-2.13856 -10.6966 0
7.40155 0.691447 0
0 0 0

-1.62253 -10.217 0
6.62727 3.77759 0
0 0 0

-0.764349 -10.098 0
3.53985 2.05485 0
0 0 0

-1.33727 -9.42012 0
5.30278 -0.0310652 0
0 0 0

-1.49889 -10.6149 0
5.8001 3.64525 0
0 0 0

-1.91176 -10.7256 0
7.43876 1.36501 0
0 0 0

0.320071 -9.26863 0
5.67867 -1.14174 0
0 0 0

0.119312 -12.3019 0
6.60275 -2.00655 0
0 0 0

-0.987541 -13.0627 0
7.58809 0.808587 0
0 0 0

-0.545861 -12.7761 0
8.50019 -0.653728 0
0 0 0

0.187794 -12.5344 0
6.12141 -1.27586 0
0 0 0

0.131773 -9.48461 0
5.16642 0.262806 0
0 0 0

0.802108 -7.37488 0
7.61469 -0.922086 0
0 0 0

0.914764 -6.50581 0
4.44395 0.160403 0
0 0 0

-1.13058 -8.15833 0
6.15744 1.43466 0
0 0 0

-0.301486 -9.32699 0
5.11073 2.75584 0
0 0 0

1.7291 -7.44004 0
3.89061 0.795202 0
0 0 0

0.654432 -10.0722 0
3.9255 -0.287623 0
0 0 0

0.570468 -10.5551 0
4.03782 1.35784 0
0 0 0

-1.092 -11.3767 0
7.84613 0.925367 0
0 0 0

0.908012 -10.3435 0
3.38337 0.231509 0
0 0 0

0.742341 -10.7091 0
4.55953 0.77716 0
0 0 0

-0.229508 -12.4397 0
7.8143 0.964591 0
0 0 0

-0.406813 -11.5496 0
9.50236 -0.160352 0
0 0 0

0.53131 -10.1087 0
7.86247 -0.338849 0
0 0 0

0.544589 -10.1252 0
8.03518 -0.552892 0
0 0 0

2.27023 -5.93684 0
10.726 -1.17395 0
0 0 0

1.81425 -5.8874 0
3.83276 -0.259803 0
0 0 0

1.68751 -6.28368 0
9.67275 -1.80086 0
0 0 0

2.2076 -10.8632 0
8.1688 2.09747 0
0 0 0

2.04109 -10.5736 0
4.01178 0.775223 0
0 0 0

1.47314 -10.106 0
4.90606 -0.269234 0
0 0 0

1.49321 -10.9726 0
5.23476 1.66604 0
0 0 0

1.11307 -9.48059 0
5.96449 -0.803829 0
0 0 0

1.19116 -10.1333 0
2.77565 -0.205286 0
0 0 0

1.71677 -9.3366 0
2.46024 -0.363945 0
0 0 0

1.63284 -7.7104 0
3.81977 -1.64313 0
0 0 0

2.6681 -8.59545 0
2.18591 -0.577667 0
0 0 0

1.0398 -10.0292 0
6.62031 -0.216136 0
0 0 0

0.562038 -10.1094 0
8.2605 -0.398056 0
0 0 0

3.34561 -8.38987 0
2.35344 -0.00400784 0
0 0 0

0.693066 -7.20196 0
7.43081 -1.00322 0
0 0 0

SCALARS active double 1
LOOKUP_TABLE default
1
1
1
1
1
1
1
1
1
1
1
1
1
1
1
1
1
1
1
1
1
1
1
1
1
1
1
1
1
1
1
1
1
1
1
1
1
1
1
1
1
1
1
1
1
1
1
1
1
1
1
1
1
1
1
1
1
1
1
1
1
1
1
1
SCALARS extent double 1
LOOKUP_TABLE default
0.0125
0.0125
0.0125
0.0125
0.0125
0.0125
0.0125
0.0125
0.0125
0.0125
0.0125
0.0125
0.0125
0.0125
0.0125
0.0125
0.0125
0.0125
0.0125
0.0125
0.0125
0.0125
0.0125
0.0125
0.0125
0.0125
0.0125
0.0125
0.0125
0.0125
0.0125
0.0125
0.0125
0.0125
0.0125
0.0125
0.0125
0.0125
0.0125
0.0125
0.0125
0.0125
0.0125
0.0125
0.0125
0.0125
0.0125
0.0125
0.0125
0.0125
0.0125
0.0125
0.0125
0.0125
0.0125
0.0125
0.0125
0.0125
0.0125
0.0125
0.0125
0.0125
0.0125
0.0125
SCALARS pressure double 1
LOOKUP_TABLE default
-450.185
-1685.46
777.281
-1831.78
-1461.19
430.563
-1083.62
1361.76
-3891.17
1630.01
-1970.69
-1858.5
-1124.71
-1399.85
1935.4
713.81
2338.04
2252.8
3156.38
2449.08
2520.45
-3449.29
114.933
-466.293
4409.92
-1108.01
443.064
164.036
-2047.83
2333.1
-1239.79
-890.822
4703.81
2839.93
1691.97
2346.5
3715.64
-4852.9
2765.72
4012.78
-2100.45
746.69
2361.46
510.676
818.477
154.429
-1916.6
1449.05
5615.25
9413.16
17446.4
14133.9
8444.32
-538.532
7632.48
-2290.65
2706.44
-799.674
1280.42
-1406.86
-3756.68
725.084
-559.229
-719.987
SCALARS density double 1
LOOKUP_TABLE default
995.329
982.624
1008.12
981.13
984.919
1004.49
988.794
1014.26
960.34
1017.1
979.713
980.857
988.371
985.547
1020.33
1007.45
1024.61
1023.71
1033.37
1025.8
1026.56
964.763
1001.2
995.162
1046.93
988.543
1004.62
1001.71
978.928
1024.56
987.189
990.778
1050.14
1029.98
1017.75
1024.7
1039.4
950.782
1029.18
1042.62
978.392
1007.8
1024.86
1005.33
1008.55
1001.61
980.265
1015.18
1060.14
1102.85
1198.95
1158.35
1091.79
994.415
1082.61
976.459
1028.55
991.718
1013.41
985.475
961.684
1007.57
994.201
992.54
