# vtk DataFile Version 3.0
Frame: 38, Time: 0.65
ASCII
DATASET UNSTRUCTURED_GRID
POINTS 64 double
0.830474 0.236903 0 
0.819332 0.213572 0 
0.80557 0.2479 0 
0.794094 0.224731 0 
0.808103 0.191533 0 
0.7972 0.168182 0 
0.78495 0.202112 0 
0.772959 0.177886 0 
0.787902 0.144798 0 
0.776559 0.120723 0 
0.763282 0.154775 0 
0.753368 0.131272 0 
0.767489 0.0965449 0 
0.756255 0.0743863 0 
0.743732 0.108479 0 
0.732346 0.0855204 0 
0.782974 0.258246 0 
0.770437 0.236178 0 
0.759957 0.27082 0 
0.746896 0.246563 0 
0.761345 0.21323 0 
0.750472 0.189722 0 
0.737521 0.224055 0 
0.726791 0.200114 0 
0.739851 0.166673 0 
0.730337 0.143589 0 
0.716497 0.17707 0 
0.706377 0.153811 0 
0.720623 0.119018 0 
0.708736 0.0954884 0 
0.696649 0.129166 0 
0.685238 0.10561 0 
0.736097 0.281199 0 
0.723013 0.258748 0 
0.710632 0.290809 0 
0.699369 0.267915 0 
0.714615 0.23534 0 
0.703368 0.211116 0 
0.689356 0.243985 0 
0.679991 0.219715 0 
0.692926 0.187589 0 
0.683542 0.163374 0 
0.669453 0.197161 0 
0.661089 0.173904 0 
0.673128 0.139572 0 
0.661692 0.117307 0 
0.649373 0.151758 0 
0.637099 0.130285 0 
0.686081 0.299394 0 
0.67511 0.276719 0 
0.663488 0.3113 0 
0.651817 0.288327 0 
0.665555 0.252978 0 
0.655634 0.229496 0 
0.642665 0.264776 0 
0.631482 0.242961 0 
0.645659 0.206709 0 
0.636311 0.184114 0 
0.621492 0.220429 0 
0.611894 0.197402 0 
0.624242 0.161317 0 
0.613234 0.139133 0 
0.600975 0.174894 0 
0.591914 0.150132 0 
CELLS 64 128
1 0
1 1
1 2
1 3
1 4
1 5
1 6
1 7
1 8
1 9
1 10
1 11
1 12
1 13
1 14
1 15
1 16
1 17
1 18
1 19
1 20
1 21
1 22
1 23
1 24
1 25
1 26
1 27
1 28
1 29
1 30
1 31
1 32
1 33
1 34
1 35
1 36
1 37
1 38
1 39
1 40
1 41
1 42
1 43
1 44
1 45
1 46
1 47
1 48
1 49
1 50
1 51
1 52
1 53
1 54
1 55
1 56
1 57
1 58
1 59
1 60
1 61
1 62
1 63
CELL_TYPES 64
1
1
1
1
1
1
1
1
1
1
1
1
1
1
1
1
1
1
1
1
1
1
1
1
1
1
1
1
1
1
1
1
1
1
1
1
1
1
1
1
1
1
1
1
1
1
1
1
1
1
1
1
1
1
1
1
1
1
1
1
1
1
1
1
POINT_DATA 64
VECTORS displacement double
0.317974 -0.375597 0 
0.306832 -0.423928 0 
0.26807 -0.3646 0 
0.256594 -0.412769 0 
0.295603 -0.470967 0 
0.2847 -0.519318 0 
0.24745 -0.460388 0 
0.235459 -0.509614 0 
0.275402 -0.567702 0 
0.264059 -0.616777 0 
0.225782 -0.557725 0 
0.215868 -0.606228 0 
0.254989 -0.665955 0 
0.243755 -0.713114 0 
0.206232 -0.654021 0 
0.194846 -0.70198 0 
0.220474 -0.354254 0 
0.207937 -0.401322 0 
0.172457 -0.34168 0 
0.159396 -0.390937 0 
0.198845 -0.44927 0 
0.187972 -0.497778 0 
0.150021 -0.438445 0 
0.139291 -0.487386 0 
0.177351 -0.545827 0 
0.167837 -0.593911 0 
0.128997 -0.53543 0 
0.118877 -0.583689 0 
0.158123 -0.643482 0 
0.146236 -0.692012 0 
0.109149 -0.633334 0 
0.0977383 -0.68189 0 
0.123597 -0.331301 0 
0.110513 -0.378752 0 
0.0731322 -0.321691 0 
0.0618693 -0.369585 0 
0.102115 -0.42716 0 
0.0908679 -0.476384 0 
0.0518557 -0.418515 0 
0.0424909 -0.467785 0 
0.0804259 -0.524911 0 
0.071042 -0.574126 0 
0.0319526 -0.515339 0 
0.023589 -0.563596 0 
0.0606276 -0.622928 0 
0.0491923 -0.670193 0 
0.0118728 -0.610742 0 
-0.000401413 -0.657215 0 
0.0235807 -0.313106 0 
0.0126101 -0.360781 0 
-0.0240117 -0.3012 0 
-0.0356832 -0.349173 0 
0.0030549 -0.409522 0 
-0.00686584 -0.458004 0 
-0.0448348 -0.397724 0 
-0.056018 -0.444539 0 
-0.0168414 -0.505791 0 
-0.0261891 -0.553386 0 
-0.0660082 -0.492071 0 
-0.0756056 -0.540098 0 
-0.0382577 -0.601183 0 
-0.0492662 -0.648367 0 
-0.0865253 -0.587606 0 
-0.0955862 -0.637368 0 
VECTORS velocity double
-1.30471 -1.30262 0 
-1.96219 -1.11345 0 
-1.28565 -1.27621 0 
-1.94071 -0.940073 0 
-1.29311 -1.78658 0 
-1.63338 -1.42453 0 
-1.71216 -1.00248 0 
-1.56841 -1.43571 0 
-1.72449 -1.19107 0 
-1.67438 -1.73713 0 
-1.43727 -1.16536 0 
-1.56423 -1.60902 0 
-1.08706 -1.18965 0 
-1.23106 -1.34861 0 
-1.48936 -1.17867 0 
-1.46684 -1.24025 0 
-1.30758 -1.90087 0 
-1.13517 -2.11948 0 
-1.55659 -1.12428 0 
-1.67126 -1.19858 0 
-1.5019 -1.45511 0 
-1.5204 -1.91714 0 
-1.8948 -0.996803 0 
-1.93622 -0.993105 0 
-1.64224 -1.65631 0 
-1.44228 -1.52228 0 
-2.03004 -1.02758 0 
-1.58557 -1.2078 0 
-1.65456 -1.69181 0 
-1.32049 -1.5769 0 
-1.68777 -1.31005 0 
-1.44129 -1.19668 0 
-1.43265 -1.59389 0 
-1.31832 -1.08169 0 
-1.69872 -1.47235 0 
-1.72749 -1.3346 0 
-1.34369 -1.27138 0 
-1.20157 -1.37382 0 
-1.71206 -1.16312 0 
-1.67232 -1.33008 0 
-1.09503 -1.42054 0 
-1.15193 -1.42304 0 
-1.79187 -1.90876 0 
-1.64234 -1.29636 0 
-1.58625 -1.63892 0 
-1.38762 -1.20005 0 
-1.8545 -1.17126 0 
-1.7946 -1.21911 0 
-1.41528 -1.17469 0 
-2.01536 -1.20432 0 
-1.44909 -1.26553 0 
-1.51787 -0.947666 0 
-1.68992 -1.351 0 
-1.41378 -1.14828 0 
-1.54408 -1.42278 0 
-1.66385 -1.08901 0 
-1.10953 -0.943516 0 
-1.34734 -0.604933 0 
-1.4386 -1.26015 0 
-1.71861 -1.40424 0 
-1.4474 -0.854449 0 
-1.70304 -0.852079 0 
-1.36712 -1.24214 0 
-1.43575 -1.83642 0 
SCALARS mass double 1
LOOKUP_TABLE default
0.625
0.625
0.625
0.625
0.625
0.625
0.625
0.625
0.625
0.625
0.625
0.625
0.625
0.625
0.625
0.625
0.625
0.625
0.625
0.625
0.625
0.625
0.625
0.625
0.625
0.625
0.625
0.625
0.625
0.625
0.625
0.625
0.625
0.625
0.625
0.625
0.625
0.625
0.625
0.625
0.625
0.625
0.625
0.625
0.625
0.625
0.625
0.625
0.625
0.625
0.625
0.625
0.625
0.625
0.625
0.625
0.625
0.625
0.625
0.625
0.625
0.625
0.625
0.625
SCALARS volume double 1
LOOKUP_TABLE default
0.00063437
0.000617407
0.000616461
0.000634345
0.000628347
0.000621853
0.000604351
0.000610138
0.000622735
0.000608698
0.000642448
0.000627019
0.000632638
0.000624338
0.000606783
0.000618522
0.000634015
0.000623281
0.000642621
0.000631127
0.000638548
0.000647398
0.000654222
0.000624114
0.00059058
0.000654623
0.000614074
0.000664325
0.000635768
0.000626829
0.00063132
0.000635837
0.000640895
0.000628105
0.000631875
0.000642359
0.000605867
0.000644157
0.000644201
0.000635441
0.000621354
0.000612387
0.000615372
0.000606884
0.000622301
0.000641535
0.000633395
0.000644806
0.000622914
0.000619167
0.000621414
0.000620507
0.000593536
0.000651209
0.000611056
0.000630101
0.000618164
0.000648448
0.000603157
0.000620634
0.000616436
0.000586138
0.000611686
0.00062234
VECTORS momentum double
-0.815446 -0.814141 0 
-1.22637 -0.695907 0 
-0.803532 -0.797631 0 
-1.21295 -0.587546 0 
-0.808193 -1.11661 0 
-1.02086 -0.890328 0 
-1.0701 -0.626553 0 
-0.980254 -0.897319 0 
-1.07781 -0.744418 0 
-1.04649 -1.08571 0 
-0.898294 -0.728353 0 
-0.977643 -1.00564 0 
-0.679413 -0.743534 0 
-0.769412 -0.842883 0 
-0.930848 -0.73667 0 
-0.916772 -0.775158 0 
-0.817236 -1.18804 0 
-0.709482 -1.32467 0 
-0.972868 -0.702677 0 
-1.04454 -0.74911 0 
-0.938689 -0.909442 0 
-0.950251 -1.19821 0 
-1.18425 -0.623002 0 
-1.21014 -0.620691 0 
-1.0264 -1.03519 0 
-0.901428 -0.951427 0 
-1.26878 -0.642237 0 
-0.990982 -0.754876 0 
-1.0341 -1.05738 0 
-0.825306 -0.985564 0 
-1.05485 -0.818781 0 
-0.900804 -0.747926 0 
-0.895405 -0.99618 0 
-0.823949 -0.676054 0 
-1.0617 -0.920222 0 
-1.07968 -0.834123 0 
-0.839805 -0.794615 0 
-0.750979 -0.858638 0 
-1.07004 -0.726948 0 
-1.0452 -0.831301 0 
-0.684395 -0.887835 0 
-0.719956 -0.889397 0 
-1.11992 -1.19297 0 
-1.02646 -0.810223 0 
-0.991404 -1.02433 0 
-0.86726 -0.75003 0 
-1.15907 -0.732035 0 
-1.12162 -0.761941 0 
-0.884549 -0.734184 0 
-1.2596 -0.752699 0 
-0.905684 -0.790959 0 
-0.948666 -0.592291 0 
-1.0562 -0.844373 0 
-0.883613 -0.717673 0 
-0.965052 -0.889235 0 
-1.0399 -0.680628 0 
-0.693454 -0.589697 0 
-0.842085 -0.378083 0 
-0.899125 -0.787595 0 
-1.07413 -0.877649 0 
-0.904626 -0.53403 0 
-1.0644 -0.532549 0 
-0.854453 -0.776336 0 
-0.897342 -1.14776 0 
VECTORS body_force double
0 -9.81 0 
0 -9.81 0 
0 -9.81 0 
0 -9.81 0 
0 -9.81 0 
0 -9.81 0 
0 -9.81 0 
0 -9.81 0 
0 -9.81 0 
0 -9.81 0 
0 -9.81 0 
0 -9.81 0 
0 -9.81 0 
0 -9.81 0 
0 -9.81 0 
0 -9.81 0 
0 -9.81 0 
0 -9.81 0 
0 -9.81 0 
0 -9.81 0 
0 -9.81 0 
0 -9.81 0 
0 -9.81 0 
0 -9.81 0 
0 -9.81 0 
0 -9.81 0 
0 -9.81 0 
0 -9.81 0 
0 -9.81 0 
0 -9.81 0 
0 -9.81 0 
0 -9.81 0 
0 -9.81 0 
0 -9.81 0 
0 -9.81 0 
0 -9.81 0 
0 -9.81 0 
0 -9.81 0 
0 -9.81 0 
0 -9.81 0 
0 -9.81 0 
0 -9.81 0 
0 -9.81 0 
0 -9.81 0 
0 -9.81 0 
0 -9.81 0 
0 -9.81 0 
0 -9.81 0 
0 -9.81 0 
0 -9.81 0 
0 -9.81 0 
0 -9.81 0 
0 -9.81 0 
0 -9.81 0 
0 -9.81 0 
0 -9.81 0 
0 -9.81 0 
0 -9.81 0 
0 -9.81 0 
0 -9.81 0 
0 -9.81 0 
0 -9.81 0 
0 -9.81 0 
0 -9.81 0 
TENSORS cauchy_stress double
1800.43 1169.62 0
1169.62 1061.2 0
0 0 0

-2373.29 -2619.19 0
-2619.19 22.641 0
0 0 0

47.3947 1530.5 0
1530.5 -2692.83 0
0 0 0

3390.29 -2097.09 0
-2097.09 -536.192 0
0 0 0

936.487 651.623 0
651.623 90.7621 0
0 0 0

-548.313 -3327.58 0
-3327.58 -422.401 0
0 0 0

-4182.62 -866.459 0
-866.459 -2278.22 0
0 0 0

-5361.28 -210.916 0
-210.916 732.958 0
0 0 0

-161.317 2871.05 0
2871.05 -536.832 0
0 0 0

-3415.62 225.43 0
225.43 -1666.96 0
0 0 0

1984.56 -3261.37 0
-3261.37 3310.36 0
0 0 0

311.586 -1655.1 0
-1655.1 308.493 0
0 0 0

869.644 -3927.13 0
-3927.13 1466.24 0
0 0 0

361.882 -224.747 0
-224.747 -565.743 0
0 0 0

-1271.49 -1896.03 0
-1896.03 -4417.03 0
0 0 0

-989.877 -320.69 0
-320.69 -1013.7 0
0 0 0

4779.36 -2428.1 0
-2428.1 -2025.25 0
0 0 0

43.4464 -2484.31 0
-2484.31 -573.015 0
0 0 0

2238.87 2313.92 0
2313.92 3107.85 0
0 0 0

1445.08 -2756.55 0
-2756.55 430.992 0
0 0 0

3199.56 -1791.85 0
-1791.85 924.618 0
0 0 0

5243.59 289.488 0
289.488 1527.44 0
0 0 0

4171 1925.6 0
1925.6 4616.39 0
0 0 0

546.711 -1425.46 0
-1425.46 -819.572 0
0 0 0

-4855.23 261.744 0
261.744 -6038.39 0
0 0 0

3563.79 -321.27 0
-321.27 5341.51 0
0 0 0

-28.2242 -2964.03 0
-2964.03 -3363.33 0
0 0 0

2880.58 1087.9 0
1087.9 8854.07 0
0 0 0

1323.46 926.373 0
926.373 1961.7 0
0 0 0

-213.462 369.454 0
369.454 775.269 0
0 0 0

618.15 -50.9163 0
-50.9163 1316.6 0
0 0 0

300.409 390.886 0
390.886 3005.55 0
0 0 0

5715.3 -4542.99 0
-4542.99 -885.708 0
0 0 0

747.179 1290.48 0
1290.48 205.979 0
0 0 0

1617.58 741.852 0
741.852 486.18 0
0 0 0

3386.22 2332.2 0
2332.2 1882.22 0
0 0 0

-5049.65 -3718.59 0
-3718.59 -929.44 0
0 0 0

1490.32 5045.83 0
5045.83 4315.5 0
0 0 0

5284.25 52.21 0
52.21 534.898 0
0 0 0

6783.84 2209.79 0
2209.79 -3597.91 0
0 0 0

-2597.11 -1273.02 0
-1273.02 1471.91 0
0 0 0

-2996.06 3162.2 0
3162.2 -924.56 0
0 0 0

-339.731 470.225 0
470.225 -2645.91 0
0 0 0

960.172 -410.478 0
-410.478 -6616.57 0
0 0 0

2699.24 666.927 0
666.927 -3531.46 0
0 0 0

3319.92 -1636.96 0
-1636.96 1701.63 0
0 0 0

2409.1 -3448.47 0
-3448.47 156.687 0
0 0 0

4082.6 -1383.46 0
-1383.46 1917.1 0
0 0 0

292.122 -1565.15 0
-1565.15 -935.194 0
0 0 0

-217.616 -2075.37 0
-2075.37 -1585.51 0
0 0 0

-1636.68 883.072 0
883.072 530.251 0
0 0 0

-2001.27 -868.659 0
-868.659 613.724 0
0 0 0

-6276.53 -845.893 0
-845.893 -3656.98 0
0 0 0

4870.45 -2885.64 0
-2885.64 3029.47 0
0 0 0

-3389.06 -3663.02 0
-3663.02 -949.866 0
0 0 0

130.137 -3037.28 0
-3037.28 1433.01 0
0 0 0

-879.803 -5125.62 0
-5125.62 -1235.02 0
0 0 0

3813.16 -753.499 0
-753.499 3269.46 0
0 0 0

-572.215 -535.073 0
-535.073 -6268.98 0
0 0 0

103.056 -3476.18 0
-3476.18 -1451.27 0
0 0 0

755.93 -1444.66 0
-1444.66 -3409.24 0
0 0 0

-8221.89 616.428 0
616.428 -4123.44 0
0 0 0

-980.401 -1396.92 0
-1396.92 -3160.4 0
0 0 0

-1270.48 1530.52 0
1530.52 450.237 0
0 0 0

TENSORS velocity_gradient double
0.634023 3.50891 0
1.50882 -0.692563 0
0 0 0

0.23383 3.31923 0
1.46253 -0.714503 0
0 0 0

0.720604 1.50918 0
1.84536 -0.595814 0
0 0 0

0.64704 3.04174 0
0.433534 -0.641273 0
0 0 0

0.45635 -0.311717 0
1.19227 0.417314 0
0 0 0

0.77051 0.0376558 0
1.11842 0.272747 0
0 0 0

0.895689 2.40246 0
0.735365 -0.268129 0
0 0 0

0.264776 -0.566941 0
1.34849 0.759261 0
0 0 0

-0.500573 -4.39908 0
1.86709 0.0456843 0
0 0 0

0.52906 -4.91507 0
0.895143 -0.535398 0
0 0 0

-0.557043 -0.925057 0
1.9552 1.00727 0
0 0 0

0.0165729 -3.82522 0
1.09054 -1.50281 0
0 0 0

1.13635 -1.87789 0
0.325317 -1.84287 0
0 0 0

-0.375326 -1.47483 0
1.73198 -1.45659 0
0 0 0

1.0745 -3.346 0
-0.372957 -1.57723 0
0 0 0

1.69865 -1.93883 0
0.225598 -0.380838 0
0 0 0

0.573563 -0.617799 0
-0.450489 -0.918326 0
0 0 0

0.546485 3.30283 0
0.00436376 -0.160102 0
0 0 0

0.806354 -1.04359 0
-0.69899 -0.463802 0
0 0 0

1.76 1.68274 0
-1.56929 0.12568 0
0 0 0

0.826204 3.41264 0
0.491798 0.0312593 0
0 0 0

-0.460296 -1.20588 0
0.26302 1.28104 0
0 0 0

0.0433948 2.19574 0
-1.87816 0.584747 0
0 0 0

-2.56964 0.328431 0
-1.34611 1.00381 0
0 0 0

-1.78462 -1.07563 0
-1.47548 1.3411 0
0 0 0

-0.741281 -2.45922 0
-1.44982 -0.993151 0
0 0 0

-2.23081 -0.0671723 0
-1.39547 1.16027 0
0 0 0

-1.22413 0.219843 0
-1.55619 0.944419 0
0 0 0

0.525734 -2.15689 0
-0.768693 -0.969088 0
0 0 0

1.54279 -1.68125 0
-0.0822474 0.111 0
0 0 0

0.820117 -1.14697 0
-2.77424 -0.339019 0
0 0 0

1.15369 -1.07712 0
-3.36015 -0.138047 0
0 0 0

1.58461 -0.665433 0
-2.09229 -0.394302 0
0 0 0

2.65846 -0.0416309 0
-2.37783 -0.560171 0
0 0 0

1.12797 0.548774 0
-1.97087 -0.71716 0
0 0 0

0.745637 0.890986 0
-2.01232 -0.707972 0
0 0 0

1.45802 -0.688877 0
-2.1649 1.16945 0
0 0 0

-1.50337 -2.00763 0
-1.72495 1.39759 0
0 0 0

-1.60469 -2.08189 0
-1.19523 0.829743 0
0 0 0

-0.990766 -2.23151 0
-2.66523 0.402568 0
0 0 0

-0.17513 0.907487 0
-3.85766 1.02354 0
0 0 0

0.836203 1.24448 0
-4.00419 1.02116 0
0 0 0

-0.348199 0.3788 0
-3.85698 0.541325 0
0 0 0

0.46328 2.04737 0
-4.00449 1.02181 0
0 0 0

1.31723 -1.13526 0
-3.86713 0.0421835 0
0 0 0

1.2097 -1.19045 0
-3.53377 0.213274 0
0 0 0

0.195754 1.41578 0
-1.528 0.807728 0
0 0 0

-0.14222 -0.491456 0
1.68452 0.388749 0
0 0 0

-0.233164 2.17958 0
-2.62656 0.0583481 0
0 0 0

-1.04968 0.529158 0
-2.06333 0.173004 0
0 0 0

0.676265 1.19855 0
-1.96491 -1.60037 0
0 0 0

0.759095 -0.205543 0
-0.204382 0.912778 0
0 0 0

-1.60948 -0.0657941 0
-1.10977 0.41853 0
0 0 0

-1.25258 -1.57574 0
-2.04359 -1.15447 0
0 0 0

2.88225 -0.864146 0
3.62132 0.349077 0
0 0 0

1.04213 -1.81085 0
1.36513 -1.09876 0
0 0 0

-0.0768266 -1.54001 0
0.831789 -1.36213 0
0 0 0

-0.450573 2.17501 0
2.40895 0.784825 0
0 0 0

0.470085 -2.04323 0
2.02205 -0.772973 0
0 0 0

-0.101059 0.0372729 0
2.54533 0.00266 0
0 0 0

-1.05537 1.85523 0
1.96551 0.55036 0
0 0 0

-0.74087 1.11721 0
1.70212 0.341475 0
0 0 0

0.0247423 1.25819 0
2.97928 0.258221 0
0 0 0

1.07728 1.17579 0
6.14076 0.355758 0
0 0 0

SCALARS active double 1
LOOKUP_TABLE default
1
1
1
1
1
1
1
1
1
1
1
1
1
1
1
1
1
1
1
1
1
1
1
1
1
1
1
1
1
1
1
1
1
1
1
1
1
1
1
1
1
1
1
1
1
1
1
1
1
1
1
1
1
1
1
1
1
1
1
1
1
1
1
1
SCALARS extent double 1
LOOKUP_TABLE default
0.0125
0.0125
0.0125
0.0125
0.0125
0.0125
0.0125
0.0125
0.0125
0.0125
0.0125
0.0125
0.0125
0.0125
0.0125
0.0125
0.0125
0.0125
0.0125
0.0125
0.0125
0.0125
0.0125
0.0125
0.0125
0.0125
0.0125
0.0125
0.0125
0.0125
0.0125
0.0125
0.0125
0.0125
0.0125
0.0125
0.0125
0.0125
0.0125
0.0125
0.0125
0.0125
0.0125
0.0125
0.0125
0.0125
0.0125
0.0125
0.0125
0.0125
0.0125
0.0125
0.0125
0.0125
0.0125
0.0125
0.0125
0.0125
0.0125
0.0125
0.0125
0.0125
0.0125
0.0125
SCALARS pressure double 1
LOOKUP_TABLE default
-1430.81
1175.32
1322.72
-1427.05
-513.625
485.357
3230.42
2314.16
349.075
2541.29
-2647.46
-310.04
-1167.94
101.931
2844.26
1001.79
-1377.05
264.784
-2673.36
-938.038
-2062.09
-3385.52
-4393.7
136.43
5446.81
-4452.65
1695.77
-5867.32
-1642.58
-280.904
-967.377
-1652.98
-2414.8
-476.579
-1051.88
-2634.22
2989.54
-2902.91
-2909.58
-1592.97
562.604
1960.31
1492.82
2828.2
416.108
-2510.78
-1282.89
-2999.85
321.536
901.561
553.215
693.774
4966.76
-3949.96
2169.47
-781.576
1057.41
-3541.31
3420.6
674.109
1326.66
6172.67
2070.4
410.122
SCALARS density double 1
LOOKUP_TABLE default
985.23
1012.3
1013.85
985.268
994.673
1005.06
1034.17
1024.36
1003.64
1026.78
972.842
996.781
987.927
1001.06
1030.02
1010.47
985.781
1002.76
972.58
990.292
978.783
965.403
955.334
1001.42
1058.28
954.748
1017.79
940.804
983.062
997.083
989.99
982.956
975.199
995.056
989.12
972.976
1031.58
970.261
970.194
983.57
1005.87
1020.6
1015.65
1029.85
1004.34
974.226
986.747
969.283
1003.35
1009.42
1005.77
1007.24
1053.01
959.753
1022.82
991.905
1011.06
963.84
1036.21
1007.04
1013.89
1066.3
1021.77
1004.27
