# vtk DataFile Version 3.0
Frame: 51, Time: 0.867
ASCII
DATASET UNSTRUCTURED_GRID
POINTS 64 double
0.0848397 0.0685795 0 
0.0933741 0.0915666 0 
0.108437 0.0605595 0 
0.116502 0.0837316 0 
0.0984217 0.115736 0 
0.106504 0.139343 0 
0.123027 0.107365 0 
0.130771 0.130985 0 
0.112489 0.163011 0 
0.119458 0.187606 0 
0.138101 0.154823 0 
0.143685 0.178922 0 
0.130016 0.210879 0 
0.137165 0.233952 0 
0.153733 0.202466 0 
0.161451 0.225903 0 
0.134415 0.0545451 0 
0.140433 0.0780353 0 
0.15851 0.0480033 0 
0.164049 0.0707445 0 
0.146096 0.101799 0 
0.152401 0.125217 0 
0.170839 0.0932881 0 
0.176441 0.116121 0 
0.160061 0.14926 0 
0.165952 0.173632 0 
0.184 0.13965 0 
0.190119 0.163462 0 
0.175913 0.19723 0 
0.18585 0.222064 0 
0.198708 0.188002 0 
0.208461 0.212133 0 
0.183714 0.0423968 0 
0.186918 0.0652198 0 
0.214415 0.0396425 0 
0.213806 0.0615851 0 
0.194611 0.0875499 0 
0.200225 0.110211 0 
0.221547 0.0829975 0 
0.225636 0.105037 0 
0.207823 0.132222 0 
0.214167 0.154869 0 
0.232533 0.126086 0 
0.238952 0.148212 0 
0.220888 0.179985 0 
0.230458 0.203041 0 
0.243376 0.171702 0 
0.25128 0.194318 0 
0.241425 0.0362797 0 
0.239052 0.0581377 0 
0.268249 0.0331723 0 
0.264553 0.0531793 0 
0.247321 0.0783269 0 
0.251796 0.0995533 0 
0.273321 0.0709826 0 
0.277855 0.0923112 0 
0.258537 0.119586 0 
0.2669 0.140328 0 
0.285253 0.113244 0 
0.294958 0.1338 0 
0.269022 0.16334 0 
0.273369 0.18561 0 
0.295523 0.15692 0 
0.295528 0.18046 0 
CELLS 64 128
1 0
1 1
1 2
1 3
1 4
1 5
1 6
1 7
1 8
1 9
1 10
1 11
1 12
1 13
1 14
1 15
1 16
1 17
1 18
1 19
1 20
1 21
1 22
1 23
1 24
1 25
1 26
1 27
1 28
1 29
1 30
1 31
1 32
1 33
1 34
1 35
1 36
1 37
1 38
1 39
1 40
1 41
1 42
1 43
1 44
1 45
1 46
1 47
1 48
1 49
1 50
1 51
1 52
1 53
1 54
1 55
1 56
1 57
1 58
1 59
1 60
1 61
1 62
1 63
CELL_TYPES 64
1
1
1
1
1
1
1
1
1
1
1
1
1
1
1
1
1
1
1
1
1
1
1
1
1
1
1
1
1
1
1
1
1
1
1
1
1
1
1
1
1
1
1
1
1
1
1
1
1
1
1
1
1
1
1
1
1
1
1
1
1
1
1
1
POINT_DATA 64
VECTORS displacement double
-0.32766 -0.34392 0 
-0.319126 -0.345933 0 
-0.329063 -0.351941 0 
-0.320998 -0.353768 0 
-0.314078 -0.346764 0 
-0.305996 -0.348157 0 
-0.314473 -0.355135 0 
-0.306729 -0.356515 0 
-0.300011 -0.349489 0 
-0.293042 -0.349894 0 
-0.299399 -0.357677 0 
-0.293815 -0.358578 0 
-0.282484 -0.351621 0 
-0.275335 -0.353548 0 
-0.283767 -0.360034 0 
-0.276049 -0.361597 0 
-0.328085 -0.357955 0 
-0.322067 -0.359465 0 
-0.32899 -0.364497 0 
-0.323451 -0.366755 0 
-0.316404 -0.360701 0 
-0.310099 -0.362283 0 
-0.316661 -0.369212 0 
-0.311059 -0.371379 0 
-0.302439 -0.36324 0 
-0.296548 -0.363868 0 
-0.3035 -0.37285 0 
-0.297381 -0.374038 0 
-0.286587 -0.36527 0 
-0.27665 -0.365436 0 
-0.288792 -0.374498 0 
-0.279039 -0.375367 0 
-0.328786 -0.370103 0 
-0.325582 -0.37228 0 
-0.323085 -0.372858 0 
-0.323694 -0.375915 0 
-0.317889 -0.37495 0 
-0.312275 -0.377289 0 
-0.315953 -0.379503 0 
-0.311864 -0.382463 0 
-0.304677 -0.380278 0 
-0.298333 -0.382631 0 
-0.304967 -0.386414 0 
-0.298548 -0.389288 0 
-0.291612 -0.382515 0 
-0.282042 -0.384459 0 
-0.294124 -0.390798 0 
-0.28622 -0.393182 0 
-0.321075 -0.37622 0 
-0.323448 -0.379362 0 
-0.319251 -0.379328 0 
-0.322947 -0.384321 0 
-0.315179 -0.384173 0 
-0.310704 -0.387947 0 
-0.314179 -0.391517 0 
-0.309645 -0.395189 0 
-0.303963 -0.392914 0 
-0.2956 -0.397172 0 
-0.302247 -0.399256 0 
-0.292542 -0.4037 0 
-0.293478 -0.39916 0 
-0.289131 -0.40189 0 
-0.291977 -0.40558 0 
-0.291972 -0.40704 0 
VECTORS velocity double
-0.360436 -1.29518 0 
-0.439284 -1.02971 0 
-0.233265 -0.941908 0 
-0.504408 -0.788201 0 
-1.02582 -1.35342 0 
-1.40335 -0.895251 0 
-0.684619 -1.15042 0 
-0.992927 -0.637984 0 
-1.12221 -0.963494 0 
-1.50209 -1.23127 0 
-1.03396 -0.845229 0 
-1.26331 -1.11822 0 
-1.44997 -0.801859 0 
-1.76948 -0.899757 0 
-1.614 -0.716174 0 
-1.63899 -1.01437 0 
-0.0666703 -1.08305 0 
-0.392562 -0.382665 0 
-0.173286 -0.600928 0 
-0.265973 -0.0734898 0 
-0.88463 -0.536432 0 
-0.965816 -0.318544 0 
-0.714887 -0.456597 0 
-0.828879 -0.435276 0 
-0.908554 -0.567931 0 
-0.848021 -0.783318 0 
-0.741316 -0.467615 0 
-0.630254 -0.583342 0 
-1.26531 -0.551741 0 
-1.88951 -0.614911 0 
-0.85938 -0.243697 0 
-1.17039 -0.461294 0 
0.298268 -0.294945 0 
-0.617885 -0.0784781 0 
0.288831 -0.161001 0 
-0.354331 0.286114 0 
-0.877645 -0.425276 0 
-0.487356 -0.40448 0 
-0.37713 0.042781 0 
-0.271874 0.23772 0 
-0.678751 -0.442506 0 
-0.688163 -0.304607 0 
-0.712919 0.237106 0 
-0.53242 0.459355 0 
-1.40343 -0.324441 0 
-1.17296 -0.00975668 0 
-1.36556 0.375639 0 
-0.913257 -0.0585662 0 
-0.174307 -0.402271 0 
-0.293149 0.223456 0 
0.152002 -0.144723 0 
-0.58401 0.251851 0 
-0.589132 -0.162014 0 
-0.286312 0.0293325 0 
-0.425627 -0.0275449 0 
-0.617844 -0.113327 0 
-0.476203 0.032104 0 
0.0247087 -0.329393 0 
-0.68932 -0.0383835 0 
-0.18489 0.0866161 0 
-0.600793 -0.216695 0 
0.107715 -0.669055 0 
-0.331693 -0.380575 0 
-0.564976 -0.148256 0 
SCALARS mass double 1
LOOKUP_TABLE default
0.625
0.625
0.625
0.625
0.625
0.625
0.625
0.625
0.625
0.625
0.625
0.625
0.625
0.625
0.625
0.625
0.625
0.625
0.625
0.625
0.625
0.625
0.625
0.625
0.625
0.625
0.625
0.625
0.625
0.625
0.625
0.625
0.625
0.625
0.625
0.625
0.625
0.625
0.625
0.625
0.625
0.625
0.625
0.625
0.625
0.625
0.625
0.625
0.625
0.625
0.625
0.625
0.625
0.625
0.625
0.625
0.625
0.625
0.625
0.625
0.625
0.625
0.625
0.625
SCALARS volume double 1
LOOKUP_TABLE default
0.000628692
0.000618809
0.000621363
0.000609455
0.00062995
0.000642425
0.000619293
0.000606454
0.00061812
0.00062141
0.000618477
0.000630519
0.000633058
0.000620882
0.000622015
0.000611611
0.000658382
0.000618392
0.000606769
0.000581025
0.000614369
0.000614515
0.000611616
0.000601588
0.000622811
0.000596162
0.000620227
0.000634783
0.000618522
0.000611954
0.00058234
0.000624869
0.000579545
0.000579696
0.000530675
0.000605309
0.000633234
0.000598332
0.000614501
0.000565495
0.000601071
0.000608336
0.000614994
0.000608468
0.000584411
0.000604718
0.000599757
0.000566158
0.000481349
0.000578936
0.000469286
0.000575071
0.0005617
0.000575353
0.000577712
0.000581229
0.000590446
0.000659603
0.000574925
0.000588037
0.00062553
0.00061955
0.000519962
0.000376947
VECTORS momentum double
-0.225273 -0.809486 0 
-0.274553 -0.643571 0 
-0.145791 -0.588693 0 
-0.315255 -0.492626 0 
-0.641137 -0.845886 0 
-0.877093 -0.559532 0 
-0.427887 -0.719013 0 
-0.620579 -0.39874 0 
-0.701378 -0.602184 0 
-0.938803 -0.769542 0 
-0.646225 -0.528268 0 
-0.789572 -0.69889 0 
-0.90623 -0.501162 0 
-1.10592 -0.562348 0 
-1.00875 -0.447609 0 
-1.02437 -0.633983 0 
-0.041669 -0.676904 0 
-0.245351 -0.239166 0 
-0.108304 -0.37558 0 
-0.166233 -0.0459311 0 
-0.552894 -0.33527 0 
-0.603635 -0.19909 0 
-0.446804 -0.285373 0 
-0.518049 -0.272047 0 
-0.567846 -0.354957 0 
-0.530013 -0.489574 0 
-0.463323 -0.292259 0 
-0.393909 -0.364588 0 
-0.79082 -0.344838 0 
-1.18095 -0.38432 0 
-0.537112 -0.152311 0 
-0.731491 -0.288309 0 
0.186418 -0.184341 0 
-0.386178 -0.0490488 0 
0.180519 -0.100626 0 
-0.221457 0.178821 0 
-0.548528 -0.265798 0 
-0.304597 -0.2528 0 
-0.235706 0.0267381 0 
-0.169921 0.148575 0 
-0.424219 -0.276567 0 
-0.430102 -0.190379 0 
-0.445574 0.148191 0 
-0.332763 0.287097 0 
-0.877147 -0.202775 0 
-0.733102 -0.00609793 0 
-0.853477 0.234774 0 
-0.570786 -0.0366039 0 
-0.108942 -0.251419 0 
-0.183218 0.13966 0 
0.0950015 -0.0904521 0 
-0.365007 0.157407 0 
-0.368208 -0.101259 0 
-0.178945 0.0183328 0 
-0.266017 -0.0172156 0 
-0.386153 -0.0708294 0 
-0.297627 0.020065 0 
0.0154429 -0.205871 0 
-0.430825 -0.0239897 0 
-0.115556 0.0541351 0 
-0.375495 -0.135434 0 
0.0673221 -0.41816 0 
-0.207308 -0.237859 0 
-0.35311 -0.0926603 0 
VECTORS body_force double
0 -9.81 0 
0 -9.81 0 
0 -9.81 0 
0 -9.81 0 
0 -9.81 0 
0 -9.81 0 
0 -9.81 0 
0 -9.81 0 
0 -9.81 0 
0 -9.81 0 
0 -9.81 0 
0 -9.81 0 
0 -9.81 0 
0 -9.81 0 
0 -9.81 0 
0 -9.81 0 
0 -9.81 0 
0 -9.81 0 
0 -9.81 0 
0 -9.81 0 
0 -9.81 0 
0 -9.81 0 
0 -9.81 0 
0 -9.81 0 
0 -9.81 0 
0 -9.81 0 
0 -9.81 0 
0 -9.81 0 
0 -9.81 0 
0 -9.81 0 
0 -9.81 0 
0 -9.81 0 
0 -9.81 0 
0 -9.81 0 
0 -9.81 0 
0 -9.81 0 
0 -9.81 0 
0 -9.81 0 
0 -9.81 0 
0 -9.81 0 
0 -9.81 0 
0 -9.81 0 
0 -9.81 0 
0 -9.81 0 
0 -9.81 0 
0 -9.81 0 
0 -9.81 0 
0 -9.81 0 
0 -9.81 0 
0 -9.81 0 
0 -9.81 0 
0 -9.81 0 
0 -9.81 0 
0 -9.81 0 
0 -9.81 0 
0 -9.81 0 
0 -9.81 0 
0 -9.81 0 
0 -9.81 0 
0 -9.81 0 
0 -9.81 0 
0 -9.81 0 
0 -9.81 0 
0 -9.81 0 
TENSORS cauchy_stress double
1602.5 -814.304 0
-814.304 -469.818 0
0 0 0

-2786.15 -1262.09 0
-1262.09 871.794 0
0 0 0

-152.09 -604.58 0
-604.58 -970.389 0
0 0 0

-2903.31 -877.004 0
-877.004 -1940.12 0
0 0 0

1097.47 -300.317 0
-300.317 419.604 0
0 0 0

3379.42 2418.85 0
2418.85 1908.74 0
0 0 0

41.2872 -2278.64 0
-2278.64 -1805.26 0
0 0 0

-3960.68 143.108 0
143.108 -1832.05 0
0 0 0

-1652.15 -1721.67 0
-1721.67 -476.383 0
0 0 0

-1644.99 2273.42 0
2273.42 537.074 0
0 0 0

-1034.75 -2043.77 0
-2043.77 -983.019 0
0 0 0

2098.75 1797.68 0
1797.68 -408.005 0
0 0 0

580.505 -711.258 0
-711.258 1882.89 0
0 0 0

-1314.66 10.8096 0
10.8096 43.3477 0
0 0 0

-3457.57 2448.33 0
2448.33 2536.83 0
0 0 0

620.548 1581.8 0
1581.8 -4784.91 0
0 0 0

9272.59 1054.39 0
1054.39 733.804 0
0 0 0

-402.042 1383.41 0
1383.41 -1641.93 0
0 0 0

4246.43 2863.36 0
2863.36 -9939.37 0
0 0 0

-5221.45 330.126 0
330.126 -8809 0
0 0 0

1289.06 2252.11 0
2252.11 -4588.13 0
0 0 0

-76.8901 248.919 0
248.919 -3176.67 0
0 0 0

1019.34 -1641.3 0
-1641.3 -5182.25 0
0 0 0

-2380.72 -1660.22 0
-1660.22 -4961.21 0
0 0 0

-730.827 1635.83 0
1635.83 55.9678 0
0 0 0

-4800.26 70.9538 0
70.9538 -4284.19 0
0 0 0

-7.8577 2580.96 0
2580.96 -1466.52 0
0 0 0

283.726 -3029.41 0
-3029.41 2703.15 0
0 0 0

-626.704 3604.05 0
3604.05 -1376.82 0
0 0 0

-2145.53 1704.12 0
1704.12 -1910.98 0
0 0 0

-9483.72 2082.97 0
2082.97 -4112.01 0
0 0 0

-60.4467 4835.69 0
4835.69 20.2572 0
0 0 0

4946.83 2704.66 0
2704.66 -19467.7 0
0 0 0

-4368.03 2797.45 0
2797.45 -10102.9 0
0 0 0

962.665 53.3541 0
53.3541 -32424.5 0
0 0 0

3247.68 -928.512 0
-928.512 -9403.79 0
0 0 0

8460.73 1749.45 0
1749.45 -5943.64 0
0 0 0

1226.34 335.677 0
335.677 -9612.22 0
0 0 0

5997.4 -1043.01 0
-1043.01 -9255.34 0
0 0 0

-1563.29 33.4928 0
33.4928 -17677 0
0 0 0

-844.422 1292.99 0
1292.99 -6663.06 0
0 0 0

-1610.76 -5024.21 0
-5024.21 -3586.34 0
0 0 0

3305.03 1502.62 0
1502.62 -6408.63 0
0 0 0

5011.85 -6082.4 0
-6082.4 -10167 0
0 0 0

-9814.78 1356.29 0
1356.29 -3098.22 0
0 0 0

-3712.99 935.322 0
935.322 -2631.19 0
0 0 0

-4041.61 -2055.36 0
-2055.36 -3886.69 0
0 0 0

-11531.4 4074.46 0
4074.46 -7483.67 0
0 0 0

-8863.8 1450.13 0
1450.13 -41359.1 0
0 0 0

-3385.38 803.895 0
803.895 -11337.8 0
0 0 0

-4057.89 -2903.46 0
-2903.46 -51045.9 0
0 0 0

528.671 -4367.32 0
-4367.32 -16539.8 0
0 0 0

-3322.34 -487.529 0
-487.529 -17213 0
0 0 0

307.754 -3305.97 0
-3305.97 -16224.7 0
0 0 0

-343.124 -3092.19 0
-3092.19 -14786.9 0
0 0 0

-1173.95 -4290.7 0
-4290.7 -12788.8 0
0 0 0

3926.74 -737.49 0
-737.49 -14864 0
0 0 0

13768.6 -6175.96 0
-6175.96 -3405.89 0
0 0 0

-110.027 5.05004 0
5.05004 -15949.9 0
0 0 0

458.872 -1638.94 0
-1638.94 -12182.3 0
0 0 0

5001.19 -9973.18 0
-9973.18 -4838.2 0
0 0 0

1651.65 -1122.75 0
-1122.75 -3335.91 0
0 0 0

-19012.9 -11564.1 0
-11564.1 -16371 0
0 0 0

-71599.6 -4153.97 0
-4153.97 -25640.1 0
0 0 0

TENSORS velocity_gradient double
1.01771 -6.50364 0
5.8896 0.172247 0
0 0 0

-0.504879 -7.07467 0
5.64591 0.0571771 0
0 0 0

0.166592 -7.77818 0
9.18157 0.143799 0
0 0 0

-0.623441 -8.06048 0
9.63479 0.305746 0
0 0 0

-1.53524 -10.3946 0
7.42335 0.133313 0
0 0 0

3.14513 -10.3504 0
6.56574 -0.0448708 0
0 0 0

-0.28089 -8.62338 0
9.25457 -1.40026 0
0 0 0

2.23513 -7.77774 0
7.27993 -2.06394 0
0 0 0

2.92547 -5.2707 0
5.08671 -1.15495 0
0 0 0

0.710121 -5.90968 0
3.91108 -1.49404 0
0 0 0

3.61249 -7.53478 0
5.49691 -2.38913 0
0 0 0

1.8196 -8.02394 0
4.64556 -2.60867 0
0 0 0

-0.445429 -5.36572 0
2.99999 0.140605 0
0 0 0

-0.685384 -5.44147 0
2.28993 -0.0835452 0
0 0 0

4.12539 -6.69696 0
7.35874 -1.18558 0
0 0 0

2.25124 -6.9318 0
6.70669 -1.0683 0
0 0 0

0.325871 -9.35871 0
8.97824 -0.540794 0
0 0 0

-0.420816 -8.87802 0
9.51855 0.774743 0
0 0 0

-0.174816 -12.5228 0
8.11855 -5.96505 0
0 0 0

1.14255 -8.65324 0
7.6579 0.0623474 0
0 0 0

0.0961567 -7.10014 0
8.70343 -1.94454 0
0 0 0

2.96852 -5.76703 0
6.81882 -3.35399 0
0 0 0

1.97496 -8.39529 0
6.27282 -0.36686 0
0 0 0

2.97374 -4.56917 0
6.28745 -2.93295 0
0 0 0

4.40886 -6.83805 0
7.08297 -3.01406 0
0 0 0

4.78948 -8.35247 0
7.54847 -2.57799 0
0 0 0

4.06333 -4.21584 0
6.8624 -2.7465 0
0 0 0

4.6754 -8.08889 0
7.35883 -2.13984 0
0 0 0

4.80933 -8.30401 0
7.84111 -2.18751 0
0 0 0

2.67544 -9.5026 0
6.90398 -2.26392 0
0 0 0

4.76545 -7.89881 0
7.35195 -2.03633 0
0 0 0

5.68812 -10.3613 0
7.01701 -2.76646 0
0 0 0

-0.815945 -10.7242 0
7.63974 -5.30855 0
0 0 0

0.931405 -7.80971 0
8.00924 -1.34124 0
0 0 0

-1.93898 -7.51111 0
1.3455 -1.92177 0
0 0 0

-0.427184 -6.06085 0
2.46873 -1.19005 0
0 0 0

1.77617 -7.48264 0
6.36942 -1.73742 0
0 0 0

2.87926 -3.64312 0
5.71878 -2.3082 0
0 0 0

1.51022 -5.34958 0
3.88713 -0.669308 0
0 0 0

2.97938 -3.6826 0
5.18326 -1.30629 0
0 0 0

2.98323 -3.52662 0
6.22291 -2.0568 0
0 0 0

3.19353 -7.0162 0
6.85586 -1.96718 0
0 0 0

2.99412 -3.56921 0
5.98711 -1.13492 0
0 0 0

3.05539 -4.57515 0
6.72928 -1.29139 0
0 0 0

4.22753 -7.07149 0
6.86672 -1.98504 0
0 0 0

5.23613 -8.65093 0
6.91929 -2.37175 0
0 0 0

3.99883 -6.10864 0
6.52388 -2.0039 0
0 0 0

9.22576 -5.46847 0
-1.31415 -2.21403 0
0 0 0

-2.089 -6.31883 0
1.23024 -1.00573 0
0 0 0

-0.744663 -3.77623 0
2.23629 0.482568 0
0 0 0

0.152285 -7.09478 0
1.74836 0.250274 0
0 0 0

-0.839402 -3.90964 0
2.15213 -0.0471246 0
0 0 0

0.377406 -3.21754 0
2.51049 0.735468 0
0 0 0

0.227939 -3.05675 0
0.59188 0.0424306 0
0 0 0

-1.07741 -3.02111 0
0.843576 -0.837724 0
0 0 0

-1.26458 -3.06148 0
-0.981024 -1.23119 0
0 0 0

1.02034 -2.5141 0
-2.23698 -0.778995 0
0 0 0

3.51521 -1.50734 0
-2.87342 -1.03582 0
0 0 0

0.264825 0.690464 0
-2.04425 -1.59649 0
0 0 0

3.2999 1.79327 0
-2.8879 -1.78153 0
0 0 0

6.70181 -2.92419 0
-3.83057 -2.9617 0
0 0 0

10.0794 -2.26421 0
-4.93206 -3.17693 0
0 0 0

5.95576 0.759504 0
-3.30253 -4.1542 0
0 0 0

8.41996 0.759311 0
-4.0747 -4.15419 0
0 0 0

SCALARS active double 1
LOOKUP_TABLE default
1
1
1
1
1
1
1
1
1
1
1
1
1
1
1
1
1
1
1
1
1
1
1
1
1
1
1
1
1
1
1
1
1
1
1
1
1
1
1
1
1
1
1
1
1
1
1
1
1
1
1
1
1
1
1
1
1
1
1
1
1
1
1
1
SCALARS extent double 1
LOOKUP_TABLE default
0.0125
0.0125
0.0125
0.0125
0.0125
0.0125
0.0125
0.0125
0.0125
0.0125
0.0125
0.0125
0.0125
0.0125
0.0125
0.0125
0.0125
0.0125
0.0125
0.0125
0.0125
0.0125
0.0125
0.0125
0.0125
0.0125
0.0125
0.0125
0.0125
0.0125
0.0125
0.0125
0.0125
0.0125
0.0125
0.0125
0.0125
0.0125
0.0125
0.0125
0.0125
0.0125
0.0125
0.0125
0.0125
0.0125
0.0125
0.0125
0.0125
0.0125
0.0125
0.0125
0.0125
0.0125
0.0125
0.0125
0.0125
0.0125
0.0125
0.0125
0.0125
0.0125
0.0125
0.0125
SCALARS pressure double 1
LOOKUP_TABLE default
-566.341
957.177
561.24
2421.71
-758.539
-2644.08
881.984
2896.37
1064.27
553.959
1008.88
-845.375
-1231.7
635.658
460.367
2082.18
-5003.2
1021.98
2846.47
7015.22
1649.54
1626.78
2081.46
3670.96
337.43
4542.23
737.191
-1493.44
1001.76
2028.26
6797.86
20.0948
7260.45
7235.44
15730.9
3078.06
-1258.54
4192.94
1628.97
9620.13
3753.74
2598.55
1551.8
2577.58
6456.5
3172.09
3964.15
9507.54
25111.4
7361.58
27551.9
8005.56
10267.7
7958.49
7565.01
6981.35
5468.65
-5181.36
8029.98
5861.73
-81.4948
842.126
17692
48619.9
SCALARS density double 1
LOOKUP_TABLE default
994.127
1010
1005.85
1025.51
992.142
972.876
1009.21
1030.58
1011.13
1005.78
1010.55
991.247
987.272
1006.63
1004.8
1021.89
949.297
1010.69
1030.05
1075.69
1017.3
1017.06
1021.88
1038.92
1003.52
1048.37
1007.7
984.588
1010.47
1021.32
1073.26
1000.21
1078.43
1078.15
1177.75
1032.53
986.996
1044.57
1017.09
1105.23
1039.81
1027.39
1016.27
1027.17
1069.45
1033.54
1042.09
1103.93
1298.43
1079.57
1331.81
1086.82
1112.69
1086.29
1081.85
1075.31
1058.52
947.54
1087.1
1062.86
999.153
1008.8
1202.01
1658.06
