# vtk DataFile Version 3.0
Frame: 53, Time: 0.901
ASCII
DATASET UNSTRUCTURED_GRID
POINTS 64 double
0.0730581 0.0460968 0 
0.075812 0.0699775 0 
0.0987729 0.0455078 0 
0.100664 0.0693973 0 
0.0746423 0.094157 0 
0.077073 0.118531 0 
0.101179 0.0935517 0 
0.103483 0.117593 0 
0.0777801 0.142266 0 
0.0780318 0.166966 0 
0.105622 0.141594 0 
0.104526 0.165194 0 
0.0818925 0.191204 0 
0.0831954 0.215358 0 
0.107502 0.189355 0 
0.108231 0.213934 0 
0.125445 0.0462557 0 
0.125348 0.0701024 0 
0.15044 0.045024 0 
0.150063 0.0680253 0 
0.125396 0.0944518 0 
0.126584 0.11796 0 
0.151753 0.0912739 0 
0.152289 0.114544 0 
0.129087 0.142262 0 
0.128323 0.166353 0 
0.154485 0.139369 0 
0.154845 0.16427 0 
0.131552 0.191091 0 
0.132994 0.217585 0 
0.157186 0.190626 0 
0.159382 0.216607 0 
0.176154 0.0428054 0 
0.173411 0.0660412 0 
0.206375 0.0435781 0 
0.200134 0.0663331 0 
0.175819 0.0895353 0 
0.176193 0.113496 0 
0.202371 0.0895043 0 
0.200881 0.113317 0 
0.178496 0.138295 0 
0.179648 0.163595 0 
0.201921 0.137602 0 
0.202715 0.163007 0 
0.181168 0.190852 0 
0.185267 0.216609 0 
0.203679 0.188889 0 
0.208075 0.214207 0 
0.233598 0.043412 0 
0.225028 0.0669591 0 
0.260148 0.044577 0 
0.250482 0.0668384 0 
0.227639 0.089708 0 
0.22597 0.11324 0 
0.253808 0.0874815 0 
0.251899 0.11042 0 
0.226091 0.136471 0 
0.228038 0.160646 0 
0.252463 0.133987 0 
0.256701 0.157244 0 
0.228324 0.185497 0 
0.232638 0.209011 0 
0.258015 0.1815 0 
0.263709 0.204379 0 
CELLS 64 128
1 0
1 1
1 2
1 3
1 4
1 5
1 6
1 7
1 8
1 9
1 10
1 11
1 12
1 13
1 14
1 15
1 16
1 17
1 18
1 19
1 20
1 21
1 22
1 23
1 24
1 25
1 26
1 27
1 28
1 29
1 30
1 31
1 32
1 33
1 34
1 35
1 36
1 37
1 38
1 39
1 40
1 41
1 42
1 43
1 44
1 45
1 46
1 47
1 48
1 49
1 50
1 51
1 52
1 53
1 54
1 55
1 56
1 57
1 58
1 59
1 60
1 61
1 62
1 63
CELL_TYPES 64
1
1
1
1
1
1
1
1
1
1
1
1
1
1
1
1
1
1
1
1
1
1
1
1
1
1
1
1
1
1
1
1
1
1
1
1
1
1
1
1
1
1
1
1
1
1
1
1
1
1
1
1
1
1
1
1
1
1
1
1
1
1
1
1
POINT_DATA 64
VECTORS displacement double
-0.339442 -0.366403 0 
-0.336688 -0.367522 0 
-0.338727 -0.366992 0 
-0.336836 -0.368103 0 
-0.337858 -0.368343 0 
-0.335427 -0.368969 0 
-0.336321 -0.368948 0 
-0.334017 -0.369907 0 
-0.33472 -0.370234 0 
-0.334468 -0.370534 0 
-0.331878 -0.370906 0 
-0.332974 -0.372306 0 
-0.330608 -0.371296 0 
-0.329305 -0.372142 0 
-0.329998 -0.373145 0 
-0.329269 -0.373566 0 
-0.337055 -0.366244 0 
-0.337152 -0.367398 0 
-0.33706 -0.367476 0 
-0.337437 -0.369475 0 
-0.337104 -0.368048 0 
-0.335916 -0.36954 0 
-0.335747 -0.371226 0 
-0.335211 -0.372956 0 
-0.333413 -0.370238 0 
-0.334177 -0.371147 0 
-0.333015 -0.373131 0 
-0.332655 -0.37323 0 
-0.330948 -0.371409 0 
-0.329506 -0.369915 0 
-0.330314 -0.371874 0 
-0.328118 -0.370893 0 
-0.336346 -0.369695 0 
-0.339089 -0.371459 0 
-0.331125 -0.368922 0 
-0.337366 -0.371167 0 
-0.336681 -0.372965 0 
-0.336307 -0.374004 0 
-0.335129 -0.372996 0 
-0.336619 -0.374183 0 
-0.334004 -0.374205 0 
-0.332852 -0.373905 0 
-0.335579 -0.374898 0 
-0.334785 -0.374493 0 
-0.331332 -0.371648 0 
-0.327233 -0.370891 0 
-0.333821 -0.373611 0 
-0.329425 -0.373293 0 
-0.328902 -0.369088 0 
-0.337472 -0.370541 0 
-0.327352 -0.367923 0 
-0.337018 -0.370662 0 
-0.334861 -0.372792 0 
-0.33653 -0.37426 0 
-0.333692 -0.375018 0 
-0.335601 -0.37708 0 
-0.336409 -0.376029 0 
-0.334462 -0.376854 0 
-0.335037 -0.378513 0 
-0.330799 -0.380256 0 
-0.334176 -0.377003 0 
-0.329862 -0.378489 0 
-0.329485 -0.381 0 
-0.323791 -0.383121 0 
VECTORS velocity double
-0.298421 -0.20002 0 
-0.596612 0.113464 0 
0.034611 0.381949 0 
-0.638611 0.566499 0 
-0.783733 -0.424446 0 
-0.970092 -0.0276469 0 
-0.529779 -0.0129869 0 
-0.739479 0.480778 0 
-0.718584 -0.0844497 0 
-1.17818 -0.455412 0 
-0.85481 0.433475 0 
-0.984044 0.0929124 0 
-0.971787 -0.195888 0 
-1.56091 -0.389993 0 
-1.17805 0.287308 0 
-1.47011 0.254475 0 
0.0533304 -0.249756 0 
-0.547641 0.484152 0 
-0.0658702 -0.209285 0 
-0.527905 0.380375 0 
-0.469152 0.236485 0 
-0.766 0.548647 0 
-0.384627 0.015896 0 
-0.65001 0.166488 0 
-1.31552 0.481436 0 
-1.16567 0.225527 0 
-1.17386 0.33108 0 
-1.03051 0.245162 0 
-1.17338 0.276261 0 
-2.50834 0.420328 0 
-0.470296 0.406983 0 
-1.65699 0.273798 0 
0.407443 0.026322 0 
-0.84445 0.347121 0 
0.280455 0.195512 0 
-0.412914 0.742348 0 
-0.856852 0.0477661 0 
-0.485981 0.124672 0 
-0.518235 0.573272 0 
-0.53878 0.795923 0 
-0.90205 0.14114 0 
-0.778234 0.294944 0 
-1.24446 0.772597 0 
-1.32982 1.07253 0 
-0.64442 0.283566 0 
-1.52701 1.0539 0 
-1.92912 1.39093 0 
-2.77527 1.59217 0 
0.430801 -0.084808 0 
-0.194012 0.643089 0 
0.0139362 1.17819 0 
-0.669242 1.47864 0 
-0.658418 0.344065 0 
-0.624765 0.691795 0 
-0.496625 1.67324 0 
-0.440561 1.37107 0 
-1.34082 0.973201 0 
-1.70335 1.06681 0 
-1.03025 1.58739 0 
-1.48871 1.81793 0 
-2.88234 1.59636 0 
-2.65032 1.50474 0 
-1.64459 1.54078 0 
-0.0133715 1.47418 0 
SCALARS mass double 1
LOOKUP_TABLE default
0.625
0.625
0.625
0.625
0.625
0.625
0.625
0.625
0.625
0.625
0.625
0.625
0.625
0.625
0.625
0.625
0.625
0.625
0.625
0.625
0.625
0.625
0.625
0.625
0.625
0.625
0.625
0.625
0.625
0.625
0.625
0.625
0.625
0.625
0.625
0.625
0.625
0.625
0.625
0.625
0.625
0.625
0.625
0.625
0.625
0.625
0.625
0.625
0.625
0.625
0.625
0.625
0.625
0.625
0.625
0.625
0.625
0.625
0.625
0.625
0.625
0.625
0.625
0.625
SCALARS volume double 1
LOOKUP_TABLE default
0.000615373
0.000625465
0.000579878
0.000605075
0.000619244
0.000629659
0.000613999
0.000604008
0.000609068
0.000604996
0.000612813
0.000617554
0.000620387
0.000619476
0.000616971
0.000613104
0.000613737
0.000618629
0.000567978
0.000574583
0.000615189
0.000610384
0.000600155
0.000584987
0.000615334
0.000598262
0.000610868
0.000627603
0.000643465
0.000634707
0.000602493
0.000642165
0.000568669
0.000577733
0.000573819
0.000610227
0.000626732
0.000618621
0.000616565
0.000581726
0.000621203
0.000611025
0.000607546
0.000577508
0.00062504
0.000628492
0.000593786
0.000573373
0.000567831
0.000601707
0.000597868
0.000594348
0.000581095
0.000596641
0.000585724
0.000594286
0.000586828
0.000657125
0.000609332
0.000646306
0.000637289
0.000704729
0.000635974
0.000559697
VECTORS momentum double
-0.186513 -0.125013 0 
-0.372883 0.0709148 0 
0.0216319 0.238718 0 
-0.399132 0.354062 0 
-0.489833 -0.265279 0 
-0.606308 -0.0172793 0 
-0.331112 -0.00811679 0 
-0.462174 0.300486 0 
-0.449115 -0.0527811 0 
-0.736361 -0.284633 0 
-0.534256 0.270922 0 
-0.615027 0.0580702 0 
-0.607367 -0.12243 0 
-0.975567 -0.243746 0 
-0.73628 0.179567 0 
-0.918816 0.159047 0 
0.0333315 -0.156098 0 
-0.342276 0.302595 0 
-0.0411689 -0.130803 0 
-0.329941 0.237734 0 
-0.29322 0.147803 0 
-0.47875 0.342904 0 
-0.240392 0.00993498 0 
-0.406256 0.104055 0 
-0.822198 0.300897 0 
-0.728541 0.140954 0 
-0.73366 0.206925 0 
-0.64407 0.153226 0 
-0.733364 0.172663 0 
-1.56771 0.262705 0 
-0.293935 0.254365 0 
-1.03562 0.171124 0 
0.254652 0.0164512 0 
-0.527781 0.216951 0 
0.175285 0.122195 0 
-0.258071 0.463967 0 
-0.535532 0.0298538 0 
-0.303738 0.0779197 0 
-0.323897 0.358295 0 
-0.336737 0.497452 0 
-0.563781 0.0882127 0 
-0.486397 0.18434 0 
-0.777787 0.482873 0 
-0.831136 0.670332 0 
-0.402762 0.177229 0 
-0.954382 0.658687 0 
-1.2057 0.869333 0 
-1.73454 0.995106 0 
0.269251 -0.053005 0 
-0.121257 0.401931 0 
0.00871014 0.736367 0 
-0.418276 0.92415 0 
-0.411511 0.215041 0 
-0.390478 0.432372 0 
-0.310391 1.04578 0 
-0.27535 0.856917 0 
-0.838012 0.608251 0 
-1.0646 0.666759 0 
-0.643907 0.992121 0 
-0.930446 1.1362 0 
-1.80146 0.997728 0 
-1.65645 0.940464 0 
-1.02787 0.962985 0 
-0.00835721 0.921361 0 
VECTORS body_force double
0 -9.81 0 
0 -9.81 0 
0 -9.81 0 
0 -9.81 0 
0 -9.81 0 
0 -9.81 0 
0 -9.81 0 
0 -9.81 0 
0 -9.81 0 
0 -9.81 0 
0 -9.81 0 
0 -9.81 0 
0 -9.81 0 
0 -9.81 0 
0 -9.81 0 
0 -9.81 0 
0 -9.81 0 
0 -9.81 0 
0 -9.81 0 
0 -9.81 0 
0 -9.81 0 
0 -9.81 0 
0 -9.81 0 
0 -9.81 0 
0 -9.81 0 
0 -9.81 0 
0 -9.81 0 
0 -9.81 0 
0 -9.81 0 
0 -9.81 0 
0 -9.81 0 
0 -9.81 0 
0 -9.81 0 
0 -9.81 0 
0 -9.81 0 
0 -9.81 0 
0 -9.81 0 
0 -9.81 0 
0 -9.81 0 
0 -9.81 0 
0 -9.81 0 
0 -9.81 0 
0 -9.81 0 
0 -9.81 0 
0 -9.81 0 
0 -9.81 0 
0 -9.81 0 
0 -9.81 0 
0 -9.81 0 
0 -9.81 0 
0 -9.81 0 
0 -9.81 0 
0 -9.81 0 
0 -9.81 0 
0 -9.81 0 
0 -9.81 0 
0 -9.81 0 
0 -9.81 0 
0 -9.81 0 
0 -9.81 0 
0 -9.81 0 
0 -9.81 0 
0 -9.81 0 
0 -9.81 0 
TENSORS cauchy_stress double
3934.18 1579.56 0
1579.56 -6919.41 0
0 0 0

822.626 -70.263 0
-70.263 -679.71 0
0 0 0

-3383.04 -208.223 0
-208.223 -11027.5 0
0 0 0

-2391.07 -135.741 0
-135.741 -3839.71 0
0 0 0

874.719 1145.69 0
1145.69 -2653.95 0
0 0 0

1562.28 4182.76 0
4182.76 -134.133 0
0 0 0

2268.46 -194.716 0
-194.716 -5683.38 0
0 0 0

-1501.66 2019.6 0
2019.6 -5068.53 0
0 0 0

-672.355 -148.153 0
-148.153 -4293.21 0
0 0 0

-3124.01 250.376 0
250.376 -3131.66 0
0 0 0

2182.41 309.906 0
309.906 -5969.17 0
0 0 0

2178.77 1290.96 0
1290.96 -4483.57 0
0 0 0

149.683 -857.168 0
-857.168 -1574.27 0
0 0 0

-2269.86 -288.453 0
-288.453 562.715 0
0 0 0

-2082.5 295.606 0
295.606 -404.061 0
0 0 0

-1353.11 2112.29 0
2112.29 -2342.53 0
0 0 0

4016.65 1045.31 0
1045.31 -7513.89 0
0 0 0

-1064.67 2397.32 0
2397.32 -905.67 0
0 0 0

-1822.3 -1513.52 0
-1513.52 -16575.7 0
0 0 0

-6635.06 -1998.92 0
-1998.92 -9539.37 0
0 0 0

1217.44 5293.92 0
5293.92 -4260.08 0
0 0 0

1613.76 3247.61 0
3247.61 -6164.51 0
0 0 0

-812.176 -2548.05 0
-2548.05 -6988.5 0
0 0 0

-5212.12 -1412.75 0
-1412.75 -7511.47 0
0 0 0

-138.543 3344.84 0
3344.84 -2858.99 0
0 0 0

-1327.92 369.013 0
369.013 -7080.37 0
0 0 0

-4749.95 4849.2 0
4849.2 351.625 0
0 0 0

523.316 221.955 0
221.955 276.022 0
0 0 0

4631.59 5427.28 0
5427.28 967.693 0
0 0 0

2761.34 -827.14 0
-827.14 202.515 0
0 0 0

-6854.13 5834.4 0
5834.4 -198.752 0
0 0 0

3842.59 5152.74 0
5152.74 1367.71 0
0 0 0

550.131 839.324 0
839.324 -18714.3 0
0 0 0

-6656.98 831.208 0
831.208 -8465.99 0
0 0 0

4362.64 726.043 0
726.043 -20792.8 0
0 0 0

2174.84 -2040.44 0
-2040.44 -6774.84 0
0 0 0

5207.99 2061.54 0
2061.54 -4675.68 0
0 0 0

477.551 1204.78 0
1204.78 -2450.49 0
0 0 0

3125.79 -27.9979 0
-27.9979 -5738.93 0
0 0 0

-5852.76 1633.06 0
1633.06 -7945.71 0
0 0 0

-3218.18 2870.23 0
2870.23 2046.35 0
0 0 0

-2221.1 -1384.37 0
-1384.37 -2127.76 0
0 0 0

-7159.73 1757.94 0
1757.94 1712.9 0
0 0 0

-7292.68 12.6269 0
12.6269 -7905.31 0
0 0 0

-4675.04 4225.07 0
4225.07 4687.46 0
0 0 0

3014.23 740.947 0
740.947 -1942.82 0
0 0 0

-10384.6 3174.93 0
3174.93 532.113 0
0 0 0

-12101.1 4059.49 0
4059.49 -4478.67 0
0 0 0

-614.784 323.004 0
323.004 -17833 0
0 0 0

-3280.43 -1594.09 0
-1594.09 -4023.76 0
0 0 0

5704.7 2710.89 0
2710.89 -14239.6 0
0 0 0

601.22 -883.317 0
-883.317 -10271.9 0
0 0 0

-4489.9 -815.818 0
-815.818 -9517.35 0
0 0 0

-1997.98 -4115.12 0
-4115.12 -6931.98 0
0 0 0

-1936.67 -501.108 0
-501.108 -10544.5 0
0 0 0

-487.471 -6109 0
-6109 -9203.11 0
0 0 0

-4976.87 -2112.52 0
-2112.52 -7142.35 0
0 0 0

7226.7 -4492.24 0
-4492.24 2412.2 0
0 0 0

1050.05 -2503.31 0
-2503.31 -5932.38 0
0 0 0

8182.77 -3336.45 0
-3336.45 -1736.34 0
0 0 0

4985.43 -4154.98 0
-4154.98 -1240.82 0
0 0 0

19118.7 2132.2 0
2132.2 3970.03 0
0 0 0

8476.38 -2748.15 0
-2748.15 -5128.97 0
0 0 0

-14052 6006.95 0
6006.95 -7170.26 0
0 0 0

TENSORS velocity_gradient double
1.83578 -7.51581 0
3.56266 0.971013 0
0 0 0

1.6046 -6.90155 0
4.62952 -0.857934 0
0 0 0

1.40589 -7.26129 0
1.2416 2.69994 0
0 0 0

1.24712 -7.22897 0
1.44709 0.158322 0
0 0 0

1.1982 -6.84186 0
5.48983 -0.894119 0
0 0 0

1.04332 -5.44219 0
6.48215 -0.805945 0
0 0 0

1.19238 -7.23203 0
2.58235 0.195497 0
0 0 0

0.367269 -5.80382 0
2.66087 0.232782 0
0 0 0

0.97539 -5.44458 0
7.48973 -0.770497 0
0 0 0

0.556515 -5.98626 0
8.03298 -2.42641 0
0 0 0

-1.13677 -5.88022 0
2.59435 0.309824 0
0 0 0

-1.08794 -6.29031 0
3.95567 -1.81267 0
0 0 0

-0.00996843 -6.07979 0
8.33893 -2.3759 0
0 0 0

-0.326973 -8.2883 0
9.21062 -1.59797 0
0 0 0

-0.463658 -6.21492 0
5.17674 -1.64095 0
0 0 0

-1.61317 -9.42705 0
6.37256 -0.454785 0
0 0 0

0.827699 -7.11979 0
-1.84142 2.28355 0
0 0 0

0.995851 -7.09517 0
-0.701651 1.84816 0
0 0 0

2.3058 -7.26804 0
1.96999 2.00467 0
0 0 0

1.3929 -7.1931 0
2.59551 3.36494 0
0 0 0

1.17434 -7.08951 0
1.04552 1.82299 0
0 0 0

0.220242 -7.07384 0
1.95315 0.873822 0
0 0 0

0.293594 -7.26006 0
3.9551 3.4249 0
0 0 0

-0.951363 -8.47555 0
4.9039 1.64988 0
0 0 0

-1.17152 -7.22738 0
2.61077 0.946369 0
0 0 0

-1.15124 -5.59923 0
3.79172 -0.400745 0
0 0 0

-2.37572 -8.59546 0
6.76749 1.73609 0
0 0 0

-4.37389 -5.65656 0
9.01613 1.52374 0
0 0 0

-0.415721 -5.49902 0
5.2733 -0.1989 0
0 0 0

-1.98478 -12.0718 0
6.51149 0.533989 0
0 0 0

-7.30607 -5.91052 0
12.1432 1.8031 0
0 0 0

-8.03174 -13.488 0
14.5706 2.04129 0
0 0 0

3.66521 -8.75384 0
4.86965 4.34841 0
0 0 0

1.91789 -8.80543 0
5.59095 3.41708 0
0 0 0

-0.342109 -10.5591 0
8.77828 8.36284 0
0 0 0

0.790463 -10.5872 0
8.39488 3.38072 0
0 0 0

0.0412012 -9.01503 0
5.41022 3.39689 0
0 0 0

-1.37699 -9.5082 0
5.90726 2.68475 0
0 0 0

0.337038 -10.6532 0
10.1182 3.42462 0
0 0 0

-0.591849 -10.6577 0
10.2949 3.77158 0
0 0 0

-2.41851 -9.6154 0
7.00514 2.79775 0
0 0 0

-4.34672 -8.34886 0
9.03318 4.36561 0
0 0 0

-1.97108 -10.7303 0
12.0431 3.82758 0
0 0 0

-2.77486 -10.1911 0
12.5703 5.98613 0
0 0 0

-7.29877 -8.54039 0
12.1356 4.5669 0
0 0 0

-8.03982 -12.9283 0
14.5401 4.15644 0
0 0 0

-2.27324 -10.2439 0
11.2111 6.00389 0
0 0 0

-2.31106 -13.207 0
9.05626 4.39361 0
0 0 0

-0.326068 -11.6522 0
8.69712 13.8933 0
0 0 0

-0.174463 -10.2266 0
10.858 4.30617 0
0 0 0

-8.13817 -11.7584 0
6.62847 18.7699 0
0 0 0

-2.83096 -8.98483 0
10.6054 5.88409 0
0 0 0

0.436844 -10.1498 0
11.8333 4.42868 0
0 0 0

-0.119747 -12.3374 0
12.826 4.82318 0
0 0 0

-0.879659 -8.61411 0
13.7258 6.27457 0
0 0 0

-1.14764 -15.3049 0
14.6582 5.18867 0
0 0 0

-1.72461 -12.3657 0
13.7888 4.84013 0
0 0 0

-2.51653 -9.75372 0
13.5833 4.03798 0
0 0 0

-7.74644 -15.4913 0
12.8862 5.15299 0
0 0 0

-9.23101 -1.90705 0
9.0256 0.269164 0
0 0 0

-1.94705 -9.74156 0
11.466 3.99275 0
0 0 0

-2.00935 -14.577 0
9.49641 2.39503 0
0 0 0

14.2468 0.0272297 0
2.51734 -0.283968 0
0 0 0

33.88 -5.98277 0
-5.11638 -6.09215 0
0 0 0

SCALARS active double 1
LOOKUP_TABLE default
1
1
1
1
1
1
1
1
1
1
1
1
1
1
1
1
1
1
1
1
1
1
1
1
1
1
1
1
1
1
1
1
1
1
1
1
1
1
1
1
1
1
1
1
1
1
1
1
1
1
1
1
1
1
1
1
1
1
1
1
1
1
1
1
SCALARS extent double 1
LOOKUP_TABLE default
0.0125
0.0125
0.0125
0.0125
0.0125
0.0125
0.0125
0.0125
0.0125
0.0125
0.0125
0.0125
0.0125
0.0125
0.0125
0.0125
0.0125
0.0125
0.0125
0.0125
0.0125
0.0125
0.0125
0.0125
0.0125
0.0125
0.0125
0.0125
0.0125
0.0125
0.0125
0.0125
0.0125
0.0125
0.0125
0.0125
0.0125
0.0125
0.0125
0.0125
0.0125
0.0125
0.0125
0.0125
0.0125
0.0125
0.0125
0.0125
0.0125
0.0125
0.0125
0.0125
0.0125
0.0125
0.0125
0.0125
0.0125
0.0125
0.0125
0.0125
0.0125
0.0125
0.0125
0.0125
SCALARS pressure double 1
LOOKUP_TABLE default
1492.61
-71.4583
7205.25
3115.39
889.618
-714.071
1707.46
3285.1
2482.78
3127.84
1893.38
1152.4
712.293
853.574
1243.28
1847.82
1748.62
985.171
9198.98
8087.21
1521.32
2275.37
3900.34
6361.8
1498.77
4204.15
2199.16
-399.669
-2799.64
-1481.93
3526.44
-2605.15
9082.08
7561.48
8215.09
2300
-266.154
986.471
1306.57
6899.23
585.912
2174.43
2723.42
7598.99
-6.20817
-535.706
4926.26
8289.91
9223.87
3652.09
4267.44
4835.32
7003.63
4464.98
6240.6
4845.29
6059.61
-4819.45
2441.16
-3223.22
-1872.31
-11544.3
-1673.71
10611.1
SCALARS density double 1
LOOKUP_TABLE default
1015.64
999.257
1077.81
1032.93
1009.29
992.601
1017.92
1034.76
1026.16
1033.06
1019.89
1012.06
1007.44
1008.92
1013.01
1019.4
1018.35
1010.3
1100.4
1087.75
1015.95
1023.95
1041.4
1068.4
1015.71
1044.69
1023.13
995.852
971.304
984.706
1037.36
973.27
1099.06
1081.81
1089.19
1024.21
997.236
1010.31
1013.68
1074.39
1006.11
1022.87
1028.73
1082.24
999.935
994.444
1052.57
1090.04
1100.68
1038.71
1045.38
1051.57
1075.56
1047.53
1067.05
1051.68
1065.05
951.113
1025.71
967.034
980.716
886.866
982.744
1116.68
