# vtk DataFile Version 3.0
Frame: 60, Time: 0.984
ASCII
DATASET UNSTRUCTURED_GRID
POINTS 64 double
0.391144 0.337652 0 
0.416305 0.330113 0 
0.382828 0.31269 0 
0.408493 0.303934 0 
0.440466 0.321236 0 
0.465211 0.313025 0 
0.431799 0.295767 0 
0.456913 0.288437 0 
0.489748 0.306705 0 
0.51396 0.29707 0 
0.481947 0.281459 0 
0.505304 0.272839 0 
0.53885 0.291086 0 
0.56308 0.285027 0 
0.530274 0.26667 0 
0.553755 0.258613 0 
0.374371 0.288759 0 
0.399084 0.280126 0 
0.367937 0.265265 0 
0.39315 0.256356 0 
0.423926 0.272242 0 
0.448611 0.265479 0 
0.41784 0.247908 0 
0.440796 0.240727 0 
0.472943 0.257605 0 
0.495925 0.248443 0 
0.464787 0.232317 0 
0.487881 0.224186 0 
0.520589 0.240689 0 
0.546038 0.234201 0 
0.511281 0.21598 0 
0.5365 0.209136 0 
0.360083 0.241734 0 
0.384141 0.231145 0 
0.352947 0.218752 0 
0.374666 0.207027 0 
0.408713 0.224582 0 
0.432267 0.215463 0 
0.399053 0.19995 0 
0.421957 0.191306 0 
0.455731 0.20633 0 
0.479455 0.198816 0 
0.445535 0.182158 0 
0.469217 0.17421 0 
0.50339 0.190429 0 
0.529195 0.184373 0 
0.493515 0.16606 0 
0.519933 0.159841 0 
0.344362 0.197884 0 
0.366103 0.184908 0 
0.326685 0.178513 0 
0.352272 0.160116 0 
0.389289 0.177336 0 
0.414314 0.165836 0 
0.37865 0.152504 0 
0.404907 0.140755 0 
0.43821 0.157411 0 
0.462418 0.149991 0 
0.428175 0.132793 0 
0.453821 0.125949 0 
0.488424 0.14129 0 
0.513358 0.135655 0 
0.480248 0.117209 0 
0.504784 0.111314 0 
CELLS 64 128
1 0
1 1
1 2
1 3
1 4
1 5
1 6
1 7
1 8
1 9
1 10
1 11
1 12
1 13
1 14
1 15
1 16
1 17
1 18
1 19
1 20
1 21
1 22
1 23
1 24
1 25
1 26
1 27
1 28
1 29
1 30
1 31
1 32
1 33
1 34
1 35
1 36
1 37
1 38
1 39
1 40
1 41
1 42
1 43
1 44
1 45
1 46
1 47
1 48
1 49
1 50
1 51
1 52
1 53
1 54
1 55
1 56
1 57
1 58
1 59
1 60
1 61
1 62
1 63
CELL_TYPES 64
1
1
1
1
1
1
1
1
1
1
1
1
1
1
1
1
1
1
1
1
1
1
1
1
1
1
1
1
1
1
1
1
1
1
1
1
1
1
1
1
1
1
1
1
1
1
1
1
1
1
1
1
1
1
1
1
1
1
1
1
1
1
1
1
POINT_DATA 64
VECTORS displacement double
-0.121356 -0.274848 0 
-0.0961948 -0.307387 0 
-0.154672 -0.29981 0 
-0.129007 -0.333566 0 
-0.0720339 -0.341264 0 
-0.0472888 -0.374475 0 
-0.105701 -0.366733 0 
-0.0805872 -0.399063 0 
-0.0227518 -0.405795 0 
0.00145979 -0.44043 0 
-0.0555531 -0.431041 0 
-0.0321961 -0.464661 0 
0.0263504 -0.471414 0 
0.0505801 -0.502473 0 
-0.00722595 -0.49583 0 
0.0162552 -0.528887 0 
-0.188129 -0.323741 0 
-0.163416 -0.357374 0 
-0.219563 -0.347235 0 
-0.19435 -0.381144 0 
-0.138574 -0.390258 0 
-0.113889 -0.422021 0 
-0.16966 -0.414592 0 
-0.146704 -0.446773 0 
-0.0895573 -0.454895 0 
-0.0665746 -0.489057 0 
-0.122713 -0.480183 0 
-0.0996188 -0.513314 0 
-0.0419105 -0.521811 0 
-0.0164623 -0.553299 0 
-0.076219 -0.54652 0 
-0.0510003 -0.578364 0 
-0.252417 -0.370766 0 
-0.228359 -0.406355 0 
-0.284553 -0.393748 0 
-0.262834 -0.430473 0 
-0.203787 -0.437918 0 
-0.180233 -0.472037 0 
-0.238447 -0.46255 0 
-0.215543 -0.496194 0 
-0.156769 -0.50617 0 
-0.133045 -0.538684 0 
-0.191965 -0.530342 0 
-0.168283 -0.56329 0 
-0.10911 -0.572071 0 
-0.083305 -0.603127 0 
-0.143985 -0.59644 0 
-0.117567 -0.627659 0 
-0.318138 -0.414616 0 
-0.296397 -0.452592 0 
-0.360815 -0.433987 0 
-0.335228 -0.477384 0 
-0.273211 -0.485164 0 
-0.248186 -0.521664 0 
-0.30885 -0.509996 0 
-0.282593 -0.546745 0 
-0.22429 -0.555089 0 
-0.200082 -0.587509 0 
-0.259325 -0.579707 0 
-0.233679 -0.611551 0 
-0.174076 -0.62121 0 
-0.149142 -0.651845 0 
-0.207252 -0.645291 0 
-0.182716 -0.676186 0 
VECTORS velocity double
-0.0464065 1.21593 0 
-0.11619 1.49432 0 
0.390155 0.982673 0 
0.579457 1.40815 0 
0.491595 1.29876 0 
0.127551 1.24812 0 
0.115436 1.46284 0 
0.111659 1.45878 0 
0.0129988 1.62889 0 
0.218029 1.56924 0 
0.435909 1.65684 0 
0.247637 1.62029 0 
-0.0501635 1.77325 0 
0.157072 2.04711 0 
0.448071 1.75336 0 
0.355318 2.13258 0 
-0.151058 1.36449 0 
0.10385 1.1982 0 
0.0570591 1.03953 0 
-0.03921 1.42922 0 
-0.150459 1.33364 0 
0.0157283 1.25825 0 
0.0368168 1.37271 0 
0.0121886 1.42974 0 
0.332383 1.64735 0 
0.354752 1.74421 0 
0.312718 1.37509 0 
0.388 1.73193 0 
0.131797 1.54978 0 
0.349348 1.34622 0 
0.175551 1.63699 0 
0.0510798 1.60409 0 
0.351361 1.16734 0 
0.418451 1.00664 0 
0.0408087 0.949181 0 
-0.195287 0.915315 0 
0.73125 1.36248 0 
0.405062 1.53518 0 
-0.0244657 1.10046 0 
0.220442 1.52215 0 
0.408866 1.58495 0 
-0.0459183 1.71925 0 
0.017093 0.845048 0 
-0.533378 1.45735 0 
-0.0332615 1.20886 0 
0.245173 1.74736 0 
-0.0114713 1.39229 0 
-0.174901 1.74334 0 
0.427303 0.703761 0 
0.086837 0.859767 0 
-0.0249516 0.707161 0 
0.799082 0.888432 0 
-0.0258468 1.41291 0 
0.34866 1.39372 0 
0.449552 1.42497 0 
0.66876 0.856177 0 
0.505947 1.16516 0 
0.213888 1.33348 0 
0.652387 1.06771 0 
0.573974 1.15442 0 
0.53435 1.45029 0 
0.463313 1.83143 0 
0.325615 1.01811 0 
0.588267 1.72774 0 
SCALARS mass double 1
LOOKUP_TABLE default
0.625
0.625
0.625
0.625
0.625
0.625
0.625
0.625
0.625
0.625
0.625
0.625
0.625
0.625
0.625
0.625
0.625
0.625
0.625
0.625
0.625
0.625
0.625
0.625
0.625
0.625
0.625
0.625
0.625
0.625
0.625
0.625
0.625
0.625
0.625
0.625
0.625
0.625
0.625
0.625
0.625
0.625
0.625
0.625
0.625
0.625
0.625
0.625
0.625
0.625
0.625
0.625
0.625
0.625
0.625
0.625
0.625
0.625
0.625
0.625
0.625
0.625
0.625
0.625
SCALARS volume double 1
LOOKUP_TABLE default
0.00062175
0.000627871
0.000633854
0.000611374
0.000633094
0.000621521
0.000626414
0.000631388
0.000615007
0.000625544
0.000633342
0.000618602
0.0006303
0.000629373
0.000628781
0.000629907
0.000632304
0.000630322
0.000586333
0.000632714
0.000617776
0.000616324
0.000609267
0.00062079
0.000634227
0.000630855
0.000629645
0.000621491
0.000672471
0.000614514
0.000636702
0.00060476
0.000610391
0.000634668
0.000596092
0.00056545
0.000624103
0.000620026
0.000637379
0.00062346
0.000657395
0.000630499
0.000619903
0.000616625
0.000621165
0.000639051
0.000634771
0.000636599
0.000568512
0.000614206
0.000658174
0.000656145
0.000600173
0.000658016
0.000651342
0.000641708
0.000615313
0.000640786
0.000625779
0.000621468
0.000617472
0.00062758
0.000621796
0.00062442
VECTORS momentum double
-0.029004 0.759954 0 
-0.0726187 0.933948 0 
0.243847 0.61417 0 
0.362161 0.880094 0 
0.307247 0.811724 0 
0.0797192 0.780078 0 
0.0721475 0.914278 0 
0.069787 0.91174 0 
0.00812427 1.01806 0 
0.136268 0.980773 0 
0.272443 1.03553 0 
0.154773 1.01268 0 
-0.0313522 1.10828 0 
0.0981701 1.27944 0 
0.280044 1.09585 0 
0.222074 1.33286 0 
-0.0944115 0.852807 0 
0.0649062 0.748872 0 
0.035662 0.649708 0 
-0.0245063 0.893263 0 
-0.0940366 0.833527 0 
0.00983016 0.786407 0 
0.0230105 0.857941 0 
0.0076179 0.89359 0 
0.20774 1.0296 0 
0.22172 1.09013 0 
0.195449 0.859429 0 
0.2425 1.08246 0 
0.0823733 0.968615 0 
0.218342 0.841384 0 
0.109719 1.02312 0 
0.0319249 1.00256 0 
0.219601 0.729585 0 
0.261532 0.629152 0 
0.0255054 0.593238 0 
-0.122055 0.572072 0 
0.457031 0.851548 0 
0.253164 0.959488 0 
-0.015291 0.687789 0 
0.137776 0.951346 0 
0.255541 0.990594 0 
-0.0286989 1.07453 0 
0.0106832 0.528155 0 
-0.333361 0.910845 0 
-0.0207884 0.75554 0 
0.153233 1.0921 0 
-0.00716956 0.870182 0 
-0.109313 1.08959 0 
0.267064 0.43985 0 
0.0542731 0.537354 0 
-0.0155947 0.441976 0 
0.499426 0.55527 0 
-0.0161543 0.883068 0 
0.217912 0.871076 0 
0.28097 0.890609 0 
0.417975 0.53511 0 
0.316217 0.728225 0 
0.13368 0.833427 0 
0.407742 0.667317 0 
0.358734 0.721515 0 
0.333969 0.90643 0 
0.28957 1.14464 0 
0.20351 0.636319 0 
0.367667 1.07983 0 
VECTORS body_force double
0 -9.81 0 
0 -9.81 0 
0 -9.81 0 
0 -9.81 0 
0 -9.81 0 
0 -9.81 0 
0 -9.81 0 
0 -9.81 0 
0 -9.81 0 
0 -9.81 0 
0 -9.81 0 
0 -9.81 0 
0 -9.81 0 
0 -9.81 0 
0 -9.81 0 
0 -9.81 0 
0 -9.81 0 
0 -9.81 0 
0 -9.81 0 
0 -9.81 0 
0 -9.81 0 
0 -9.81 0 
0 -9.81 0 
0 -9.81 0 
0 -9.81 0 
0 -9.81 0 
0 -9.81 0 
0 -9.81 0 
0 -9.81 0 
0 -9.81 0 
0 -9.81 0 
0 -9.81 0 
0 -9.81 0 
0 -9.81 0 
0 -9.81 0 
0 -9.81 0 
0 -9.81 0 
0 -9.81 0 
0 -9.81 0 
0 -9.81 0 
0 -9.81 0 
0 -9.81 0 
0 -9.81 0 
0 -9.81 0 
0 -9.81 0 
0 -9.81 0 
0 -9.81 0 
0 -9.81 0 
0 -9.81 0 
0 -9.81 0 
0 -9.81 0 
0 -9.81 0 
0 -9.81 0 
0 -9.81 0 
0 -9.81 0 
0 -9.81 0 
0 -9.81 0 
0 -9.81 0 
0 -9.81 0 
0 -9.81 0 
0 -9.81 0 
0 -9.81 0 
0 -9.81 0 
0 -9.81 0 
TENSORS cauchy_stress double
-182.079 -264.198 0
-264.198 -820.676 0
0 0 0

1077.46 408.529 0
408.529 -196.206 0
0 0 0

1938.88 116.709 0
116.709 766.408 0
0 0 0

-2082.79 -901.315 0
-901.315 -2156.36 0
0 0 0

2503.14 -23.0037 0
-23.0037 -28.619 0
0 0 0

-448.424 352.42 0
352.42 -624.984 0
0 0 0

185.672 1257.69 0
1257.69 248.927 0
0 0 0

1853.43 -1372.77 0
-1372.77 102.258 0
0 0 0

-2173.69 -739.102 0
-739.102 -926.077 0
0 0 0

764.608 -2931.45 0
-2931.45 -597.277 0
0 0 0

862.972 59.0755 0
59.0755 1686.79 0
0 0 0

-2164.12 164.847 0
164.847 185.49 0
0 0 0

618.299 -890.829 0
-890.829 1005.72 0
0 0 0

611.217 -182.21 0
-182.21 729.584 0
0 0 0

-2997.03 1251.21 0
1251.21 4157.05 0
0 0 0

0.620636 9.3057 0
9.3057 1503.4 0
0 0 0

935.069 -1014.05 0
-1014.05 1299.21 0
0 0 0

2253.73 946.335 0
946.335 -623.063 0
0 0 0

-6019.98 -1187.84 0
-1187.84 -6261.63 0
0 0 0

1187.56 1248.06 0
1248.06 1171.39 0
0 0 0

-1019.48 -1843.97 0
-1843.97 -1216.26 0
0 0 0

-1591.48 -214.374 0
-214.374 -1096.89 0
0 0 0

-2865.43 -1857.47 0
-1857.47 -2037.49 0
0 0 0

-380.024 2542.43 0
2542.43 -919.857 0
0 0 0

-379.013 880.019 0
880.019 3197.41 0
0 0 0

230.326 722.189 0
722.189 1562.84 0
0 0 0

-384.394 3649.68 0
3649.68 1808.3 0
0 0 0

-1710.28 2781.58 0
2781.58 627.437 0
0 0 0

8464.44 1824.3 0
1824.3 5613.88 0
0 0 0

-4030.81 -49.9203 0
-49.9203 776.885 0
0 0 0

1246.47 4391.22 0
4391.22 2320.82 0
0 0 0

-1494.67 1957.4 0
1957.4 -4836.03 0
0 0 0

-395.205 1930.48 0
1930.48 -4153.23 0
0 0 0

1375.12 1687.63 0
1687.63 1576.86 0
0 0 0

-6044.63 -5347.75 0
-5347.75 -3062.51 0
0 0 0

-10680.5 1139.35 0
1139.35 -8575.27 0
0 0 0

1350.81 2075.33 0
2075.33 -1627.11 0
0 0 0

-2247.8 1252.53 0
1252.53 711.163 0
0 0 0

3363.42 2371.72 0
2371.72 408.363 0
0 0 0

-4342.16 5183.65 0
5183.65 3867.82 0
0 0 0

5701.95 1328.98 0
1328.98 4016.13 0
0 0 0

-4299.25 1294.76 0
1294.76 5983.84 0
0 0 0

-1785.6 1.01161 0
1.01161 210.961 0
0 0 0

-3090.04 -1495.65 0
-1495.65 495.612 0
0 0 0

-789.313 -4154.03 0
-4154.03 -394.348 0
0 0 0

4091.65 3730.3 0
3730.3 183.731 0
0 0 0

5834.59 6504.66 0
6504.66 -2851.53 0
0 0 0

3068.04 1228.82 0
1228.82 468.092 0
0 0 0

-11783.8 -5302.37 0
-5302.37 -6433.37 0
0 0 0

-741.148 4136.38 0
4136.38 -2609.18 0
0 0 0

1598.07 -5017.89 0
-5017.89 8347.56 0
0 0 0

11875.9 -2869.26 0
-2869.26 -2523.86 0
0 0 0

-4298.51 -1173.08 0
-1173.08 -3496.51 0
0 0 0

7626.71 762.042 0
762.042 2272.8 0
0 0 0

7753.79 243.721 0
243.721 185.16 0
0 0 0

2594.25 -1977.95 0
-1977.95 2479.08 0
0 0 0

-615.106 2077.23 0
2077.23 -2388.82 0
0 0 0

5368.22 -3664.99 0
-3664.99 -571.408 0
0 0 0

1636.85 1588.43 0
1588.43 -1397.42 0
0 0 0

-316.711 2588.18 0
2588.18 -773.091 0
0 0 0

-1462.34 1466.58 0
1466.58 -867.91 0
0 0 0

-1643.8 -1927.55 0
-1927.55 2435.91 0
0 0 0

-543.399 703.689 0
703.689 -444.958 0
0 0 0

492.644 2168.26 0
2168.26 -671.266 0
0 0 0

TENSORS velocity_gradient double
-0.73948 -1.65782 0
3.85339 -0.146974 0
0 0 0

1.58754 -1.44735 0
1.73567 0.122325 0
0 0 0

0.73066 -1.16569 0
2.43935 -0.62032 0
0 0 0

0.478031 -1.03973 0
2.13966 0.138891 0
0 0 0

1.18019 -0.345988 0
1.86721 -0.233317 0
0 0 0

0.11699 0.151124 0
3.75541 -0.0916863 0
0 0 0

0.295623 0.726561 0
2.30237 -0.652266 0
0 0 0

0.708583 0.45682 0
3.60369 -1.17433 0
0 0 0

0.122352 0.119344 0
3.64694 0.224806 0
0 0 0

-0.373221 -1.11443 0
5.01538 -0.545404 0
0 0 0

1.05326 -0.761318 0
3.64063 -1.30489 0
0 0 0

-0.222764 -1.65307 0
3.88609 -1.13245 0
0 0 0

-0.500387 -1.86434 0
4.75381 0.407807 0
0 0 0

0.107231 -2.26998 0
4.81672 0.48915 0
0 0 0

-0.365586 -1.81665 0
3.61389 0.00446193 0
0 0 0

0.560654 -2.04929 0
5.18542 0.703921 0
0 0 0

0.949876 -0.0911335 0
1.95864 0.449527 0
0 0 0

0.495153 0.712038 0
2.32835 0.0876956 0
0 0 0

0.0936962 -0.325904 0
2.27446 0.536127 0
0 0 0

-0.200004 0.430176 0
2.43301 0.353946 0
0 0 0

0.310363 0.81835 0
2.88324 -0.487652 0
0 0 0

0.885917 0.675227 0
3.30522 -1.05458 0
0 0 0

0.315561 -0.780248 0
3.42373 0.801982 0
0 0 0

0.293436 -1.15489 0
3.5272 0.865585 0
0 0 0

2.20327 -0.307019 0
3.76392 -1.22705 0
0 0 0

1.68584 1.6655 0
3.57043 0.595823 0
0 0 0

0.883562 0.123013 0
3.63027 0.882891 0
0 0 0

0.187124 2.08287 0
3.55897 1.08352 0
0 0 0

-0.143316 2.8683 0
2.01016 2.86809 0
0 0 0

1.13386 2.19272 0
1.72271 5.05818 0
0 0 0

0.170054 2.98578 0
-0.0207234 2.10678 0
0 0 0

0.256734 2.66485 0
-0.582481 4.18662 0
0 0 0

-0.221247 -0.478568 0
3.20654 4.50652 0
0 0 0

0.00251089 -0.984488 0
4.04689 2.60647 0
0 0 0

0.786689 -0.538264 0
4.97255 5.20894 0
0 0 0

0.499323 -0.886394 0
5.92333 3.25734 0
0 0 0

0.227847 -1.28635 0
3.71465 1.2413 0
0 0 0

0.190171 -1.18993 0
3.82233 0.965751 0
0 0 0

0.249037 -3.04863 0
5.07944 0.910254 0
0 0 0

-0.380403 -3.14855 0
3.34453 1.88028 0
0 0 0

-1.19001 -0.727791 0
3.46723 1.0922 0
0 0 0

-1.64131 -0.541753 0
3.5866 1.95707 0
0 0 0

-0.993683 -1.96629 0
2.93802 3.3136 0
0 0 0

-2.09585 -1.44134 0
4.63239 2.815 0
0 0 0

-0.476124 -0.882242 0
1.00629 0.878624 0
0 0 0

-0.245397 -0.0168418 0
0.815664 -2.04789 0
0 0 0

-2.20596 -1.11642 0
5.01764 1.67816 0
0 0 0

-1.09902 -0.339262 0
3.69998 -0.95846 0
0 0 0

1.17539 -3.97686 0
7.08519 -0.265074 0
0 0 0

0.0955838 -5.40427 0
5.56089 -1.32766 0
0 0 0

3.53594 -2.60453 0
6.19042 -3.75233 0
0 0 0

1.68018 -5.48784 0
4.49048 -2.09803 0
0 0 0

-0.16119 -4.63254 0
5.15334 -0.102771 0
0 0 0

-1.68662 -3.54622 0
1.70675 1.38167 0
0 0 0

-1.08339 -5.3865 0
3.48917 -1.22499 0
0 0 0

-2.34839 -4.48884 0
0.850888 2.06724 0
0 0 0

-2.11864 -2.32937 0
1.16488 2.92021 0
0 0 0

-2.19154 -3.61337 0
5.76778 2.38303 0
0 0 0

-2.44404 -4.41649 0
0.664757 2.36594 0
0 0 0

-1.50159 -4.63467 0
5.51039 2.24179 0
0 0 0

-1.92812 -6.18486 0
6.19594 0.613497 0
0 0 0

-0.945052 -7.09801 0
4.71238 -0.00348076 0
0 0 0

-0.811243 -5.79722 0
7.37427 1.02247 0
0 0 0

-0.311606 -6.8379 0
5.21972 0.0646808 0
0 0 0

SCALARS active double 1
LOOKUP_TABLE default
1
1
1
1
1
1
1
1
1
1
1
1
1
1
1
1
1
1
1
1
1
1
1
1
1
1
1
1
1
1
1
1
1
1
1
1
1
1
1
1
1
1
1
1
1
1
1
1
1
1
1
1
1
1
1
1
1
1
1
1
1
1
1
1
SCALARS extent double 1
LOOKUP_TABLE default
0.0125
0.0125
0.0125
0.0125
0.0125
0.0125
0.0125
0.0125
0.0125
0.0125
0.0125
0.0125
0.0125
0.0125
0.0125
0.0125
0.0125
0.0125
0.0125
0.0125
0.0125
0.0125
0.0125
0.0125
0.0125
0.0125
0.0125
0.0125
0.0125
0.0125
0.0125
0.0125
0.0125
0.0125
0.0125
0.0125
0.0125
0.0125
0.0125
0.0125
0.0125
0.0125
0.0125
0.0125
0.0125
0.0125
0.0125
0.0125
0.0125
0.0125
0.0125
0.0125
0.0125
0.0125
0.0125
0.0125
0.0125
0.0125
0.0125
0.0125
0.0125
0.0125
0.0125
0.0125
SCALARS pressure double 1
LOOKUP_TABLE default
501.377
-440.626
-1352.64
2119.58
-1237.26
536.704
-217.3
-977.843
1549.88
-83.6654
-1274.88
989.314
-812.009
-670.4
-580.011
-752.012
-1117.14
-815.334
6140.81
-1179.47
1117.87
1344.19
2451.46
649.941
-1409.2
-896.582
-711.955
541.423
-7039.16
1626.96
-1783.64
3165.35
2274.22
-1475.99
4553.57
9627.89
138.15
768.32
-1885.89
237.17
-4859.04
-842.294
787.32
1297.21
591.831
-2137.69
-1491.53
-1768.07
9108.6
1675.16
-4972.82
-4676.02
3897.51
-4949.75
-3969.48
-2536.67
1501.96
-2398.4
-119.712
544.901
1165.12
-396.056
494.178
89.3111
SCALARS density double 1
LOOKUP_TABLE default
1005.23
995.428
986.031
1022.29
987.215
1005.6
997.743
989.882
1016.25
999.13
986.829
1010.34
991.591
993.052
993.986
992.21
988.449
991.556
1065.95
987.808
1011.69
1014.08
1025.82
1006.78
985.451
990.719
992.623
1005.65
929.408
1017.06
981.621
1033.47
1023.93
984.767
1048.5
1105.31
1001.44
1008.02
980.578
1002.47
950.722
991.278
1008.22
1013.58
1006.17
978.013
984.608
981.78
1099.36
1017.57
949.597
952.533
1041.37
949.825
959.558
973.964
1015.74
975.365
998.756
1005.68
1012.19
995.889
1005.15
1000.93
