# vtk DataFile Version 3.0
Frame: 59, Time: 0.986
ASCII
DATASET UNSTRUCTURED_GRID
POINTS 64 double
0.391372 0.340203 0 
0.416576 0.33276 0 
0.383103 0.315217 0 
0.408813 0.306548 0 
0.440796 0.323946 0 
0.46557 0.31586 0 
0.432133 0.298462 0 
0.457255 0.29125 0 
0.490117 0.30969 0 
0.514334 0.300274 0 
0.482326 0.284444 0 
0.50573 0.276005 0 
0.539197 0.294542 0 
0.563429 0.288703 0 
0.53069 0.270027 0 
0.55418 0.262139 0 
0.374644 0.291279 0 
0.399383 0.282708 0 
0.368218 0.267748 0 
0.39342 0.258912 0 
0.424224 0.274929 0 
0.448913 0.268295 0 
0.418117 0.250573 0 
0.441095 0.243517 0 
0.473313 0.260594 0 
0.496376 0.251599 0 
0.465143 0.235255 0 
0.488251 0.227277 0 
0.52102 0.243954 0 
0.546427 0.237514 0 
0.511603 0.219145 0 
0.536769 0.212254 0 
0.360398 0.244097 0 
0.384469 0.233562 0 
0.35329 0.2208 0 
0.375055 0.209191 0 
0.409065 0.227145 0 
0.43266 0.218164 0 
0.399507 0.202367 0 
0.42246 0.193876 0 
0.456146 0.209185 0 
0.479804 0.201813 0 
0.446055 0.184824 0 
0.469675 0.177007 0 
0.503667 0.193534 0 
0.529454 0.187493 0 
0.493894 0.169032 0 
0.520261 0.162976 0 
0.344765 0.199598 0 
0.36667 0.186928 0 
0.327157 0.179973 0 
0.353132 0.16204 0 
0.389934 0.179627 0 
0.415005 0.168282 0 
0.379565 0.154699 0 
0.405827 0.143109 0 
0.438856 0.159894 0 
0.463001 0.152586 0 
0.429044 0.135147 0 
0.454643 0.12835 0 
0.488974 0.14413 0 
0.513912 0.13874 0 
0.481102 0.119906 0 
0.505676 0.114311 0 
CELLS 64 128
1 0
1 1
1 2
1 3
1 4
1 5
1 6
1 7
1 8
1 9
1 10
1 11
1 12
1 13
1 14
1 15
1 16
1 17
1 18
1 19
1 20
1 21
1 22
1 23
1 24
1 25
1 26
1 27
1 28
1 29
1 30
1 31
1 32
1 33
1 34
1 35
1 36
1 37
1 38
1 39
1 40
1 41
1 42
1 43
1 44
1 45
1 46
1 47
1 48
1 49
1 50
1 51
1 52
1 53
1 54
1 55
1 56
1 57
1 58
1 59
1 60
1 61
1 62
1 63
CELL_TYPES 64
1
1
1
1
1
1
1
1
1
1
1
1
1
1
1
1
1
1
1
1
1
1
1
1
1
1
1
1
1
1
1
1
1
1
1
1
1
1
1
1
1
1
1
1
1
1
1
1
1
1
1
1
1
1
1
1
1
1
1
1
1
1
1
1
POINT_DATA 64
VECTORS displacement double
-0.121128 -0.272297 0 
-0.0959238 -0.30474 0 
-0.154397 -0.297283 0 
-0.128687 -0.330952 0 
-0.0717038 -0.338554 0 
-0.0469303 -0.37164 0 
-0.105367 -0.364038 0 
-0.0802454 -0.39625 0 
-0.0223829 -0.40281 0 
0.00183378 -0.437226 0 
-0.0551742 -0.428056 0 
-0.0317701 -0.461495 0 
0.0266974 -0.467958 0 
0.0509295 -0.498797 0 
-0.00681003 -0.492473 0 
0.0166802 -0.525361 0 
-0.187856 -0.321221 0 
-0.163117 -0.354792 0 
-0.219282 -0.344752 0 
-0.19408 -0.378588 0 
-0.138276 -0.387571 0 
-0.113587 -0.419205 0 
-0.169383 -0.411927 0 
-0.146405 -0.443983 0 
-0.0891866 -0.451906 0 
-0.0661238 -0.485901 0 
-0.122357 -0.477245 0 
-0.0992491 -0.510223 0 
-0.0414802 -0.518546 0 
-0.0160731 -0.549986 0 
-0.0758975 -0.543355 0 
-0.0507306 -0.575246 0 
-0.252102 -0.368403 0 
-0.228031 -0.403938 0 
-0.28421 -0.3917 0 
-0.262445 -0.428309 0 
-0.203435 -0.435355 0 
-0.17984 -0.469336 0 
-0.237993 -0.460133 0 
-0.21504 -0.493624 0 
-0.156354 -0.503315 0 
-0.132696 -0.535687 0 
-0.191445 -0.527676 0 
-0.167825 -0.560493 0 
-0.108833 -0.568966 0 
-0.0830462 -0.600007 0 
-0.143606 -0.593468 0 
-0.117239 -0.624524 0 
-0.317735 -0.412902 0 
-0.29583 -0.450572 0 
-0.360343 -0.432527 0 
-0.334368 -0.47546 0 
-0.272566 -0.482873 0 
-0.247495 -0.519218 0 
-0.307935 -0.507801 0 
-0.281673 -0.544391 0 
-0.223644 -0.552606 0 
-0.199499 -0.584914 0 
-0.258456 -0.577353 0 
-0.232857 -0.60915 0 
-0.173526 -0.61837 0 
-0.148588 -0.64876 0 
-0.206398 -0.642594 0 
-0.181824 -0.673189 0 
VECTORS velocity double
-0.00886395 1.23533 0 
-0.124504 1.50667 0 
0.418846 1.00124 0 
0.568396 1.39867 0 
0.456275 1.28588 0 
0.128746 1.21219 0 
0.108918 1.43226 0 
0.10397 1.40547 0 
0.0303433 1.55535 0 
0.224726 1.47995 0 
0.407191 1.57618 0 
0.202921 1.53266 0 
-0.0480259 1.69461 0 
0.141072 1.99144 0 
0.394863 1.69522 0 
0.29141 2.10778 0 
-0.125621 1.41479 0 
0.0827761 1.2012 0 
0.0554028 1.13442 0 
-0.0719664 1.45356 0 
-0.179539 1.31427 0 
-0.0220112 1.22245 0 
0.000778052 1.3633 0 
-0.0217756 1.40764 0 
0.277795 1.59364 0 
0.298776 1.68628 0 
0.298287 1.35193 0 
0.39805 1.72818 0 
0.0677818 1.50776 0 
0.278518 1.2997 0 
0.186751 1.63508 0 
0.0144713 1.53695 0 
0.333391 1.29057 0 
0.416633 1.04344 0 
0.0362688 1.01906 0 
-0.164204 0.934157 0 
0.746722 1.35488 0 
0.439608 1.52114 0 
0.0356604 1.09246 0 
0.284452 1.51431 0 
0.467805 1.57912 0 
0.0244039 1.74815 0 
0.0645065 0.846433 0 
-0.497116 1.46546 0 
0.0283923 1.24103 0 
0.247107 1.69553 0 
0.0140379 1.38391 0 
-0.166576 1.69234 0 
0.442961 0.663966 0 
0.127172 0.860503 0 
0.0144039 0.531938 0 
0.865185 0.857426 0 
0.0203703 1.40821 0 
0.376186 1.39792 0 
0.501444 1.41665 0 
0.668925 0.898834 0 
0.512518 1.18152 0 
0.212696 1.33754 0 
0.649726 1.10813 0 
0.587185 1.15147 0 
0.536619 1.41455 0 
0.472094 1.77288 0 
0.355531 0.988072 0 
0.623009 1.6814 0 
SCALARS mass double 1
LOOKUP_TABLE default
0.625
0.625
0.625
0.625
0.625
0.625
0.625
0.625
0.625
0.625
0.625
0.625
0.625
0.625
0.625
0.625
0.625
0.625
0.625
0.625
0.625
0.625
0.625
0.625
0.625
0.625
0.625
0.625
0.625
0.625
0.625
0.625
0.625
0.625
0.625
0.625
0.625
0.625
0.625
0.625
0.625
0.625
0.625
0.625
0.625
0.625
0.625
0.625
0.625
0.625
0.625
0.625
0.625
0.625
0.625
0.625
0.625
0.625
0.625
0.625
0.625
0.625
0.625
0.625
SCALARS volume double 1
LOOKUP_TABLE default
0.000620376
0.000629436
0.00063354
0.000612078
0.000633909
0.000621806
0.000626069
0.000630755
0.000615548
0.000624982
0.000632739
0.000616603
0.000630669
0.000630437
0.000628421
0.000632279
0.000633805
0.000630831
0.000586819
0.000632439
0.00061742
0.00061603
0.000610093
0.000621711
0.000635047
0.000632234
0.000631168
0.000622144
0.000674472
0.00062045
0.000637874
0.00060824
0.000616391
0.000638283
0.000604506
0.000570468
0.000625833
0.000621151
0.000639292
0.000625451
0.000656048
0.000630085
0.000622609
0.000617525
0.000621719
0.000636329
0.000634619
0.000634621
0.000571863
0.000613265
0.00065805
0.000655715
0.000600069
0.00065766
0.000648395
0.000640299
0.000616127
0.00064146
0.000625357
0.000622523
0.000616109
0.0006265
0.000622091
0.000624096
VECTORS momentum double
-0.00553997 0.772079 0 
-0.0778152 0.94167 0 
0.261779 0.625774 0 
0.355247 0.874167 0 
0.285172 0.803675 0 
0.0804661 0.757622 0 
0.0680737 0.895165 0 
0.0649815 0.878417 0 
0.0189646 0.972093 0 
0.140454 0.924968 0 
0.254494 0.98511 0 
0.126826 0.957911 0 
-0.0300162 1.05913 0 
0.0881699 1.24465 0 
0.246789 1.05951 0 
0.182131 1.31736 0 
-0.0785132 0.884243 0 
0.051735 0.750752 0 
0.0346267 0.709014 0 
-0.044979 0.908475 0 
-0.112212 0.821421 0 
-0.013757 0.76403 0 
0.000486282 0.852062 0 
-0.0136097 0.879773 0 
0.173622 0.996026 0 
0.186735 1.05393 0 
0.18643 0.844959 0 
0.248781 1.08011 0 
0.0423636 0.942351 0 
0.174074 0.812311 0 
0.11672 1.02193 0 
0.00904458 0.960591 0 
0.208369 0.806605 0 
0.260396 0.652153 0 
0.022668 0.63691 0 
-0.102627 0.583848 0 
0.466701 0.846802 0 
0.274755 0.950713 0 
0.0222877 0.682787 0 
0.177782 0.946445 0 
0.292378 0.986947 0 
0.0152524 1.09259 0 
0.0403166 0.529021 0 
-0.310698 0.915915 0 
0.0177452 0.775641 0 
0.154442 1.05971 0 
0.00877372 0.864942 0 
-0.10411 1.05771 0 
0.27685 0.414979 0 
0.0794822 0.537815 0 
0.00900246 0.332462 0 
0.540741 0.535891 0 
0.0127314 0.88013 0 
0.235116 0.873702 0 
0.313403 0.885409 0 
0.418078 0.561771 0 
0.320324 0.738448 0 
0.132935 0.83596 0 
0.406079 0.69258 0 
0.366991 0.719667 0 
0.335387 0.884095 0 
0.295059 1.10805 0 
0.222207 0.617545 0 
0.389381 1.05087 0 
VECTORS body_force double
0 -9.81 0 
0 -9.81 0 
0 -9.81 0 
0 -9.81 0 
0 -9.81 0 
0 -9.81 0 
0 -9.81 0 
0 -9.81 0 
0 -9.81 0 
0 -9.81 0 
0 -9.81 0 
0 -9.81 0 
0 -9.81 0 
0 -9.81 0 
0 -9.81 0 
0 -9.81 0 
0 -9.81 0 
0 -9.81 0 
0 -9.81 0 
0 -9.81 0 
0 -9.81 0 
0 -9.81 0 
0 -9.81 0 
0 -9.81 0 
0 -9.81 0 
0 -9.81 0 
0 -9.81 0 
0 -9.81 0 
0 -9.81 0 
0 -9.81 0 
0 -9.81 0 
0 -9.81 0 
0 -9.81 0 
0 -9.81 0 
0 -9.81 0 
0 -9.81 0 
0 -9.81 0 
0 -9.81 0 
0 -9.81 0 
0 -9.81 0 
0 -9.81 0 
0 -9.81 0 
0 -9.81 0 
0 -9.81 0 
0 -9.81 0 
0 -9.81 0 
0 -9.81 0 
0 -9.81 0 
0 -9.81 0 
0 -9.81 0 
0 -9.81 0 
0 -9.81 0 
0 -9.81 0 
0 -9.81 0 
0 -9.81 0 
0 -9.81 0 
0 -9.81 0 
0 -9.81 0 
0 -9.81 0 
0 -9.81 0 
0 -9.81 0 
0 -9.81 0 
0 -9.81 0 
0 -9.81 0 
TENSORS cauchy_stress double
-452.217 -71.0678 0
-71.0678 -975.92 0
0 0 0

1384.74 421.578 0
421.578 -24.4879 0
0 0 0

1979.87 221.093 0
221.093 629.966 0
0 0 0

-1958.08 -856.627 0
-856.627 -2059.68 0
0 0 0

2703.69 54.7478 0
54.7478 18.2335 0
0 0 0

-370.993 600.62 0
600.62 -614.195 0
0 0 0

185.625 1430.83 0
1430.83 142.972 0
0 0 0

1892.49 -1093.93 0
-1093.93 -129.917 0
0 0 0

-2081.93 -469.761 0
-469.761 -848.439 0
0 0 0

722.382 -2508.05 0
-2508.05 -727.884 0
0 0 0

943.45 253.684 0
253.684 1423.02 0
0 0 0

-2417.11 350.872 0
350.872 -184.197 0
0 0 0

587.377 -602.006 0
-602.006 1148.95 0
0 0 0

703.655 55.3196 0
55.3196 961.945 0
0 0 0

-3127.41 1393.8 0
1393.8 4177.06 0
0 0 0

327.3 305.983 0
305.983 1899.35 0
0 0 0

1200.25 -933.926 0
-933.926 1489.94 0
0 0 0

2354.34 1125.41 0
1125.41 -568.579 0
0 0 0

-5972.84 -1102.45 0
-1102.45 -6149.33 0
0 0 0

1105.3 1411.57 0
1411.57 1170.05 0
0 0 0

-1021.19 -1609.08 0
-1609.08 -1325.23 0
0 0 0

-1507.44 51.0811 0
51.0811 -1272.7 0
0 0 0

-2750.79 -1714.34 0
-1714.34 -1891.61 0
0 0 0

-296.545 2621.28 0
2621.28 -718.164 0
0 0 0

-17.2805 1114.8 0
1114.8 3084.06 0
0 0 0

567.459 1019.69 0
1019.69 1645.62 0
0 0 0

-154.961 3858.99 0
3858.99 2043.47 0
0 0 0

-1650.39 3150.14 0
3150.14 769.702 0
0 0 0

8552.91 2145.66 0
2145.66 6096.93 0
0 0 0

-3364.56 232.244 0
232.244 1959.52 0
0 0 0

1310.98 4576.65 0
4576.65 2609.86 0
0 0 0

-1209.69 2079.99 0
2079.99 -4017.66 0
0 0 0

94.9335 2063.45 0
2063.45 -2762.12 0
0 0 0

1668.54 1836.11 0
1836.11 2375.73 0
0 0 0

-5053.66 -5048.7 0
-5048.7 -1357.83 0
0 0 0

-10104 1474.3 0
1474.3 -7452.72 0
0 0 0

1510.89 2191.35 0
2191.35 -1254.69 0
0 0 0

-2135.1 1352.05 0
1352.05 947.27 0
0 0 0

3542.96 2545.35 0
2545.35 804.917 0
0 0 0

-4272.39 5138.52 0
5138.52 4411.18 0
0 0 0

5347.88 1493.46 0
1493.46 3975.78 0
0 0 0

-4635.48 1482.28 0
1482.28 6193.73 0
0 0 0

-1691.33 69.6815 0
69.6815 954.343 0
0 0 0

-3318.54 -1310.9 0
-1310.9 1004.56 0
0 0 0

-852.615 -4222.38 0
-4222.38 -159.509 0
0 0 0

3741.38 3688.9 0
3688.9 -286.812 0
0 0 0

5409.47 6786.76 0
6786.76 -2472.18 0
0 0 0

2710.53 1394.34 0
1394.34 227.204 0
0 0 0

-11074.1 -4964.11 0
-4964.11 -6012.86 0
0 0 0

-911.634 4157.98 0
4157.98 -2733.61 0
0 0 0

2295.17 -4699.57 0
-4699.57 7614.27 0
0 0 0

12096.1 -2767.32 0
-2767.32 -2870.13 0
0 0 0

-4320.17 -1127.13 0
-1127.13 -3508.07 0
0 0 0

7321.64 650.992 0
650.992 2473.8 0
0 0 0

7273.33 237.361 0
237.361 -206.452 0
0 0 0

2109.29 -2196.13 0
-2196.13 2541.27 0
0 0 0

-891.449 2008.01 0
2008.01 -1858.25 0
0 0 0

5173.92 -3460.03 0
-3460.03 -174.862 0
0 0 0

1226.78 1323.29 0
1323.29 -1116.87 0
0 0 0

-483.781 2630.24 0
2630.24 -279.998 0
0 0 0

-1906.11 1419.82 0
1419.82 -849.188 0
0 0 0

-1849.7 -2149.83 0
-2149.83 2310.69 0
0 0 0

-667.116 772.989 0
772.989 -230.004 0
0 0 0

342.988 2049.68 0
2049.68 -621.484 0
0 0 0

TENSORS velocity_gradient double
-1.00247 -0.887626 0
3.44596 -0.16828 0
0 0 0

0.89397 -0.98633 0
1.06045 0.191525 0
0 0 0

0.364428 -0.434015 0
1.76045 -0.727628 0
0 0 0

0.299558 -1.01068 0
1.43117 0.267212 0
0 0 0

0.689635 -0.427166 0
1.18438 -0.147607 0
0 0 0

0.392654 0.0747364 0
2.86984 -0.11634 0
0 0 0

0.20036 0.409224 0
1.57351 -0.448237 0
0 0 0

0.539797 0.525292 0
2.84387 -1.07153 0
0 0 0

0.276946 0.529826 0
2.80397 0.142734 0
0 0 0

-0.056123 0.519846 0
5.2967 -0.274134 0
0 0 0

0.821548 -0.499672 0
2.92979 -1.3841 0
0 0 0

-0.485491 -1.18333 0
3.83377 -1.22656 0
0 0 0

-0.487295 -1.01757 0
5.05687 0.884502 0
0 0 0

-0.116258 -1.54916 0
4.78307 1.00168 0
0 0 0

-0.620602 -1.06409 0
3.49527 0.339519 0
0 0 0

0.750843 -1.19205 0
5.40992 1.28745 0
0 0 0

0.769081 -0.165799 0
0.940253 0.377448 0
0 0 0

0.321142 0.627233 0
1.41635 0.0532747 0
0 0 0

-0.0752834 -0.396733 0
1.22529 0.455405 0
0 0 0

-0.393656 0.508467 0
1.33276 0.149832 0
0 0 0

0.132751 0.781195 0
2.05656 -0.437927 0
0 0 0

0.667668 0.707729 0
2.57168 -0.935696 0
0 0 0

0.107004 -0.85784 0
2.56902 0.425992 0
0 0 0

0.105422 -2.14665 0
2.71918 0.516648 0
0 0 0

1.79741 -0.131152 0
3.22738 -1.27172 0
0 0 0

1.29523 0.376166 0
3.11401 -0.582207 0
0 0 0

0.74956 -0.838992 0
3.3772 0.291772 0
0 0 0

0.0435173 1.18579 0
3.39516 0.240253 0
0 0 0

-0.691505 2.15261 0
1.76553 1.727 0
0 0 0

0.585188 1.70032 0
1.82973 3.69976 0
0 0 0

-0.597235 2.18827 0
-0.0354102 1.04568 0
0 0 0

-0.571087 2.09236 0
-0.534953 2.87785 0
0 0 0

-0.459777 -0.963013 0
2.15993 5.49882 0
0 0 0

-0.150603 -1.66789 0
3.25256 3.00776 0
0 0 0

0.785226 -0.92289 0
4.94126 6.49961 0
0 0 0

0.559504 -1.39114 0
5.7621 3.98582 0
0 0 0

0.11296 -2.13179 0
3.06328 1.19489 0
0 0 0

0.117153 -2.14272 0
3.25466 0.696201 0
0 0 0

0.305193 -3.00528 0
4.91121 1.28077 0
0 0 0

-0.292785 -3.1597 0
3.20496 1.89871 0
0 0 0

-1.49038 -1.61681 0
3.43553 0.314914 0
0 0 0

-1.91641 -0.56129 0
3.5317 1.34951 0
0 0 0

-1.02763 -1.89041 0
2.90716 3.10368 0
0 0 0

-2.14404 -1.64726 0
4.16337 2.85307 0
0 0 0

-0.979633 -1.66101 0
0.482723 1.45179 0
0 0 0

-0.726636 -1.32376 0
0.270505 -1.33951 0
0 0 0

-2.12142 -1.71536 0
4.3982 2.14616 0
0 0 0

-1.06892 -1.45266 0
3.03178 -0.299599 0
0 0 0

1.6057 -4.05232 0
10.0897 2.03416 0
0 0 0

0.103513 -6.06689 0
6.02543 -0.690374 0
0 0 0

3.9764 -3.48536 0
9.11516 -3.97276 0
0 0 0

1.09245 -6.39207 0
5.59363 -1.37877 0
0 0 0

-0.262815 -4.92321 0
5.72133 0.259039 0
0 0 0

-1.73207 -3.58525 0
1.80808 1.48571 0
0 0 0

-1.52031 -5.27885 0
4.52276 -0.711964 0
0 0 0

-2.46196 -3.32066 0
0.805514 1.0945 0
0 0 0

-2.20604 -2.23945 0
1.34807 2.79185 0
0 0 0

-1.98777 -2.95068 0
4.91188 2.61204 0
0 0 0

-2.26384 -3.89903 0
0.385816 1.86905 0
0 0 0

-1.34063 -4.64585 0
5.00867 2.25418 0
0 0 0

-1.79341 -5.95314 0
5.23855 0.774463 0
0 0 0

-0.970881 -6.66005 0
4.40558 0.170104 0
0 0 0

-0.869147 -5.64612 0
6.32915 1.13673 0
0 0 0

-0.494056 -6.48169 0
4.73841 0.247532 0
0 0 0

SCALARS active double 1
LOOKUP_TABLE default
1
1
1
1
1
1
1
1
1
1
1
1
1
1
1
1
1
1
1
1
1
1
1
1
1
1
1
1
1
1
1
1
1
1
1
1
1
1
1
1
1
1
1
1
1
1
1
1
1
1
1
1
1
1
1
1
1
1
1
1
1
1
1
1
SCALARS extent double 1
LOOKUP_TABLE default
0.0125
0.0125
0.0125
0.0125
0.0125
0.0125
0.0125
0.0125
0.0125
0.0125
0.0125
0.0125
0.0125
0.0125
0.0125
0.0125
0.0125
0.0125
0.0125
0.0125
0.0125
0.0125
0.0125
0.0125
0.0125
0.0125
0.0125
0.0125
0.0125
0.0125
0.0125
0.0125
0.0125
0.0125
0.0125
0.0125
0.0125
0.0125
0.0125
0.0125
0.0125
0.0125
0.0125
0.0125
0.0125
0.0125
0.0125
0.0125
0.0125
0.0125
0.0125
0.0125
0.0125
0.0125
0.0125
0.0125
0.0125
0.0125
0.0125
0.0125
0.0125
0.0125
0.0125
0.0125
SCALARS pressure double 1
LOOKUP_TABLE default
714.068
-680.125
-1304.92
2008.88
-1360.96
492.594
-164.299
-881.287
1465.18
2.75069
-1183.24
1300.65
-868.165
-832.8
-524.822
-1113.33
-1345.1
-892.882
6061.09
-1137.67
1173.21
1390.07
2321.2
507.355
-1533.39
-1106.54
-944.254
440.345
-7324.92
702.522
-1960.42
2613.67
1333.59
-2022.14
3205.74
8778.37
-128.102
593.916
-2173.94
-69.3926
-4661.83
-779.125
368.494
1156.99
506.062
-1727.28
-1468.65
-1468.87
8543.47
1822.62
-4954.72
-4613
3914.12
-4897.72
-3533.44
-2325.28
1374.85
-2499.53
-54.9521
381.889
1377.65
-230.494
448.56
139.248
SCALARS density double 1
LOOKUP_TABLE default
1007.45
992.952
986.521
1021.11
985.946
1005.14
998.293
990.876
1015.35
1000.03
987.77
1013.62
991.012
991.376
994.557
988.488
986.108
990.757
1065.06
988.238
1012.28
1014.56
1024.43
1005.29
984.179
988.558
990.228
1004.59
926.65
1007.33
979.818
1027.56
1013.97
979.189
1033.9
1095.59
998.669
1006.2
977.645
999.279
952.673
991.93
1003.84
1012.11
1005.28
982.197
984.842
984.84
1092.92
1019.14
949.776
953.157
1041.55
950.339
963.919
976.107
1014.4
974.34
999.429
1003.98
1014.43
997.606
1004.68
1001.45
