# vtk DataFile Version 3.0
Frame: 26, Time: 0.45
ASCII
DATASET UNSTRUCTURED_GRID
POINTS 64 double
0.264347 0.121228 0 
0.269012 0.145176 0 
0.288923 0.117273 0 
0.293734 0.141369 0 
0.270814 0.168762 0 
0.275256 0.193067 0 
0.295906 0.16483 0 
0.299715 0.189168 0 
0.275514 0.217461 0 
0.275966 0.242325 0 
0.301138 0.214787 0 
0.300457 0.239433 0 
0.279783 0.268688 0 
0.280917 0.293066 0 
0.304404 0.265684 0 
0.304583 0.289409 0 
0.315708 0.114898 0 
0.318524 0.139268 0 
0.340419 0.11128 0 
0.341888 0.135658 0 
0.320109 0.163648 0 
0.323161 0.189153 0 
0.343749 0.160104 0 
0.346242 0.185733 0 
0.32533 0.215839 0 
0.324605 0.239592 0 
0.350151 0.213565 0 
0.351193 0.237921 0 
0.328624 0.264657 0 
0.329668 0.291033 0 
0.355139 0.263513 0 
0.354949 0.288906 0 
0.366443 0.10707 0 
0.366055 0.132837 0 
0.393099 0.105564 0 
0.39108 0.130897 0 
0.367784 0.157701 0 
0.369106 0.182577 0 
0.393311 0.155404 0 
0.394021 0.179999 0 
0.37311 0.208809 0 
0.375502 0.234002 0 
0.396905 0.205208 0 
0.399602 0.229814 0 
0.380064 0.261137 0 
0.381638 0.285099 0 
0.404834 0.255514 0 
0.408962 0.279888 0 
0.416926 0.10249 0 
0.413966 0.12885 0 
0.44138 0.100321 0 
0.438887 0.126297 0 
0.418185 0.15278 0 
0.418695 0.177009 0 
0.445103 0.149166 0 
0.444608 0.175088 0 
0.420208 0.201017 0 
0.424159 0.225445 0 
0.445159 0.199771 0 
0.450493 0.222066 0 
0.428749 0.25117 0 
0.433567 0.275225 0 
0.45359 0.247105 0 
0.459806 0.271367 0 
CELLS 64 128
1 0
1 1
1 2
1 3
1 4
1 5
1 6
1 7
1 8
1 9
1 10
1 11
1 12
1 13
1 14
1 15
1 16
1 17
1 18
1 19
1 20
1 21
1 22
1 23
1 24
1 25
1 26
1 27
1 28
1 29
1 30
1 31
1 32
1 33
1 34
1 35
1 36
1 37
1 38
1 39
1 40
1 41
1 42
1 43
1 44
1 45
1 46
1 47
1 48
1 49
1 50
1 51
1 52
1 53
1 54
1 55
1 56
1 57
1 58
1 59
1 60
1 61
1 62
1 63
CELL_TYPES 64
1
1
1
1
1
1
1
1
1
1
1
1
1
1
1
1
1
1
1
1
1
1
1
1
1
1
1
1
1
1
1
1
1
1
1
1
1
1
1
1
1
1
1
1
1
1
1
1
1
1
1
1
1
1
1
1
1
1
1
1
1
1
1
1
POINT_DATA 64
VECTORS displacement double
-0.148153 -0.291272 0 
-0.143488 -0.292324 0 
-0.148577 -0.295227 0 
-0.143766 -0.296131 0 
-0.141686 -0.293738 0 
-0.137244 -0.294433 0 
-0.141594 -0.29767 0 
-0.137785 -0.298332 0 
-0.136986 -0.295039 0 
-0.136534 -0.295175 0 
-0.136362 -0.297713 0 
-0.137043 -0.298067 0 
-0.132717 -0.293812 0 
-0.131583 -0.294434 0 
-0.133096 -0.296816 0 
-0.132917 -0.298091 0 
-0.146792 -0.297602 0 
-0.143976 -0.298232 0 
-0.147081 -0.30122 0 
-0.145612 -0.301842 0 
-0.142391 -0.298852 0 
-0.139339 -0.298347 0 
-0.143751 -0.302396 0 
-0.141258 -0.301767 0 
-0.13717 -0.296661 0 
-0.137895 -0.297908 0 
-0.137349 -0.298935 0 
-0.136307 -0.299579 0 
-0.133876 -0.297843 0 
-0.132832 -0.296467 0 
-0.132361 -0.298987 0 
-0.132551 -0.298594 0 
-0.146057 -0.30543 0 
-0.146445 -0.304663 0 
-0.144401 -0.306936 0 
-0.14642 -0.306603 0 
-0.144716 -0.304799 0 
-0.143394 -0.304923 0 
-0.144189 -0.307096 0 
-0.143479 -0.307501 0 
-0.13939 -0.303691 0 
-0.136998 -0.303498 0 
-0.140595 -0.307292 0 
-0.137898 -0.307686 0 
-0.132436 -0.301363 0 
-0.130862 -0.302401 0 
-0.132666 -0.306986 0 
-0.128538 -0.307612 0 
-0.145574 -0.31001 0 
-0.148534 -0.30865 0 
-0.14612 -0.312179 0 
-0.148613 -0.311203 0 
-0.144315 -0.30972 0 
-0.143805 -0.310491 0 
-0.142397 -0.313334 0 
-0.142892 -0.312412 0 
-0.142292 -0.311483 0 
-0.138341 -0.312055 0 
-0.142341 -0.312729 0 
-0.137007 -0.315434 0 
-0.133751 -0.31133 0 
-0.128933 -0.312275 0 
-0.13391 -0.315395 0 
-0.127694 -0.316133 0 
VECTORS velocity double
-1.14858 0.20943 0 
-0.817948 0.492826 0 
-1.46072 0.0151289 0 
-1.2217 0.201391 0 
-1.15481 -0.0169674 0 
-1.05923 0.525793 0 
-1.00349 -0.0435828 0 
-0.935129 0.296967 0 
-0.967675 0.38289 0 
-1.15322 0.0214168 0 
-1.00498 0.0315067 0 
-0.952129 -0.199779 0 
-0.684102 0.393492 0 
-1.05469 -0.0460527 0 
-0.731149 0.553807 0 
-1.21693 0.189045 0 
-1.20401 0.369985 0 
-1.01772 0.61609 0 
-1.12708 0.932644 0 
-0.868261 0.8764 0 
-0.83964 0.288184 0 
-0.768741 0.514464 0 
-0.869225 0.224648 0 
-1.02438 0.521997 0 
-0.974549 0.16802 0 
-1.06474 -0.352479 0 
-0.839821 0.446497 0 
-0.726591 -0.217126 0 
-1.0407 0.203549 0 
-1.06903 0.0911195 0 
-0.842754 0.553352 0 
-1.30361 0.306255 0 
-0.445855 0.49908 0 
-0.863886 0.266133 0 
-0.929489 -0.0428661 0 
-1.00086 0.387443 0 
-0.963094 -0.223018 0 
-0.933253 0.350323 0 
-0.968905 -0.0260337 0 
-0.809422 0.329339 0 
-1.07219 0.0539451 0 
-0.819973 -0.331857 0 
-1.37077 -0.133739 0 
-1.27118 0.178036 0 
-1.21334 0.329096 0 
-1.60356 0.30505 0 
-1.38975 0.915186 0 
-1.63114 0.286231 0 
-1.2536 0.0528299 0 
-0.906919 0.776976 0 
-0.925225 0.0253678 0 
-0.937852 0.0888206 0 
-1.09025 0.12146 0 
-0.660153 0.012917 0 
-1.35649 0.0205138 0 
-0.978879 0.854669 0 
-1.00309 -0.242566 0 
-1.19752 0.157976 0 
-0.820603 0.759332 0 
-1.14789 0.427358 0 
-1.51433 0.9488 0 
-1.71077 0.115559 0 
-1.67481 0.496634 0 
-1.88469 1.64756 0 
SCALARS mass double 1
LOOKUP_TABLE default
0.625
0.625
0.625
0.625
0.625
0.625
0.625
0.625
0.625
0.625
0.625
0.625
0.625
0.625
0.625
0.625
0.625
0.625
0.625
0.625
0.625
0.625
0.625
0.625
0.625
0.625
0.625
0.625
0.625
0.625
0.625
0.625
0.625
0.625
0.625
0.625
0.625
0.625
0.625
0.625
0.625
0.625
0.625
0.625
0.625
0.625
0.625
0.625
0.625
0.625
0.625
0.625
0.625
0.625
0.625
0.625
0.625
0.625
0.625
0.625
0.625
0.625
0.625
0.625
SCALARS volume double 1
LOOKUP_TABLE default
0.000626575
0.000607269
0.000632332
0.000644208
0.000611455
0.000622614
0.000603984
0.000604036
0.000613219
0.000606079
0.000602947
0.000596099
0.000646386
0.000609111
0.000623594
0.000540976
0.000657575
0.00061682
0.000621703
0.000616659
0.000601819
0.000666651
0.000601728
0.000629042
0.000647761
0.000596367
0.0006368
0.000630318
0.000691195
0.000596542
0.000654074
0.000616597
0.000655644
0.000621788
0.000602847
0.000597002
0.000628068
0.000621594
0.000600959
0.000592715
0.000657747
0.000596674
0.000661407
0.000598608
0.000643411
0.000608539
0.000668221
0.000626753
0.000629019
0.000609987
0.000625387
0.00063248
0.000644579
0.000636643
0.000629117
0.000641042
0.000601255
0.000635013
0.000576625
0.000606944
0.00063377
0.000616215
0.000653017
0.000640019
VECTORS momentum double
-0.71786 0.130894 0 
-0.511218 0.308016 0 
-0.912953 0.00945556 0 
-0.763563 0.125869 0 
-0.721758 -0.0106046 0 
-0.662018 0.328621 0 
-0.627181 -0.0272393 0 
-0.584456 0.185604 0 
-0.604797 0.239306 0 
-0.720766 0.0133855 0 
-0.628111 0.0196917 0 
-0.595081 -0.124862 0 
-0.427564 0.245932 0 
-0.659182 -0.028783 0 
-0.456968 0.346129 0 
-0.760584 0.118153 0 
-0.752507 0.231241 0 
-0.636078 0.385056 0 
-0.704423 0.582902 0 
-0.542663 0.54775 0 
-0.524775 0.180115 0 
-0.480463 0.32154 0 
-0.543265 0.140405 0 
-0.640236 0.326248 0 
-0.609093 0.105013 0 
-0.665461 -0.2203 0 
-0.524888 0.279061 0 
-0.454119 -0.135704 0 
-0.650435 0.127218 0 
-0.668145 0.0569497 0 
-0.526721 0.345845 0 
-0.814755 0.19141 0 
-0.278659 0.311925 0 
-0.539929 0.166333 0 
-0.580931 -0.0267913 0 
-0.62554 0.242152 0 
-0.601934 -0.139386 0 
-0.583283 0.218952 0 
-0.605566 -0.0162711 0 
-0.505889 0.205837 0 
-0.670119 0.0337157 0 
-0.512483 -0.207411 0 
-0.856729 -0.0835866 0 
-0.794485 0.111273 0 
-0.758337 0.205685 0 
-1.00222 0.190656 0 
-0.868596 0.571991 0 
-1.01946 0.178894 0 
-0.783501 0.0330187 0 
-0.566824 0.48561 0 
-0.578266 0.0158549 0 
-0.586157 0.0555129 0 
-0.681408 0.0759122 0 
-0.412596 0.00807315 0 
-0.847808 0.0128211 0 
-0.611799 0.534168 0 
-0.626932 -0.151604 0 
-0.748447 0.098735 0 
-0.512877 0.474583 0 
-0.717432 0.267099 0 
-0.946454 0.593 0 
-1.06923 0.0722247 0 
-1.04676 0.310396 0 
-1.17793 1.02972 0 
VECTORS body_force double
0 -9.81 0 
0 -9.81 0 
0 -9.81 0 
0 -9.81 0 
0 -9.81 0 
0 -9.81 0 
0 -9.81 0 
0 -9.81 0 
0 -9.81 0 
0 -9.81 0 
0 -9.81 0 
0 -9.81 0 
0 -9.81 0 
0 -9.81 0 
0 -9.81 0 
0 -9.81 0 
0 -9.81 0 
0 -9.81 0 
0 -9.81 0 
0 -9.81 0 
0 -9.81 0 
0 -9.81 0 
0 -9.81 0 
0 -9.81 0 
0 -9.81 0 
0 -9.81 0 
0 -9.81 0 
0 -9.81 0 
0 -9.81 0 
0 -9.81 0 
0 -9.81 0 
0 -9.81 0 
0 -9.81 0 
0 -9.81 0 
0 -9.81 0 
0 -9.81 0 
0 -9.81 0 
0 -9.81 0 
0 -9.81 0 
0 -9.81 0 
0 -9.81 0 
0 -9.81 0 
0 -9.81 0 
0 -9.81 0 
0 -9.81 0 
0 -9.81 0 
0 -9.81 0 
0 -9.81 0 
0 -9.81 0 
0 -9.81 0 
0 -9.81 0 
0 -9.81 0 
0 -9.81 0 
0 -9.81 0 
0 -9.81 0 
0 -9.81 0 
0 -9.81 0 
0 -9.81 0 
0 -9.81 0 
0 -9.81 0 
0 -9.81 0 
0 -9.81 0 
0 -9.81 0 
0 -9.81 0 
TENSORS cauchy_stress double
1182.62 -243.177 0
-243.177 -698.692 0
0 0 0

-3284.95 -1451.79 0
-1451.79 -2249.48 0
0 0 0

4499.77 2562.32 0
2562.32 -2256.92 0
0 0 0

4855.87 132.154 0
132.154 965.385 0
0 0 0

-1989.71 2096.38 0
2096.38 -2223.75 0
0 0 0

-628.87 1439.62 0
1439.62 -106.782 0
0 0 0

-306.048 -3003.05 0
-3003.05 -6271.68 0
0 0 0

-5273.42 1313.01 0
1313.01 -1287.58 0
0 0 0

-295.606 -3689.1 0
-3689.1 -3363.83 0
0 0 0

-4492.09 1433.28 0
1433.28 -1419.61 0
0 0 0

-4790.87 -2212.92 0
-2212.92 -2117.31 0
0 0 0

-5323.28 2960.54 0
2960.54 -3781.38 0
0 0 0

2411.92 -3056.12 0
-3056.12 4058.19 0
0 0 0

-6304.04 -2315.79 0
-2315.79 1352.01 0
0 0 0

-4642.33 274.745 0
274.745 4209.2 0
0 0 0

-10459.5 -3780.84 0
-3780.84 -17305.1 0
0 0 0

9590.11 2748.44 0
2748.44 180.441 0
0 0 0

-2947.19 4189.73 0
4189.73 413.723 0
0 0 0

1828.2 -3178.17 0
-3178.17 -2845.4 0
0 0 0

-2319.36 -302.011 0
-302.011 -264.365 0
0 0 0

-3631.75 4175.32 0
4175.32 -3636.4 0
0 0 0

4432 8090.28 0
8090.28 7974.69 0
0 0 0

-4465.81 -3514.18 0
-3514.18 -2831.6 0
0 0 0

-5200.29 2313.56 0
2313.56 6439.86 0
0 0 0

3865.78 3006.53 0
3006.53 3013.21 0
0 0 0

302.58 383.654 0
383.654 -9320.99 0
0 0 0

-3963.06 2158.93 0
2158.93 7560.11 0
0 0 0

3615.22 -712.845 0
-712.845 -1985.94 0
0 0 0

10225.9 2132.53 0
2132.53 9133.68 0
0 0 0

-1728.77 -4214.19 0
-4214.19 -7233.08 0
0 0 0

4466.71 1994.83 0
1994.83 4277.34 0
0 0 0

-84.6413 -3460.3 0
-3460.3 -2518.33 0
0 0 0

6863.98 563.147 0
563.147 2341.15 0
0 0 0

-2061.98 4393.43 0
4393.43 1071.15 0
0 0 0

-1991.75 -1332.22 0
-1332.22 -4948.41 0
0 0 0

-6524.48 898.041 0
898.041 -2289.09 0
0 0 0

1592.73 -2589.22 0
-2589.22 -650.951 0
0 0 0

-576.515 582.348 0
582.348 -474.213 0
0 0 0

-3489.62 -5993.51 0
-5993.51 -4053.57 0
0 0 0

-5413.63 114.122 0
114.122 -4786 0
0 0 0

-609.152 2092.11 0
2092.11 10430.2 0
0 0 0

-7687.93 -3607.35 0
-3607.35 -1231.4 0
0 0 0

-180.011 1873.4 0
1873.4 11068 0
0 0 0

-2433.97 -7758.31 0
-7758.31 -5863.23 0
0 0 0

-696.996 2406.16 0
2406.16 6280.17 0
0 0 0

7632.44 -11294.6 0
-11294.6 -12765.1 0
0 0 0

5038.87 3214.88 0
3214.88 7820.3 0
0 0 0

2506.6 -6716.33 0
-6716.33 -1967.9 0
0 0 0

-1185.8 1209.19 0
1209.19 2418.36 0
0 0 0

-5235.89 1639.14 0
1639.14 560.252 0
0 0 0

-260.375 101.135 0
101.135 379.474 0
0 0 0

1012.47 2395.07 0
2395.07 1275.4 0
0 0 0

6606.21 -4607.2 0
-4607.2 -674.305 0
0 0 0

4366.07 -1960.96 0
-1960.96 -816.609 0
0 0 0

-273.926 -18.0291 0
-18.0291 1536.6 0
0 0 0

203.723 -50.5195 0
-50.5195 4669.97 0
0 0 0

-5544.16 2958.63 0
2958.63 -1904.41 0
0 0 0

3330.26 -150.337 0
-150.337 -273.873 0
0 0 0

-5129.19 1697.03 0
1697.03 -10363 0
0 0 0

2390.82 -3428.87 0
-3428.87 -8028.38 0
0 0 0

1209.88 6127.52 0
6127.52 1469.72 0
0 0 0

-763.072 -139.916 0
-139.916 -1959.12 0
0 0 0

-987.91 -2696.3 0
-2696.3 9420.77 0
0 0 0

2216.34 1509.56 0
1509.56 2350.11 0
0 0 0

TENSORS velocity_gradient double
-1.50595 2.22657 0
1.39248 0.785517 0
0 0 0

-1.47515 1.95494 0
0.931236 0.634708 0
0 0 0

-1.50025 2.19137 0
1.46831 0.31737 0
0 0 0

-1.07047 2.1585 0
1.13399 0.17762 0
0 0 0

0.482671 -0.415095 0
0.289049 -0.0289253 0
0 0 0

3.14995 0.071986 0
-0.436094 -0.161346 0
0 0 0

0.668591 2.05831 0
0.542264 -0.787304 0
0 0 0

1.7013 2.14216 0
-0.110024 -0.910966 0
0 0 0

3.50589 0.82321 0
-0.903864 -1.64958 0
0 0 0

2.87966 0.812399 0
-1.26983 -1.6559 0
0 0 0

0.986553 0.152113 0
-0.783735 -2.07847 0
0 0 0

0.473722 0.171663 0
-1.34717 -2.06404 0
0 0 0

1.94653 -0.548993 0
1.59138 -1.53375 0
0 0 0

0.978714 -0.594422 0
5.50873 -1.34987 0
0 0 0

-1.2094 -1.30124 0
-0.831281 1.75701 0
0 0 0

-1.34843 -1.30554 0
0.405845 1.77885 0
0 0 0

5.18542 1.33999 0
5.38122 -1.72547 0
0 0 0

3.96795 1.20173 0
2.68518 -2.03165 0
0 0 0

5.37334 0.113588 0
5.79735 -4.44128 0
0 0 0

4.15198 0.0407261 0
3.09272 -4.60263 0
0 0 0

2.54735 1.30033 0
0.98036 -1.63009 0
0 0 0

0.88603 1.10425 0
0.0582831 -1.73892 0
0 0 0

2.52317 -0.213457 0
0.781527 -2.45016 0
0 0 0

0.462136 -0.32331 0
-0.554799 -2.45726 0
0 0 0

-0.336807 -0.608073 0
-0.772853 -2.71733 0
0 0 0

-1.09923 -0.585315 0
-1.428 -2.69777 0
0 0 0

-1.71829 -1.60218 0
-0.204743 -2.69145 0
0 0 0

-3.60603 -1.66617 0
2.37614 -2.61695 0
0 0 0

-1.45572 -1.35016 0
-1.02545 2.96285 0
0 0 0

-1.4905 -1.35159 0
0.22834 3.01438 0
0 0 0

-6.71851 -1.77576 0
5.25448 3.5091 0
0 0 0

-8.25292 -1.77102 0
3.5011 3.51059 0
0 0 0

-1.24045 0.00528921 0
-7.80619 -3.70414 0
0 0 0

-0.760149 -0.00193764 0
-5.2875 -3.74203 0
0 0 0

-1.16966 0.658026 0
-7.45888 -0.67579 0
0 0 0

-0.793776 0.463226 0
-5.46384 -1.3027 0
0 0 0

-0.604601 -1.00723 0
-3.35467 -2.10396 0
0 0 0

-1.17533 -1.0381 0
-2.59633 -2.06295 0
0 0 0

-0.684259 -1.39392 0
-3.23421 -1.29805 0
0 0 0

-1.12776 -1.54009 0
-2.02103 -1.27889 0
0 0 0

-2.32136 -3.44204 0
-0.636842 0.607881 0
0 0 0

-4.48648 -3.65623 0
3.51403 1.01852 0
0 0 0

-1.39945 -5.13908 0
1.02437 3.70465 0
0 0 0

-3.26265 -5.80733 0
4.44154 4.47656 0
0 0 0

-6.57577 -3.38 0
5.44605 1.80309 0
0 0 0

-8.10618 -3.48677 0
3.81758 1.68948 0
0 0 0

-4.72947 -4.7458 0
6.12544 1.06693 0
0 0 0

-4.82839 -4.59718 0
6.689 0.772598 0
0 0 0

-0.276313 -0.190205 0
-1.74917 0.721439 0
0 0 0

-2.21321 -0.516976 0
0.0736899 0.628293 0
0 0 0

-0.143856 -1.42883 0
-1.79948 1.26909 0
0 0 0

-2.02081 -2.40217 0
-0.123035 2.55583 0
0 0 0

-3.30049 -0.280258 0
1.89281 0.43223 0
0 0 0

-1.48514 -0.00273437 0
3.62771 0.250032 0
0 0 0

-2.87798 -0.674067 0
1.52141 2.62733 0
0 0 0

-1.78794 2.09803 0
3.69441 2.19906 0
0 0 0

-0.0703863 -4.39077 0
5.1353 3.06713 0
0 0 0

-2.12114 -8.3652 0
5.6424 5.24342 0
0 0 0

-0.893268 -3.55551 0
5.82068 3.7672 0
0 0 0

-3.38188 -10.6747 0
8.7153 5.77943 0
0 0 0

-4.48018 -6.5408 0
6.04296 3.06583 0
0 0 0

-4.81916 -4.64446 0
6.57672 1.34789 0
0 0 0

-4.00305 -9.58423 0
11.1958 4.99151 0
0 0 0

-4.91644 -5.28483 0
11.8526 1.61399 0
0 0 0

SCALARS active double 1
LOOKUP_TABLE default
1
1
1
1
1
1
1
1
1
1
1
1
1
1
1
1
1
1
1
1
1
1
1
1
1
1
1
1
1
1
1
1
1
1
1
1
1
1
1
1
1
1
1
1
1
1
1
1
1
1
1
1
1
1
1
1
1
1
1
1
1
1
1
1
SCALARS extent double 1
LOOKUP_TABLE default
0.0125
0.0125
0.0125
0.0125
0.0125
0.0125
0.0125
0.0125
0.0125
0.0125
0.0125
0.0125
0.0125
0.0125
0.0125
0.0125
0.0125
0.0125
0.0125
0.0125
0.0125
0.0125
0.0125
0.0125
0.0125
0.0125
0.0125
0.0125
0.0125
0.0125
0.0125
0.0125
0.0125
0.0125
0.0125
0.0125
0.0125
0.0125
0.0125
0.0125
0.0125
0.0125
0.0125
0.0125
0.0125
0.0125
0.0125
0.0125
0.0125
0.0125
0.0125
0.0125
0.0125
0.0125
0.0125
0.0125
0.0125
0.0125
0.0125
0.0125
0.0125
0.0125
0.0125
0.0125
SCALARS pressure double 1
LOOKUP_TABLE default
-241.965
2767.22
-1121.42
-2910.63
2106.73
367.826
3288.86
3280.5
1829.72
2955.85
3454.09
4552.33
-3235.06
2476.02
216.565
13882.3
-4885.28
1266.73
508.599
1291.86
3634.08
-6203.35
3648.7
-619.783
-3439.5
4509.21
-1798.52
-814.637
-9679.8
4480.92
-4372.03
1301.48
-4602.57
495.412
3470.08
4406.79
-470.89
525.364
3771.6
5099.81
-4910.52
4459.66
-5443.98
4148.6
-2791.58
2566.34
-6429.59
-269.351
-616.284
2337.82
-59.5493
-1143.93
-2965.95
-1774.73
-631.335
-2436.85
3724.28
-1528.19
7746.09
2818.78
-1339.8
1361.1
-4216.43
-2283.23
SCALARS density double 1
LOOKUP_TABLE default
997.487
1029.2
988.405
970.183
1022.15
1003.83
1034.8
1034.71
1019.21
1031.22
1036.58
1048.48
966.915
1026.08
1002.25
1155.32
950.462
1013.26
1005.3
1013.53
1038.52
937.522
1038.68
993.575
964.861
1048.01
981.469
991.564
904.231
1047.7
955.549
1013.63
953.261
1005.17
1036.75
1046.9
995.115
1005.48
1040
1054.47
950.213
1047.47
944.956
1044.09
971.385
1027.05
935.319
997.203
993.611
1024.61
999.381
988.174
969.625
981.712
993.456
974.975
1039.49
984.232
1083.89
1029.75
986.163
1014.26
957.097
976.534
