# vtk DataFile Version 3.0
Frame: 8, Time: 0.15
ASCII
DATASET UNSTRUCTURED_GRID
POINTS 64 double
0.5125 0.49992 0 
0.5125 0.52492 0 
0.5375 0.49992 0 
0.5375 0.52492 0 
0.5125 0.54992 0 
0.5125 0.57492 0 
0.5375 0.54992 0 
0.5375 0.57492 0 
0.5125 0.59992 0 
0.5125 0.62492 0 
0.5375 0.59992 0 
0.5375 0.62492 0 
0.5125 0.64992 0 
0.5125 0.67492 0 
0.5375 0.64992 0 
0.5375 0.67492 0 
0.5625 0.49992 0 
0.5625 0.52492 0 
0.5875 0.49992 0 
0.5875 0.52492 0 
0.5625 0.54992 0 
0.5625 0.57492 0 
0.5875 0.54992 0 
0.5875 0.57492 0 
0.5625 0.59992 0 
0.5625 0.62492 0 
0.5875 0.59992 0 
0.5875 0.62492 0 
0.5625 0.64992 0 
0.5625 0.67492 0 
0.5875 0.64992 0 
0.5875 0.67492 0 
0.6125 0.49992 0 
0.6125 0.52492 0 
0.6375 0.49992 0 
0.6375 0.52492 0 
0.6125 0.54992 0 
0.6125 0.57492 0 
0.6375 0.54992 0 
0.6375 0.57492 0 
0.6125 0.59992 0 
0.6125 0.62492 0 
0.6375 0.59992 0 
0.6375 0.62492 0 
0.6125 0.64992 0 
0.6125 0.67492 0 
0.6375 0.64992 0 
0.6375 0.67492 0 
0.6625 0.49992 0 
0.6625 0.52492 0 
0.6875 0.49992 0 
0.6875 0.52492 0 
0.6625 0.54992 0 
0.6625 0.57492 0 
0.6875 0.54992 0 
0.6875 0.57492 0 
0.6625 0.59992 0 
0.6625 0.62492 0 
0.6875 0.59992 0 
0.6875 0.62492 0 
0.6625 0.64992 0 
0.6625 0.67492 0 
0.6875 0.64992 0 
0.6875 0.67492 0 
CELLS 64 128
1 0
1 1
1 2
1 3
1 4
1 5
1 6
1 7
1 8
1 9
1 10
1 11
1 12
1 13
1 14
1 15
1 16
1 17
1 18
1 19
1 20
1 21
1 22
1 23
1 24
1 25
1 26
1 27
1 28
1 29
1 30
1 31
1 32
1 33
1 34
1 35
1 36
1 37
1 38
1 39
1 40
1 41
1 42
1 43
1 44
1 45
1 46
1 47
1 48
1 49
1 50
1 51
1 52
1 53
1 54
1 55
1 56
1 57
1 58
1 59
1 60
1 61
1 62
1 63
CELL_TYPES 64
1
1
1
1
1
1
1
1
1
1
1
1
1
1
1
1
1
1
1
1
1
1
1
1
1
1
1
1
1
1
1
1
1
1
1
1
1
1
1
1
1
1
1
1
1
1
1
1
1
1
1
1
1
1
1
1
1
1
1
1
1
1
1
1
POINT_DATA 64
VECTORS displacement double
-2.74934e-17 -0.11258 0 
-7.26188e-18 -0.11258 0 
-3.15898e-17 -0.11258 0 
-1.68341e-17 -0.11258 0 
6.06366e-18 -0.11258 0 
8.34248e-18 -0.11258 0 
-3.77626e-18 -0.11258 0 
5.34541e-18 -0.11258 0 
3.2279e-17 -0.11258 0 
7.65075e-17 -0.11258 0 
3.41696e-17 -0.11258 0 
7.2431e-17 -0.11258 0 
9.8747e-17 -0.11258 0 
1.02787e-16 -0.11258 0 
9.71775e-17 -0.11258 0 
1.09851e-16 -0.11258 0 
-3.496e-17 -0.11258 0 
-2.1304e-17 -0.11258 0 
-3.76041e-17 -0.11258 0 
-2.06714e-17 -0.11258 0 
-6.18497e-18 -0.11258 0 
9.00546e-18 -0.11258 0 
-1.16248e-18 -0.11258 0 
1.93226e-17 -0.11258 0 
3.83166e-17 -0.11258 0 
7.09069e-17 -0.11258 0 
4.47201e-17 -0.11258 0 
7.19353e-17 -0.11258 0 
9.68377e-17 -0.11258 0 
1.16146e-16 -0.11258 0 
9.77279e-17 -0.11258 0 
1.21673e-16 -0.11258 0 
-4.15253e-17 -0.11258 0 
-1.9752e-17 -0.11258 0 
-4.67236e-17 -0.11258 0 
-1.85459e-17 -0.11258 0 
4.0888e-18 -0.11258 0 
2.96663e-17 -0.11258 0 
9.56886e-18 -0.11258 0 
4.00366e-17 -0.11258 0 
5.18525e-17 -0.11258 0 
7.33285e-17 -0.11258 0 
5.97137e-17 -0.11258 0 
7.50864e-17 -0.11258 0 
9.87349e-17 -0.11258 0 
1.27058e-16 -0.11258 0 
9.98588e-17 -0.11258 0 
1.32303e-16 -0.11258 0 
-5.19449e-17 -0.11258 0 
-2.15337e-17 -0.11258 0 
-5.71892e-17 -0.11258 0 
-2.87155e-17 -0.11258 0 
8.39763e-18 -0.11258 0 
4.47848e-17 -0.11258 0 
5.75112e-19 -0.11258 0 
4.39109e-17 -0.11258 0 
6.61605e-17 -0.11258 0 
7.51174e-17 -0.11258 0 
7.11926e-17 -0.11258 0 
7.34216e-17 -0.11258 0 
1.00514e-16 -0.11258 0 
1.39166e-16 -0.11258 0 
1.007e-16 -0.11258 0 
1.47647e-16 -0.11258 0 
VECTORS velocity double
-1.66759e-14 -1.48131 0 
1.56383e-14 -1.48131 0 
-6.76036e-15 -1.48131 0 
4.80679e-15 -1.48131 0 
9.28217e-15 -1.48131 0 
-7.35715e-15 -1.48131 0 
1.9167e-15 -1.48131 0 
-3.36049e-15 -1.48131 0 
-9.42419e-15 -1.48131 0 
4.67204e-16 -1.48131 0 
-3.16371e-15 -1.48131 0 
-6.36228e-16 -1.48131 0 
-8.99752e-17 -1.48131 0 
4.48111e-15 -1.48131 0 
-7.52311e-16 -1.48131 0 
1.99927e-15 -1.48131 0 
-1.08609e-15 -1.48131 0 
-4.65783e-16 -1.48131 0 
3.46919e-16 -1.48131 0 
-1.79441e-16 -1.48131 0 
-1.41776e-15 -1.48131 0 
-1.12337e-15 -1.48131 0 
-7.21211e-16 -1.48131 0 
-6.45768e-16 -1.48131 0 
-1.49311e-17 -1.48131 0 
-5.97638e-16 -1.48131 0 
2.21481e-17 -1.48131 0 
5.82975e-16 -1.48131 0 
-5.34389e-16 -1.48131 0 
1.18232e-15 -1.48131 0 
5.63792e-16 -1.48131 0 
2.03026e-15 -1.48131 0 
1.28766e-15 -1.48131 0 
2.26141e-17 -1.48131 0 
1.73612e-15 -1.48131 0 
1.40383e-16 -1.48131 0 
-1.80565e-16 -1.48131 0 
-1.26289e-16 -1.48131 0 
2.0418e-16 -1.48131 0 
4.35069e-16 -1.48131 0 
1.44057e-16 -1.48131 0 
1.43737e-15 -1.48131 0 
3.50794e-16 -1.48131 0 
1.96556e-15 -1.48131 0 
1.63901e-15 -1.48131 0 
2.95095e-15 -1.48131 0 
2.69127e-15 -1.48131 0 
3.94441e-15 -1.48131 0 
6.41412e-15 -1.48131 0 
-5.37063e-15 -1.48131 0 
1.53217e-14 -1.48131 0 
-1.65104e-14 -1.48131 0 
-3.48585e-15 -1.48131 0 
2.97522e-15 -1.48131 0 
-1.12507e-14 -1.48131 0 
7.49415e-15 -1.48131 0 
3.98359e-15 -1.48131 0 
1.84421e-15 -1.48131 0 
1.10424e-14 -1.48131 0 
1.07332e-15 -1.48131 0 
3.07945e-15 -1.48131 0 
3.5053e-15 -1.48131 0 
2.80353e-15 -1.48131 0 
1.63362e-15 -1.48131 0 
SCALARS mass double 1
LOOKUP_TABLE default
0.625
0.625
0.625
0.625
0.625
0.625
0.625
0.625
0.625
0.625
0.625
0.625
0.625
0.625
0.625
0.625
0.625
0.625
0.625
0.625
0.625
0.625
0.625
0.625
0.625
0.625
0.625
0.625
0.625
0.625
0.625
0.625
0.625
0.625
0.625
0.625
0.625
0.625
0.625
0.625
0.625
0.625
0.625
0.625
0.625
0.625
0.625
0.625
0.625
0.625
0.625
0.625
0.625
0.625
0.625
0.625
0.625
0.625
0.625
0.625
0.625
0.625
0.625
0.625
SCALARS volume double 1
LOOKUP_TABLE default
0.000625
0.000625
0.000625
0.000625
0.000625
0.000625
0.000625
0.000625
0.000625
0.000625
0.000625
0.000625
0.000625
0.000625
0.000625
0.000625
0.000625
0.000625
0.000625
0.000625
0.000625
0.000625
0.000625
0.000625
0.000625
0.000625
0.000625
0.000625
0.000625
0.000625
0.000625
0.000625
0.000625
0.000625
0.000625
0.000625
0.000625
0.000625
0.000625
0.000625
0.000625
0.000625
0.000625
0.000625
0.000625
0.000625
0.000625
0.000625
0.000625
0.000625
0.000625
0.000625
0.000625
0.000625
0.000625
0.000625
0.000625
0.000625
0.000625
0.000625
0.000625
0.000625
0.000625
0.000625
VECTORS momentum double
-1.04224e-14 -0.925819 0 
9.77393e-15 -0.925819 0 
-4.22522e-15 -0.925819 0 
3.00424e-15 -0.925819 0 
5.80136e-15 -0.925819 0 
-4.59822e-15 -0.925819 0 
1.19794e-15 -0.925819 0 
-2.10031e-15 -0.925819 0 
-5.89012e-15 -0.925819 0 
2.92002e-16 -0.925819 0 
-1.97732e-15 -0.925819 0 
-3.97643e-16 -0.925819 0 
-5.62345e-17 -0.925819 0 
2.80069e-15 -0.925819 0 
-4.70195e-16 -0.925819 0 
1.24955e-15 -0.925819 0 
-6.78808e-16 -0.925819 0 
-2.91114e-16 -0.925819 0 
2.16825e-16 -0.925819 0 
-1.12151e-16 -0.925819 0 
-8.86099e-16 -0.925819 0 
-7.02105e-16 -0.925819 0 
-4.50757e-16 -0.925819 0 
-4.03605e-16 -0.925819 0 
-9.33193e-18 -0.925819 0 
-3.73524e-16 -0.925819 0 
1.38426e-17 -0.925819 0 
3.64359e-16 -0.925819 0 
-3.33993e-16 -0.925819 0 
7.38953e-16 -0.925819 0 
3.5237e-16 -0.925819 0 
1.26891e-15 -0.925819 0 
8.04785e-16 -0.925819 0 
1.41338e-17 -0.925819 0 
1.08507e-15 -0.925819 0 
8.77395e-17 -0.925819 0 
-1.12853e-16 -0.925819 0 
-7.89305e-17 -0.925819 0 
1.27613e-16 -0.925819 0 
2.71918e-16 -0.925819 0 
9.00354e-17 -0.925819 0 
8.98359e-16 -0.925819 0 
2.19247e-16 -0.925819 0 
1.22848e-15 -0.925819 0 
1.02438e-15 -0.925819 0 
1.84435e-15 -0.925819 0 
1.68205e-15 -0.925819 0 
2.46526e-15 -0.925819 0 
4.00883e-15 -0.925819 0 
-3.35664e-15 -0.925819 0 
9.57604e-15 -0.925819 0 
-1.0319e-14 -0.925819 0 
-2.17866e-15 -0.925819 0 
1.85951e-15 -0.925819 0 
-7.03166e-15 -0.925819 0 
4.68384e-15 -0.925819 0 
2.48974e-15 -0.925819 0 
1.15263e-15 -0.925819 0 
6.90153e-15 -0.925819 0 
6.70826e-16 -0.925819 0 
1.92465e-15 -0.925819 0 
2.19081e-15 -0.925819 0 
1.75221e-15 -0.925819 0 
1.02101e-15 -0.925819 0 
VECTORS body_force double
0 -9.81 0 
0 -9.81 0 
0 -9.81 0 
0 -9.81 0 
0 -9.81 0 
0 -9.81 0 
0 -9.81 0 
0 -9.81 0 
0 -9.81 0 
0 -9.81 0 
0 -9.81 0 
0 -9.81 0 
0 -9.81 0 
0 -9.81 0 
0 -9.81 0 
0 -9.81 0 
0 -9.81 0 
0 -9.81 0 
0 -9.81 0 
0 -9.81 0 
0 -9.81 0 
0 -9.81 0 
0 -9.81 0 
0 -9.81 0 
0 -9.81 0 
0 -9.81 0 
0 -9.81 0 
0 -9.81 0 
0 -9.81 0 
0 -9.81 0 
0 -9.81 0 
0 -9.81 0 
0 -9.81 0 
0 -9.81 0 
0 -9.81 0 
0 -9.81 0 
0 -9.81 0 
0 -9.81 0 
0 -9.81 0 
0 -9.81 0 
0 -9.81 0 
0 -9.81 0 
0 -9.81 0 
0 -9.81 0 
0 -9.81 0 
0 -9.81 0 
0 -9.81 0 
0 -9.81 0 
0 -9.81 0 
0 -9.81 0 
0 -9.81 0 
0 -9.81 0 
0 -9.81 0 
0 -9.81 0 
0 -9.81 0 
0 -9.81 0 
0 -9.81 0 
0 -9.81 0 
0 -9.81 0 
0 -9.81 0 
0 -9.81 0 
0 -9.81 0 
0 -9.81 0 
0 -9.81 0 
TENSORS cauchy_stress double
-1.03293e-11 3.31861e-11 0
3.31861e-11 1.79126e-11 0
0 0 0

7.28656e-12 1.12045e-12 0
1.12045e-12 1.15179e-10 0
0 0 0

-7.05425e-12 2.66782e-11 0
2.66782e-11 2.55543e-11 0
0 0 0

-1.59256e-12 6.17308e-12 0
6.17308e-12 9.44611e-11 0
0 0 0

3.71417e-11 -3.64856e-11 0
-3.64856e-11 1.87586e-10 0
0 0 0

-2.14751e-11 -3.22735e-12 0
-3.22735e-12 -1.93695e-11 0
0 0 0

-7.83196e-12 -2.53734e-11 0
-2.53734e-11 8.26476e-11 0
0 0 0

-3.27081e-11 4.41008e-12 0
4.41008e-12 -4.55798e-11 0
0 0 0

-9.93407e-11 1.2566e-11 0
1.2566e-11 -2.51186e-10 0
0 0 0

-8.17304e-12 2.14548e-11 0
2.14548e-11 2.274e-11 0
0 0 0

-7.24572e-11 1.84799e-11 0
1.84799e-11 -1.88458e-10 0
0 0 0

6.75648e-13 1.99879e-11 0
1.99879e-11 4.3387e-11 0
0 0 0

9.23809e-11 -1.09744e-11 0
-1.09744e-11 2.31654e-10 0
0 0 0

1.14207e-11 -2.17119e-11 0
-2.17119e-11 -4.58005e-11 0
0 0 0

1.1419e-10 -1.87252e-12 0
-1.87252e-12 2.82541e-10 0
0 0 0

2.8745e-11 -5.20568e-12 0
-5.20568e-12 -5.37718e-12 0
0 0 0

6.23428e-12 -2.18395e-11 0
-2.18395e-11 4.16654e-11 0
0 0 0

4.32047e-11 -8.62924e-12 0
-8.62924e-12 9.43226e-11 0
0 0 0

2.42323e-12 -1.11711e-11 0
-1.11711e-11 3.27729e-11 0
0 0 0

5.33985e-11 -1.74391e-12 0
-1.74391e-12 1.18108e-10 0
0 0 0

5.08452e-11 -7.09406e-12 0
-7.09406e-12 6.71262e-11 0
0 0 0

3.44618e-11 9.13283e-12 0
9.13283e-12 -2.54061e-11 0
0 0 0

7.24766e-11 4.76106e-12 0
4.76106e-12 1.17599e-10 0
0 0 0

4.13671e-12 4.66704e-12 0
4.66704e-12 -9.61647e-11 0
0 0 0

-5.24514e-11 8.28811e-12 0
8.28811e-12 -1.88063e-10 0
0 0 0

2.81428e-11 -3.2343e-13 0
-3.2343e-13 5.5119e-11 0
0 0 0

-5.67801e-11 -2.13864e-12 0
-2.13864e-12 -1.98164e-10 0
0 0 0

3.05528e-11 -6.4213e-12 0
-6.4213e-12 6.07421e-11 0
0 0 0

1.25722e-10 -9.6568e-12 0
-9.6568e-12 2.84221e-10 0
0 0 0

9.35925e-12 -1.15197e-11 0
-1.15197e-11 -3.48436e-11 0
0 0 0

1.41403e-10 -7.1156e-12 0
-7.1156e-12 3.20811e-10 0
0 0 0

3.67364e-11 -5.0649e-12 0
-5.0649e-12 2.90363e-11 0
0 0 0

-2.94184e-13 1.84801e-12 0
1.84801e-12 5.26293e-11 0
0 0 0

6.14474e-11 -8.62316e-12 0
-8.62316e-12 1.31007e-10 0
0 0 0

-1.25368e-11 1.22628e-11 0
1.22628e-11 2.40632e-11 0
0 0 0

4.4256e-11 5.26733e-12 0
5.26733e-12 9.08934e-11 0
0 0 0

6.05857e-11 -3.36373e-12 0
-3.36373e-12 8.51609e-11 0
0 0 0

1.54843e-11 -6.75378e-12 0
-6.75378e-12 -7.02316e-11 0
0 0 0

5.26042e-11 7.23912e-12 0
7.23912e-12 6.65372e-11 0
0 0 0

3.25796e-11 -9.41572e-12 0
-9.41572e-12 -3.03425e-11 0
0 0 0

-4.41246e-11 3.22708e-12 0
3.22708e-12 -1.83586e-10 0
0 0 0

4.17379e-11 7.98331e-12 0
7.98331e-12 7.93586e-11 0
0 0 0

-6.07191e-11 -8.95023e-12 0
-8.95023e-12 -2.22306e-10 0
0 0 0

3.22743e-11 3.18178e-12 0
3.18178e-12 5.72769e-11 0
0 0 0

1.40056e-10 4.77638e-12 0
4.77638e-12 3.15271e-10 0
0 0 0

1.51003e-11 1.5687e-12 0
1.5687e-12 -1.85603e-11 0
0 0 0

1.35227e-10 1.01664e-11 0
1.01664e-11 3.04003e-10 0
0 0 0

1.90538e-11 1.58943e-11 0
1.58943e-11 -9.33533e-12 0
0 0 0

-4.6646e-12 -2.15506e-11 0
-2.15506e-11 4.29039e-11 0
0 0 0

4.09785e-13 -5.44236e-12 0
-5.44236e-12 7.46155e-11 0
0 0 0

-2.28704e-11 -3.60456e-11 0
-3.60456e-11 4.2374e-13 0
0 0 0

2.47493e-11 -2.41537e-12 0
-2.41537e-12 1.31408e-10 0
0 0 0

-1.61969e-11 2.71645e-11 0
2.71645e-11 4.24382e-11 0
0 0 0

-2.46078e-11 7.97129e-12 0
7.97129e-12 -4.84554e-11 0
0 0 0

4.49149e-11 3.82874e-11 0
3.82874e-11 1.85032e-10 0
0 0 0

-2.41418e-11 9.58868e-12 0
9.58868e-12 -4.73682e-11 0
0 0 0

-6.28254e-11 -8.88443e-12 0
-8.88443e-12 -1.98205e-10 0
0 0 0

6.13535e-12 -1.7917e-11 0
-1.7917e-11 3.17087e-11 0
0 0 0

-9.54699e-11 -1.02395e-11 0
-1.02395e-11 -2.74375e-10 0
0 0 0

-7.32504e-12 -2.14746e-11 0
-2.14746e-11 3.01169e-13 0
0 0 0

1.1987e-10 3.25026e-12 0
3.25026e-12 2.77789e-10 0
0 0 0

2.29416e-11 3.47646e-12 0
3.47646e-12 -3.34544e-11 0
0 0 0

1.02332e-10 1.88008e-11 0
1.88008e-11 2.36868e-10 0
0 0 0

1.10248e-11 1.72311e-11 0
1.72311e-11 -6.12602e-11 0
0 0 0

TENSORS velocity_gradient double
4.90804e-14 1.24591e-13 0
-1.77192e-13 -9.19265e-14 0
0 0 0

-9.155e-15 1.49946e-13 0
-1.24345e-13 -2.52243e-13 0
0 0 0

4.90804e-14 7.65467e-14 0
-1.67866e-13 -4.70735e-14 0
0 0 0

-9.155e-15 8.83134e-14 0
-1.13687e-13 -1.7053e-13 0
0 0 0

-4.88846e-14 -4.52679e-14 0
-4.35207e-14 -1.57208e-13 0
0 0 0

1.87276e-14 -1.68958e-13 0
-4.61853e-14 -1.1724e-13 0
0 0 0

-4.88846e-14 -1.92892e-14 0
-5.24025e-14 -1.09246e-13 0
0 0 0

1.87276e-14 -8.74677e-14 0
-1.42109e-14 -9.9476e-14 0
0 0 0

7.8618e-14 3.20164e-15 0
-1.5099e-14 -2.28262e-13 0
0 0 0

3.26516e-14 1.12284e-13 0
1.06581e-14 1.45661e-13 0
0 0 0

7.8618e-14 -1.70716e-15 0
-1.5099e-14 -2.06946e-13 0
0 0 0

3.26516e-14 5.26318e-14 0
0 1.42109e-13 0
0 0 0

-2.0594e-14 8.26416e-14 0
3.33067e-14 2.6068e-13 0
0 0 0

-4.24413e-14 6.38596e-14 0
3.01981e-14 -1.33227e-13 0
0 0 0

-2.0594e-14 4.86161e-14 0
1.15463e-14 2.67342e-13 0
0 0 0

-4.24413e-14 4.60718e-14 0
3.55271e-14 -9.9476e-14 0
0 0 0

3.94211e-14 3.70804e-14 0
-3.06422e-14 -2.35367e-14 0
0 0 0

5.75743e-15 4.02028e-14 0
-5.32907e-14 -1.52767e-13 0
0 0 0

3.94211e-14 6.19221e-15 0
-2.22045e-14 -5.06262e-14 0
0 0 0

5.75743e-15 5.61398e-15 0
-4.9738e-14 -1.77636e-13 0
0 0 0

-1.91629e-14 -4.25734e-15 0
-4.66294e-14 -1.39e-13 0
0 0 0

3.3005e-15 -3.24279e-14 0
-4.26326e-14 -7.10543e-14 0
0 0 0

-1.91629e-14 -1.72196e-16 0
-4.9738e-14 -9.9476e-14 0
0 0 0

3.3005e-15 -3.83839e-15 0
-2.84217e-14 -7.10543e-14 0
0 0 0

2.75388e-14 1.43072e-15 0
-1.77636e-14 -1.95399e-13 0
0 0 0

3.04524e-14 2.2884e-14 0
-1.42109e-14 1.98952e-13 0
0 0 0

2.75388e-14 1.26153e-14 0
-2.30926e-14 -1.36779e-13 0
0 0 0

3.04524e-14 2.30406e-14 0
-7.10543e-15 1.91847e-13 0
0 0 0

2.91409e-14 2.87457e-14 0
1.33227e-15 2.71339e-13 0
0 0 0

2.06349e-14 3.24597e-14 0
-1.42109e-14 -1.13687e-13 0
0 0 0

2.91409e-14 2.30301e-14 0
-9.76996e-15 2.60236e-13 0
0 0 0

2.06349e-14 2.30235e-14 0
0 -1.27898e-13 0
0 0 0

2.78988e-14 -2.21034e-14 0
-7.10543e-15 -4.9738e-14 0
0 0 0

-8.56231e-16 -2.65666e-14 0
1.42109e-14 -1.35003e-13 0
0 0 0

2.78988e-14 -4.78065e-14 0
-3.55271e-15 -4.61853e-14 0
0 0 0

-8.56231e-16 -5.63389e-14 0
3.55271e-14 -1.35003e-13 0
0 0 0

-2.15125e-14 5.21644e-15 0
5.86198e-14 -7.63833e-14 0
0 0 0

2.50796e-15 2.53546e-14 0
2.13163e-14 -4.26326e-14 0
0 0 0

-2.15125e-14 1.19086e-14 0
3.90799e-14 -1.03029e-13 0
0 0 0

2.50796e-15 5.51511e-14 0
2.13163e-14 -7.81597e-14 0
0 0 0

2.7715e-14 2.39269e-14 0
1.46549e-14 -1.55875e-13 0
0 0 0

3.04297e-14 2.30223e-14 0
-8.88178e-15 1.82965e-13 0
0 0 0

2.7715e-14 3.53655e-14 0
-3.55271e-15 -1.88294e-13 0
0 0 0

3.04297e-14 2.2829e-14 0
0 1.84741e-13 0
0 0 0

2.95232e-14 1.86492e-14 0
-2.04281e-14 2.78e-13 0
0 0 0

2.5121e-14 1.58784e-14 0
-2.84217e-14 -1.27898e-13 0
0 0 0

2.95232e-14 1.56028e-14 0
-2.4869e-14 2.52243e-13 0
0 0 0

2.5121e-14 1.10242e-14 0
-2.13163e-14 -1.42109e-13 0
0 0 0

2.88303e-14 -8.28733e-14 0
1.66089e-13 -3.9968e-14 0
0 0 0

-2.33135e-14 -9.85825e-14 0
8.88178e-14 -1.52767e-13 0
0 0 0

2.88303e-14 -1.27304e-13 0
1.42997e-13 -9.85878e-14 0
0 0 0

-2.33135e-14 -1.53297e-13 0
7.81597e-14 -2.34479e-13 0
0 0 0

-5.59589e-14 3.2036e-14 0
2.39808e-14 -1.32339e-13 0
0 0 0

1.95543e-14 1.14798e-13 0
-8.88178e-15 -8.70415e-14 0
0 0 0

-5.59589e-14 6.55988e-14 0
2.13163e-14 -1.35003e-13 0
0 0 0

1.95543e-14 2.04294e-13 0
7.10543e-15 -1.35003e-13 0
0 0 0

8.59385e-14 3.96083e-14 0
-2.53131e-14 -1.95843e-13 0
0 0 0

3.90526e-14 -8.03267e-15 0
-4.26326e-14 1.56319e-13 0
0 0 0

8.59385e-14 3.66554e-14 0
-3.55271e-14 -1.84741e-13 0
0 0 0

3.90526e-14 -6.95628e-14 0
-5.68434e-14 1.27898e-13 0
0 0 0

-1.50953e-14 -1.92083e-15 0
-6.30607e-14 2.63789e-13 0
0 0 0

-3.30637e-14 1.95172e-15 0
-6.39488e-14 -1.27898e-13 0
0 0 0

-1.50953e-14 -3.39218e-14 0
-7.28306e-14 2.39808e-13 0
0 0 0

-3.30637e-14 -1.13392e-14 0
-6.39488e-14 -1.06581e-13 0
0 0 0

SCALARS active double 1
LOOKUP_TABLE default
1
1
1
1
1
1
1
1
1
1
1
1
1
1
1
1
1
1
1
1
1
1
1
1
1
1
1
1
1
1
1
1
1
1
1
1
1
1
1
1
1
1
1
1
1
1
1
1
1
1
1
1
1
1
1
1
1
1
1
1
1
1
1
1
SCALARS extent double 1
LOOKUP_TABLE default
0.0125
0.0125
0.0125
0.0125
0.0125
0.0125
0.0125
0.0125
0.0125
0.0125
0.0125
0.0125
0.0125
0.0125
0.0125
0.0125
0.0125
0.0125
0.0125
0.0125
0.0125
0.0125
0.0125
0.0125
0.0125
0.0125
0.0125
0.0125
0.0125
0.0125
0.0125
0.0125
0.0125
0.0125
0.0125
0.0125
0.0125
0.0125
0.0125
0.0125
0.0125
0.0125
0.0125
0.0125
0.0125
0.0125
0.0125
0.0125
0.0125
0.0125
0.0125
0.0125
0.0125
0.0125
0.0125
0.0125
0.0125
0.0125
0.0125
0.0125
0.0125
0.0125
0.0125
0.0125
SCALARS pressure double 1
LOOKUP_TABLE default
-3.79166e-12
-6.12328e-11
-9.25003e-12
-4.64343e-11
-1.12364e-10
2.04223e-11
-3.74078e-11
3.9144e-11
1.75263e-10
-7.28348e-12
1.30457e-10
-2.20313e-11
-1.62017e-10
1.71899e-11
-1.98366e-10
-1.16839e-11
-2.39498e-11
-6.87636e-11
-1.75981e-11
-8.57533e-11
-5.89857e-11
-4.52787e-12
-9.50379e-11
4.6014e-11
1.20257e-10
-4.16309e-11
1.27472e-10
-4.56474e-11
-2.04971e-10
1.27422e-11
-2.31107e-10
-3.28864e-11
-2.61676e-11
-9.6227e-11
-5.76323e-12
-6.75747e-11
-7.28733e-11
2.73736e-11
-5.95707e-11
-1.11855e-12
1.13855e-10
-6.05482e-11
1.41513e-10
-4.47756e-11
-2.27664e-10
1.73003e-12
-2.19615e-10
-4.85925e-12
-1.91197e-11
-3.75126e-11
1.12233e-11
-7.80785e-11
-1.31207e-11
3.65316e-11
-1.14974e-10
3.5755e-11
1.30515e-10
-1.8922e-11
1.84923e-10
3.51193e-12
-1.98829e-10
5.25642e-12
-1.696e-10
2.51177e-11
SCALARS density double 1
LOOKUP_TABLE default
1000
1000
1000
1000
1000
1000
1000
1000
1000
1000
1000
1000
1000
1000
1000
1000
1000
1000
1000
1000
1000
1000
1000
1000
1000
1000
1000
1000
1000
1000
1000
1000
1000
1000
1000
1000
1000
1000
1000
1000
1000
1000
1000
1000
1000
1000
1000
1000
1000
1000
1000
1000
1000
1000
1000
1000
1000
1000
1000
1000
1000
1000
1000
1000
