# vtk DataFile Version 3.0
Frame: 1, Time: 0.034
ASCII
DATASET UNSTRUCTURED_GRID
POINTS 64 double
0.4125 0.40632 0 
0.4125 0.43132 0 
0.4375 0.40632 0 
0.4375 0.43132 0 
0.4125 0.45632 0 
0.4125 0.48132 0 
0.4375 0.45632 0 
0.4375 0.48132 0 
0.4125 0.50632 0 
0.4125 0.53132 0 
0.4375 0.50632 0 
0.4375 0.53132 0 
0.4125 0.55632 0 
0.4125 0.58132 0 
0.4375 0.55632 0 
0.4375 0.58132 0 
0.4625 0.40632 0 
0.4625 0.43132 0 
0.4875 0.40632 0 
0.4875 0.43132 0 
0.4625 0.45632 0 
0.4625 0.48132 0 
0.4875 0.45632 0 
0.4875 0.48132 0 
0.4625 0.50632 0 
0.4625 0.53132 0 
0.4875 0.50632 0 
0.4875 0.53132 0 
0.4625 0.55632 0 
0.4625 0.58132 0 
0.4875 0.55632 0 
0.4875 0.58132 0 
0.5125 0.40632 0 
0.5125 0.43132 0 
0.5375 0.40632 0 
0.5375 0.43132 0 
0.5125 0.45632 0 
0.5125 0.48132 0 
0.5375 0.45632 0 
0.5375 0.48132 0 
0.5125 0.50632 0 
0.5125 0.53132 0 
0.5375 0.50632 0 
0.5375 0.53132 0 
0.5125 0.55632 0 
0.5125 0.58132 0 
0.5375 0.55632 0 
0.5375 0.58132 0 
0.5625 0.40632 0 
0.5625 0.43132 0 
0.5875 0.40632 0 
0.5875 0.43132 0 
0.5625 0.45632 0 
0.5625 0.48132 0 
0.5875 0.45632 0 
0.5875 0.48132 0 
0.5625 0.50632 0 
0.5625 0.53132 0 
0.5875 0.50632 0 
0.5875 0.53132 0 
0.5625 0.55632 0 
0.5625 0.58132 0 
0.5875 0.55632 0 
0.5875 0.58132 0 
CELLS 64 128
1 0
1 1
1 2
1 3
1 4
1 5
1 6
1 7
1 8
1 9
1 10
1 11
1 12
1 13
1 14
1 15
1 16
1 17
1 18
1 19
1 20
1 21
1 22
1 23
1 24
1 25
1 26
1 27
1 28
1 29
1 30
1 31
1 32
1 33
1 34
1 35
1 36
1 37
1 38
1 39
1 40
1 41
1 42
1 43
1 44
1 45
1 46
1 47
1 48
1 49
1 50
1 51
1 52
1 53
1 54
1 55
1 56
1 57
1 58
1 59
1 60
1 61
1 62
1 63
CELL_TYPES 64
1
1
1
1
1
1
1
1
1
1
1
1
1
1
1
1
1
1
1
1
1
1
1
1
1
1
1
1
1
1
1
1
1
1
1
1
1
1
1
1
1
1
1
1
1
1
1
1
1
1
1
1
1
1
1
1
1
1
1
1
1
1
1
1
POINT_DATA 64
VECTORS displacement double
1.29349e-18 -0.0061803 0 
9.32606e-19 -0.0061803 0 
1.29367e-18 -0.0061803 0 
8.40272e-19 -0.0061803 0 
5.69681e-19 -0.0061803 0 
2.08465e-19 -0.0061803 0 
4.28855e-19 -0.0061803 0 
8.61351e-20 -0.0061803 0 
-2.26959e-19 -0.0061803 0 
-7.49369e-19 -0.0061803 0 
-3.12072e-19 -0.0061803 0 
-7.78661e-19 -0.0061803 0 
-1.32401e-18 -0.0061803 0 
-1.9878e-18 -0.0061803 0 
-1.29697e-18 -0.0061803 0 
-1.90203e-18 -0.0061803 0 
1.31391e-18 -0.0061803 0 
7.77417e-19 -0.0061803 0 
1.35422e-18 -0.0061803 0 
7.44043e-19 -0.0061803 0 
3.29274e-19 -0.0061803 0 
1.73603e-20 -0.0061803 0 
2.70936e-19 -0.0061803 0 
2.14078e-21 -0.0061803 0 
-3.46701e-19 -0.0061803 0 
-7.94725e-19 -0.0061803 0 
-3.30845e-19 -0.0061803 0 
-7.97562e-19 -0.0061803 0 
-1.27111e-18 -0.0061803 0 
-1.79273e-18 -0.0061803 0 
-1.24642e-18 -0.0061803 0 
-1.65989e-18 -0.0061803 0 
1.23252e-18 -0.0061803 0 
7.00122e-19 -0.0061803 0 
9.48826e-19 -0.0061803 0 
6.45656e-19 -0.0061803 0 
2.76178e-19 -0.0061803 0 
3.35917e-21 -0.0061803 0 
3.44997e-19 -0.0061803 0 
2.10154e-20 -0.0061803 0 
-3.30656e-19 -0.0061803 0 
-8.11232e-19 -0.0061803 0 
-3.46134e-19 -0.0061803 0 
-8.35735e-19 -0.0061803 0 
-1.22085e-18 -0.0061803 0 
-1.49916e-18 -0.0061803 0 
-1.19438e-18 -0.0061803 0 
-1.31051e-18 -0.0061803 0 
7.64631e-19 -0.0061803 0 
5.6017e-19 -0.0061803 0 
6.7994e-19 -0.0061803 0 
4.43663e-19 -0.0061803 0 
3.11177e-19 -0.0061803 0 
-3.74768e-20 -0.0061803 0 
1.74717e-19 -0.0061803 0 
-1.72118e-19 -0.0061803 0 
-3.76428e-19 -0.0061803 0 
-7.53438e-19 -0.0061803 0 
-4.21539e-19 -0.0061803 0 
-5.64341e-19 -0.0061803 0 
-1.04243e-18 -0.0061803 0 
-1.13774e-18 -0.0061803 0 
-7.65006e-19 -0.0061803 0 
-9.80832e-19 -0.0061803 0 
VECTORS velocity double
1.42105e-16 -0.34335 0 
6.76437e-17 -0.34335 0 
9.25663e-17 -0.34335 0 
3.18823e-17 -0.34335 0 
-1.16459e-18 -0.34335 0 
-5.40461e-17 -0.34335 0 
-1.83121e-17 -0.34335 0 
-5.26594e-17 -0.34335 0 
-9.22728e-17 -0.34335 0 
-8.8828e-17 -0.34335 0 
-7.24275e-17 -0.34335 0 
-5.23171e-17 -0.34335 0 
-1.18094e-16 -0.34335 0 
-2.02319e-16 -0.34335 0 
-6.40272e-17 -0.34335 0 
-1.28358e-16 -0.34335 0 
7.95035e-17 -0.34335 0 
2.34983e-17 -0.34335 0 
1.02917e-16 -0.34335 0 
4.24918e-17 -0.34335 0 
-1.22462e-17 -0.34335 0 
-2.67293e-17 -0.34335 0 
1.70332e-17 -0.34335 0 
2.37444e-17 -0.34335 0 
-3.71244e-17 -0.34335 0 
-2.90857e-17 -0.34335 0 
1.36365e-17 -0.34335 0 
-1.91339e-17 -0.34335 0 
-4.69683e-17 -0.34335 0 
-1.07974e-16 -0.34335 0 
-6.69172e-17 -0.34335 0 
-1.41165e-16 -0.34335 0 
9.90311e-17 -0.34335 0 
6.13902e-17 -0.34335 0 
6.78468e-17 -0.34335 0 
8.01936e-17 -0.34335 0 
5.09207e-17 -0.34335 0 
6.01901e-17 -0.34335 0 
8.94164e-17 -0.34335 0 
8.2608e-17 -0.34335 0 
3.96716e-17 -0.34335 0 
-3.05905e-17 -0.34335 0 
4.09808e-17 -0.34335 0 
-6.34554e-17 -0.34335 0 
-9.34331e-17 -0.34335 0 
-1.476e-16 -0.34335 0 
-1.26516e-16 -0.34335 0 
-1.27279e-16 -0.34335 0 
4.71195e-17 -0.34335 0 
7.09217e-17 -0.34335 0 
3.68494e-17 -0.34335 0 
3.35746e-17 -0.34335 0 
7.97084e-17 -0.34335 0 
6.20129e-17 -0.34335 0 
2.17969e-17 -0.34335 0 
-1.59507e-18 -0.34335 0 
2.33254e-17 -0.34335 0 
-6.4273e-17 -0.34335 0 
-1.32946e-17 -0.34335 0 
-3.3043e-17 -0.34335 0 
-1.16796e-16 -0.34335 0 
-1.03942e-16 -0.34335 0 
-6.42742e-17 -0.34335 0 
-7.75874e-17 -0.34335 0 
SCALARS mass double 1
LOOKUP_TABLE default
0.625
0.625
0.625
0.625
0.625
0.625
0.625
0.625
0.625
0.625
0.625
0.625
0.625
0.625
0.625
0.625
0.625
0.625
0.625
0.625
0.625
0.625
0.625
0.625
0.625
0.625
0.625
0.625
0.625
0.625
0.625
0.625
0.625
0.625
0.625
0.625
0.625
0.625
0.625
0.625
0.625
0.625
0.625
0.625
0.625
0.625
0.625
0.625
0.625
0.625
0.625
0.625
0.625
0.625
0.625
0.625
0.625
0.625
0.625
0.625
0.625
0.625
0.625
0.625
SCALARS volume double 1
LOOKUP_TABLE default
0.000625
0.000625
0.000625
0.000625
0.000625
0.000625
0.000625
0.000625
0.000625
0.000625
0.000625
0.000625
0.000625
0.000625
0.000625
0.000625
0.000625
0.000625
0.000625
0.000625
0.000625
0.000625
0.000625
0.000625
0.000625
0.000625
0.000625
0.000625
0.000625
0.000625
0.000625
0.000625
0.000625
0.000625
0.000625
0.000625
0.000625
0.000625
0.000625
0.000625
0.000625
0.000625
0.000625
0.000625
0.000625
0.000625
0.000625
0.000625
0.000625
0.000625
0.000625
0.000625
0.000625
0.000625
0.000625
0.000625
0.000625
0.000625
0.000625
0.000625
0.000625
0.000625
0.000625
0.000625
VECTORS momentum double
8.88158e-17 -0.214594 0 
4.22773e-17 -0.214594 0 
5.7854e-17 -0.214594 0 
1.99264e-17 -0.214594 0 
-7.27867e-19 -0.214594 0 
-3.37788e-17 -0.214594 0 
-1.14451e-17 -0.214594 0 
-3.29121e-17 -0.214594 0 
-5.76705e-17 -0.214594 0 
-5.55175e-17 -0.214594 0 
-4.52672e-17 -0.214594 0 
-3.26982e-17 -0.214594 0 
-7.38087e-17 -0.214594 0 
-1.26449e-16 -0.214594 0 
-4.0017e-17 -0.214594 0 
-8.02238e-17 -0.214594 0 
4.96897e-17 -0.214594 0 
1.46864e-17 -0.214594 0 
6.43229e-17 -0.214594 0 
2.65574e-17 -0.214594 0 
-7.65386e-18 -0.214594 0 
-1.67058e-17 -0.214594 0 
1.06457e-17 -0.214594 0 
1.48403e-17 -0.214594 0 
-2.32027e-17 -0.214594 0 
-1.81786e-17 -0.214594 0 
8.52283e-18 -0.214594 0 
-1.19587e-17 -0.214594 0 
-2.93552e-17 -0.214594 0 
-6.74835e-17 -0.214594 0 
-4.18233e-17 -0.214594 0 
-8.82282e-17 -0.214594 0 
6.18944e-17 -0.214594 0 
3.83689e-17 -0.214594 0 
4.24042e-17 -0.214594 0 
5.0121e-17 -0.214594 0 
3.18254e-17 -0.214594 0 
3.76188e-17 -0.214594 0 
5.58852e-17 -0.214594 0 
5.163e-17 -0.214594 0 
2.47947e-17 -0.214594 0 
-1.9119e-17 -0.214594 0 
2.5613e-17 -0.214594 0 
-3.96596e-17 -0.214594 0 
-5.83957e-17 -0.214594 0 
-9.22502e-17 -0.214594 0 
-7.90724e-17 -0.214594 0 
-7.95496e-17 -0.214594 0 
2.94497e-17 -0.214594 0 
4.43261e-17 -0.214594 0 
2.30308e-17 -0.214594 0 
2.09841e-17 -0.214594 0 
4.98178e-17 -0.214594 0 
3.87581e-17 -0.214594 0 
1.3623e-17 -0.214594 0 
-9.96918e-19 -0.214594 0 
1.45784e-17 -0.214594 0 
-4.01706e-17 -0.214594 0 
-8.30913e-18 -0.214594 0 
-2.06519e-17 -0.214594 0 
-7.29976e-17 -0.214594 0 
-6.49636e-17 -0.214594 0 
-4.01714e-17 -0.214594 0 
-4.84921e-17 -0.214594 0 
VECTORS body_force double
0 -9.81 0 
0 -9.81 0 
0 -9.81 0 
0 -9.81 0 
0 -9.81 0 
0 -9.81 0 
0 -9.81 0 
0 -9.81 0 
0 -9.81 0 
0 -9.81 0 
0 -9.81 0 
0 -9.81 0 
0 -9.81 0 
0 -9.81 0 
0 -9.81 0 
0 -9.81 0 
0 -9.81 0 
0 -9.81 0 
0 -9.81 0 
0 -9.81 0 
0 -9.81 0 
0 -9.81 0 
0 -9.81 0 
0 -9.81 0 
0 -9.81 0 
0 -9.81 0 
0 -9.81 0 
0 -9.81 0 
0 -9.81 0 
0 -9.81 0 
0 -9.81 0 
0 -9.81 0 
0 -9.81 0 
0 -9.81 0 
0 -9.81 0 
0 -9.81 0 
0 -9.81 0 
0 -9.81 0 
0 -9.81 0 
0 -9.81 0 
0 -9.81 0 
0 -9.81 0 
0 -9.81 0 
0 -9.81 0 
0 -9.81 0 
0 -9.81 0 
0 -9.81 0 
0 -9.81 0 
0 -9.81 0 
0 -9.81 0 
0 -9.81 0 
0 -9.81 0 
0 -9.81 0 
0 -9.81 0 
0 -9.81 0 
0 -9.81 0 
0 -9.81 0 
0 -9.81 0 
0 -9.81 0 
0 -9.81 0 
0 -9.81 0 
0 -9.81 0 
0 -9.81 0 
0 -9.81 0 
TENSORS cauchy_stress double
1.33765e-12 1.39485e-13 0
1.39485e-13 3.11932e-12 0
0 0 0

1.2306e-12 2.72125e-13 0
2.72125e-13 3.81842e-12 0
0 0 0

-8.22919e-14 -5.22463e-13 0
-5.22463e-13 -1.93871e-13 0
0 0 0

-9.9038e-13 -2.96148e-13 0
-2.96148e-13 -1.36387e-12 0
0 0 0

-2.15857e-13 -6.46723e-13 0
-6.46723e-13 9.40699e-13 0
0 0 0

1.7877e-13 6.23789e-14 0
6.23789e-14 1.6718e-12 0
0 0 0

-3.35553e-13 -2.39031e-13 0
-2.39031e-13 6.61408e-13 0
0 0 0

1.67561e-13 -3.05217e-13 0
-3.05217e-13 1.64564e-12 0
0 0 0

-4.86726e-13 -3.87108e-13 0
-3.87108e-13 -2.62735e-13 0
0 0 0

-8.62287e-13 -5.68854e-13 0
-5.68854e-13 -1.71158e-12 0
0 0 0

-6.1683e-13 -4.00775e-13 0
-4.00775e-13 -5.66312e-13 0
0 0 0

1.59331e-13 1.51134e-13 0
1.51134e-13 6.72197e-13 0
0 0 0

-6.39835e-13 1.37471e-14 0
1.37471e-14 -1.77027e-12 0
0 0 0

-7.45527e-13 1.10358e-13 0
1.10358e-13 -2.61926e-12 0
0 0 0

-6.5825e-13 8.32865e-14 0
8.32865e-14 -1.81324e-12 0
0 0 0

-5.05705e-14 4.01408e-13 0
4.01408e-13 -9.97693e-13 0
0 0 0

1.64058e-12 -7.70466e-14 0
-7.70466e-14 3.41461e-12 0
0 0 0

-3.23824e-13 5.51724e-13 0
5.51724e-13 -4.13287e-13 0
0 0 0

-4.55759e-14 -3.3476e-14 0
-3.3476e-14 -5.19743e-13 0
0 0 0

9.6681e-13 5.21636e-13 0
5.21636e-13 2.59819e-12 0
0 0 0

4.53135e-15 2.87681e-13 0
2.87681e-13 6.08905e-13 0
0 0 0

7.49747e-14 7.81944e-13 0
7.81944e-13 3.31038e-13 0
0 0 0

1.61457e-13 6.20897e-13 0
6.20897e-13 9.75065e-13 0
0 0 0

-2.99726e-13 3.31599e-13 0
3.31599e-13 -5.43262e-13 0
0 0 0

-7.27673e-13 5.04489e-13 0
5.04489e-13 -1.86053e-12 0
0 0 0

-1.00146e-13 -3.14568e-13 0
-3.14568e-13 -2.04573e-13 0
0 0 0

-3.54975e-13 6.02498e-13 0
6.02498e-13 -9.90899e-13 0
0 0 0

6.09223e-13 3.64441e-13 0
3.64441e-13 1.45062e-12 0
0 0 0

-1.18255e-12 2.18595e-13 0
2.18595e-13 -3.01243e-12 0
0 0 0

-1.81402e-14 1.7109e-13 0
1.7109e-13 -1.4047e-12 0
0 0 0

-6.74138e-13 -1.64263e-13 0
-1.64263e-13 -1.82615e-12 0
0 0 0

9.58643e-13 7.2605e-13 0
7.2605e-13 8.74456e-13 0
0 0 0

3.89129e-13 -5.58015e-14 0
-5.58015e-14 3.8177e-12 0
0 0 0

1.06141e-12 4.08571e-13 0
4.08571e-13 3.03524e-12 0
0 0 0

-5.02786e-13 -5.64865e-14 0
-5.64865e-14 1.73656e-12 0
0 0 0

7.95592e-13 1.48478e-13 0
1.48478e-13 2.41501e-12 0
0 0 0

1.21204e-12 4.89274e-13 0
4.89274e-13 2.12226e-12 0
0 0 0

5.56242e-13 1.08976e-12 0
1.08976e-12 1.11681e-12 0
0 0 0

-6.09417e-13 3.68394e-13 0
3.68394e-13 -2.12782e-12 0
0 0 0

8.92511e-13 6.69435e-13 0
6.69435e-13 1.90144e-12 0
0 0 0

-1.16941e-12 8.63803e-13 0
8.63803e-13 -2.56988e-12 0
0 0 0

-1.36973e-12 2.24624e-13 0
2.24624e-13 -2.94473e-12 0
0 0 0

2.12893e-13 3.87949e-13 0
3.87949e-13 6.55502e-13 0
0 0 0

-6.12323e-13 5.32064e-13 0
5.32064e-13 -1.17744e-12 0
0 0 0

5.53244e-13 6.63375e-13 0
6.63375e-13 1.01945e-12 0
0 0 0

-4.91042e-13 -4.91962e-14 0
-4.91962e-14 -3.08056e-12 0
0 0 0

-2.09768e-13 4.66117e-13 0
4.66117e-13 -7.60914e-13 0
0 0 0

9.54917e-13 9.67544e-14 0
9.67544e-14 2.93348e-13 0
0 0 0

3.38208e-13 -2.22749e-13 0
-2.22749e-13 1.65778e-12 0
0 0 0

7.6097e-13 2.26678e-13 0
2.26678e-13 2.97053e-12 0
0 0 0

2.21314e-13 -3.13329e-13 0
-3.13329e-13 1.38503e-12 0
0 0 0

1.01878e-12 -2.11915e-13 0
-2.11915e-13 3.57208e-12 0
0 0 0

9.23341e-13 -4.83548e-13 0
-4.83548e-13 3.55406e-12 0
0 0 0

2.56598e-13 -3.36764e-13 0
-3.36764e-13 1.97966e-12 0
0 0 0

-1.17994e-12 -6.93719e-13 0
-6.93719e-13 -1.35361e-12 0
0 0 0

1.55524e-12 -2.43225e-13 0
-2.43225e-13 5.00982e-12 0
0 0 0

-1.9875e-12 -3.21141e-13 0
-3.21141e-13 -4.17483e-12 0
0 0 0

-6.58525e-14 -3.63308e-13 0
-3.63308e-13 -2.09312e-12 0
0 0 0

3.36763e-13 -3.20043e-13 0
-3.20043e-13 1.24845e-12 0
0 0 0

1.43916e-13 3.99467e-13 0
3.99467e-13 -1.60366e-12 0
0 0 0

-3.01996e-13 -3.50682e-14 0
-3.50682e-14 -3.55007e-12 0
0 0 0

-2.4879e-13 3.80571e-14 0
3.80571e-14 -2.18982e-12 0
0 0 0

6.57973e-13 -1.03591e-13 0
-1.03591e-13 -1.31014e-12 0
0 0 0

-5.50347e-14 -3.87551e-13 0
-3.87551e-13 -1.73772e-12 0
0 0 0

TENSORS velocity_gradient double
-7.82283e-16 -1.96433e-15 0
-2.44249e-15 8.21565e-15 0
0 0 0

-3.87808e-16 -1.96433e-15 0
8.88178e-16 4.44089e-15 0
0 0 0

-7.82283e-16 -1.56985e-15 0
-6.21725e-15 -8.88178e-16 0
0 0 0

-3.87808e-16 -1.56985e-15 0
-1.77636e-15 5.32907e-15 0
0 0 0

-5.47538e-18 -1.55515e-15 0
-1.9984e-15 -3.77476e-15 0
0 0 0

3.43442e-16 -1.55515e-15 0
-5.32907e-15 1.77636e-15 0
0 0 0

-5.47538e-18 -1.20623e-15 0
-1.77636e-15 -5.32907e-15 0
0 0 0

3.43442e-16 -1.20623e-15 0
-1.77636e-15 1.77636e-15 0
0 0 0

6.78758e-16 -7.51018e-16 0
-4.44089e-16 -5.77316e-15 0
0 0 0

9.76643e-16 -7.51018e-16 0
-8.88178e-16 -8.88178e-16 0
0 0 0

6.78758e-16 -4.53134e-16 0
-5.77316e-15 -2.22045e-15 0
0 0 0

9.76643e-16 -4.53134e-16 0
3.55271e-15 3.55271e-15 0
0 0 0

1.22727e-15 -1.17244e-15 0
3.33067e-15 -2.22045e-16 0
0 0 0

1.34785e-15 -1.17244e-15 0
5.32907e-15 -1.77636e-15 0
0 0 0

1.22727e-15 -1.05187e-15 0
5.32907e-15 -1.77636e-15 0
0 0 0

1.34785e-15 -1.05187e-15 0
3.55271e-15 -3.55271e-15 0
0 0 0

2.10709e-16 -1.16388e-15 0
1.77636e-15 5.32907e-15 0
0 0 0

6.28172e-16 -1.16388e-15 0
4.44089e-16 7.54952e-15 0
0 0 0

2.10709e-16 -7.46421e-16 0
-8.88178e-16 2.66454e-15 0
0 0 0

6.28172e-16 -7.46421e-16 0
-3.55271e-15 7.10543e-15 0
0 0 0

9.69775e-16 -9.65354e-16 0
-1.11022e-15 -1.11022e-15 0
0 0 0

1.1026e-15 -9.65354e-16 0
2.66454e-15 -8.88178e-16 0
0 0 0

9.69775e-16 -8.32524e-16 0
-4.44089e-16 -4.44089e-16 0
0 0 0

1.1026e-15 -8.32524e-16 0
1.77636e-15 1.77636e-15 0
0 0 0

1.02014e-15 -6.41666e-16 0
7.10543e-15 5.32907e-15 0
0 0 0

3.45196e-16 -6.41666e-16 0
1.33227e-15 3.10862e-15 0
0 0 0

1.02014e-15 -1.31661e-15 0
4.88498e-15 1.33227e-15 0
0 0 0

3.45196e-16 -1.31661e-15 0
3.55271e-15 0 0
0 0 0

-1.94852e-16 -1.07598e-15 0
5.77316e-15 -4.88498e-15 0
0 0 0

-3.63648e-16 -1.07598e-15 0
3.10862e-15 -3.9968e-15 0
0 0 0

-1.94852e-16 -1.24477e-15 0
3.9968e-15 -3.10862e-15 0
0 0 0

-3.63648e-16 -1.24477e-15 0
5.32907e-15 0 0
0 0 0

-1.73478e-16 -3.93381e-16 0
-1.55431e-15 1.9984e-15 0
0 0 0

1.15139e-16 -3.93381e-16 0
2.66454e-15 2.66454e-15 0
0 0 0

-1.73478e-16 -1.04764e-16 0
-2.66454e-15 8.88178e-16 0
0 0 0

1.15139e-16 -1.04764e-16 0
1.77636e-15 1.77636e-15 0
0 0 0

3.17486e-16 -7.83644e-16 0
2.22045e-16 3.77476e-15 0
0 0 0

2.82415e-16 -7.83644e-16 0
1.77636e-15 7.10543e-15 0
0 0 0

3.17486e-16 -8.18715e-16 0
-4.44089e-16 3.10862e-15 0
0 0 0

2.82415e-16 -8.18715e-16 0
1.77636e-15 8.88178e-15 0
0 0 0

1.82666e-16 -1.79296e-15 0
4.88498e-15 -2.22045e-15 0
0 0 0

-9.50799e-17 -1.79296e-15 0
4.88498e-15 -2.22045e-15 0
0 0 0

1.82666e-16 -2.07071e-15 0
1.77636e-15 3.55271e-15 0
0 0 0

-9.50799e-17 -2.07071e-15 0
0 -7.10543e-15 0
0 0 0

-2.28546e-16 -1.19737e-15 0
3.33067e-15 -3.77476e-15 0
0 0 0

3.50497e-17 -1.19737e-15 0
1.77636e-15 -5.32907e-15 0
0 0 0

-2.28546e-16 -9.33776e-16 0
8.88178e-16 -7.99361e-15 0
0 0 0

3.50497e-17 -9.33776e-16 0
1.77636e-15 -5.32907e-15 0
0 0 0

-8.04183e-16 1.93494e-17 0
1.11022e-15 2.88658e-15 0
0 0 0

-8.44573e-16 1.93494e-17 0
8.88178e-16 8.88178e-16 0
0 0 0

-8.04183e-16 -2.10408e-17 0
2.66454e-15 2.66454e-15 0
0 0 0

-8.44573e-16 -2.10408e-17 0
1.77636e-15 5.32907e-15 0
0 0 0

-8.18962e-16 -7.32627e-16 0
-4.44089e-16 3.10862e-15 0
0 0 0

-6.11715e-16 -7.32627e-16 0
-1.77636e-15 7.10543e-15 0
0 0 0

-8.18962e-16 -5.2538e-16 0
-3.10862e-15 4.44089e-16 0
0 0 0

-6.11715e-16 -5.2538e-16 0
1.77636e-15 8.88178e-15 0
0 0 0

-3.60662e-16 -2.02378e-15 0
5.77316e-15 -4.88498e-15 0
0 0 0

1.0947e-17 -2.02378e-15 0
1.33227e-15 1.33227e-15 0
0 0 0

-3.60662e-16 -1.65217e-15 0
4.44089e-16 -3.10862e-15 0
0 0 0

1.0947e-17 -1.65217e-15 0
0 -5.32907e-15 0
0 0 0

3.69162e-16 -6.41301e-16 0
1.33227e-15 -2.22045e-15 0
0 0 0

6.90516e-16 -6.41301e-16 0
3.55271e-15 -7.10543e-15 0
0 0 0

3.69162e-16 -3.19947e-16 0
2.66454e-15 -4.44089e-15 0
0 0 0

6.90516e-16 -3.19947e-16 0
3.55271e-15 3.55271e-15 0
0 0 0

SCALARS active double 1
LOOKUP_TABLE default
1
1
1
1
1
1
1
1
1
1
1
1
1
1
1
1
1
1
1
1
1
1
1
1
1
1
1
1
1
1
1
1
1
1
1
1
1
1
1
1
1
1
1
1
1
1
1
1
1
1
1
1
1
1
1
1
1
1
1
1
1
1
1
1
SCALARS extent double 1
LOOKUP_TABLE default
0.0125
0.0125
0.0125
0.0125
0.0125
0.0125
0.0125
0.0125
0.0125
0.0125
0.0125
0.0125
0.0125
0.0125
0.0125
0.0125
0.0125
0.0125
0.0125
0.0125
0.0125
0.0125
0.0125
0.0125
0.0125
0.0125
0.0125
0.0125
0.0125
0.0125
0.0125
0.0125
0.0125
0.0125
0.0125
0.0125
0.0125
0.0125
0.0125
0.0125
0.0125
0.0125
0.0125
0.0125
0.0125
0.0125
0.0125
0.0125
0.0125
0.0125
0.0125
0.0125
0.0125
0.0125
0.0125
0.0125
0.0125
0.0125
0.0125
0.0125
0.0125
0.0125
0.0125
0.0125
SCALARS pressure double 1
LOOKUP_TABLE default
-2.22848e-12
-2.52451e-12
1.38082e-13
1.17712e-12
-3.62421e-13
-9.25285e-13
-1.62927e-13
-9.06603e-13
3.74731e-13
1.28693e-12
5.91571e-13
-4.15764e-13
1.20505e-12
1.68239e-12
1.23574e-12
5.24132e-13
-2.52759e-12
3.68556e-13
2.82659e-13
-1.7825e-12
-3.06718e-13
-2.03006e-13
-5.68261e-13
4.21494e-13
1.2941e-12
1.52359e-13
6.72937e-13
-1.02992e-12
2.09749e-12
7.11422e-13
1.25014e-12
-9.1655e-13
-2.10341e-12
-2.04832e-12
-6.16887e-13
-1.6053e-12
-1.66715e-12
-8.36525e-13
1.36862e-12
-1.39697e-12
1.86965e-12
2.15723e-12
-4.34197e-13
8.94883e-13
-7.86345e-13
1.7858e-12
4.85341e-13
-6.24132e-13
-9.97993e-13
-1.86575e-12
-8.0317e-13
-2.29543e-12
-2.2387e-12
-1.11813e-12
1.26678e-12
-3.28253e-12
3.08116e-12
1.07948e-12
-7.92607e-13
7.2987e-13
1.92603e-12
1.2193e-12
3.26086e-13
8.96378e-13
SCALARS density double 1
LOOKUP_TABLE default
1000
1000
1000
1000
1000
1000
1000
1000
1000
1000
1000
1000
1000
1000
1000
1000
1000
1000
1000
1000
1000
1000
1000
1000
1000
1000
1000
1000
1000
1000
1000
1000
1000
1000
1000
1000
1000
1000
1000
1000
1000
1000
1000
1000
1000
1000
1000
1000
1000
1000
1000
1000
1000
1000
1000
1000
1000
1000
1000
1000
1000
1000
1000
1000
