# vtk DataFile Version 3.0
Frame: 25, Time: 0.434
ASCII
DATASET UNSTRUCTURED_GRID
POINTS 64 double
0.283688 0.115234 0 
0.286241 0.139764 0 
0.308495 0.111819 0 
0.31123 0.136387 0 
0.286617 0.164082 0 
0.289857 0.18932 0 
0.311835 0.160391 0 
0.314402 0.185249 0 
0.289958 0.214324 0 
0.290915 0.239641 0 
0.315685 0.211225 0 
0.31597 0.236052 0 
0.296458 0.265649 0 
0.299644 0.289204 0 
0.322074 0.261452 0 
0.324884 0.284142 0 
0.333926 0.108776 0 
0.335355 0.133712 0 
0.356835 0.104142 0 
0.357805 0.129388 0 
0.335861 0.158539 0 
0.338068 0.184167 0 
0.359207 0.154428 0 
0.361388 0.180136 0 
0.340571 0.210905 0 
0.341161 0.234749 0 
0.365813 0.208059 0 
0.368263 0.232175 0 
0.347858 0.259073 0 
0.352852 0.284615 0 
0.374571 0.257141 0 
0.378079 0.282205 0 
0.381711 0.100607 0 
0.381377 0.126927 0 
0.408173 0.100551 0 
0.40609 0.125726 0 
0.382998 0.152269 0 
0.384533 0.177654 0 
0.408347 0.150278 0 
0.409686 0.175586 0 
0.389186 0.20415 0 
0.392819 0.228092 0 
0.413433 0.201004 0 
0.417469 0.223876 0 
0.399349 0.253993 0 
0.40415 0.278217 0 
0.424505 0.248033 0 
0.430869 0.272931 0 
0.432798 0.0974411 0 
0.429321 0.123364 0 
0.45813 0.0952942 0 
0.454769 0.120365 0 
0.43324 0.146835 0 
0.434186 0.171408 0 
0.460177 0.142378 0 
0.459902 0.16809 0 
0.43645 0.195601 0 
0.442148 0.218763 0 
0.461258 0.19264 0 
0.468585 0.213669 0 
0.448933 0.243206 0 
0.455103 0.267611 0 
0.474097 0.237347 0 
0.481519 0.260468 0 
CELLS 64 128
1 0
1 1
1 2
1 3
1 4
1 5
1 6
1 7
1 8
1 9
1 10
1 11
1 12
1 13
1 14
1 15
1 16
1 17
1 18
1 19
1 20
1 21
1 22
1 23
1 24
1 25
1 26
1 27
1 28
1 29
1 30
1 31
1 32
1 33
1 34
1 35
1 36
1 37
1 38
1 39
1 40
1 41
1 42
1 43
1 44
1 45
1 46
1 47
1 48
1 49
1 50
1 51
1 52
1 53
1 54
1 55
1 56
1 57
1 58
1 59
1 60
1 61
1 62
1 63
CELL_TYPES 64
1
1
1
1
1
1
1
1
1
1
1
1
1
1
1
1
1
1
1
1
1
1
1
1
1
1
1
1
1
1
1
1
1
1
1
1
1
1
1
1
1
1
1
1
1
1
1
1
1
1
1
1
1
1
1
1
1
1
1
1
1
1
1
1
POINT_DATA 64
VECTORS displacement double
-0.128812 -0.297266 0 
-0.126259 -0.297736 0 
-0.129005 -0.300681 0 
-0.12627 -0.301113 0 
-0.125883 -0.298418 0 
-0.122643 -0.29818 0 
-0.125665 -0.302109 0 
-0.123098 -0.302251 0 
-0.122542 -0.298176 0 
-0.121585 -0.297859 0 
-0.121815 -0.301275 0 
-0.12153 -0.301448 0 
-0.116042 -0.296851 0 
-0.112856 -0.298296 0 
-0.115426 -0.301048 0 
-0.112616 -0.303358 0 
-0.128574 -0.303724 0 
-0.127145 -0.303788 0 
-0.130665 -0.308358 0 
-0.129695 -0.308112 0 
-0.126639 -0.303961 0 
-0.124432 -0.303333 0 
-0.128293 -0.308072 0 
-0.126112 -0.307364 0 
-0.121929 -0.301595 0 
-0.121339 -0.302751 0 
-0.121687 -0.304441 0 
-0.119237 -0.305325 0 
-0.114642 -0.303427 0 
-0.109648 -0.302885 0 
-0.112929 -0.305359 0 
-0.109421 -0.305295 0 
-0.130789 -0.311893 0 
-0.131123 -0.310573 0 
-0.129327 -0.311949 0 
-0.13141 -0.311774 0 
-0.129502 -0.310231 0 
-0.127967 -0.309846 0 
-0.129153 -0.312222 0 
-0.127814 -0.311914 0 
-0.123314 -0.30835 0 
-0.119681 -0.309408 0 
-0.124067 -0.311496 0 
-0.120031 -0.313624 0 
-0.113151 -0.308507 0 
-0.10835 -0.309283 0 
-0.112995 -0.314467 0 
-0.106631 -0.314569 0 
-0.129702 -0.315059 0 
-0.133179 -0.314136 0 
-0.12937 -0.317206 0 
-0.132731 -0.317135 0 
-0.12926 -0.315665 0 
-0.128314 -0.316092 0 
-0.127323 -0.320122 0 
-0.127598 -0.31941 0 
-0.12605 -0.316899 0 
-0.120352 -0.318737 0 
-0.126242 -0.31986 0 
-0.118915 -0.323831 0 
-0.113567 -0.319294 0 
-0.107397 -0.319889 0 
-0.113403 -0.325153 0 
-0.105981 -0.327032 0 
VECTORS velocity double
-1.39226 0.8545 0 
-1.03744 0.889523 0 
-1.1096 0.194092 0 
-1.00076 0.213505 0 
-1.14791 0.254801 0 
-0.836656 0.63372 0 
-0.978721 -0.139193 0 
-1.12774 0.0811483 0 
-0.833466 0.397963 0 
-1.29038 -0.0613685 0 
-1.36721 -0.145001 0 
-1.42625 -0.218327 0 
-1.16018 0.54913 0 
-1.75819 0.345771 0 
-1.37993 0.55109 0 
-2.16549 -0.16485 0 
-0.995156 0.065131 0 
-0.975645 0.368194 0 
-1.19714 0.13181 0 
-1.05474 0.452002 0 
-0.90297 0.101468 0 
-0.797792 0.35965 0 
-1.1048 0.0813599 0 
-1.01318 0.544344 0 
-0.952689 0.340911 0 
-1.05368 0.318715 0 
-0.635669 0.915157 0 
-0.45496 0.847229 0 
-1.25411 0.984963 0 
-1.88923 0.2341 0 
-0.854923 1.57449 0 
-2.03869 0.728827 0 
-0.594193 -0.0478047 0 
-1.01698 0.226905 0 
-0.891414 0.126484 0 
-1.01615 0.789076 0 
-1.20002 0.0390727 0 
-0.977192 0.685168 0 
-1.07465 0.538358 0 
-0.88519 0.861378 0 
-0.913848 0.557521 0 
-0.455108 0.379228 0 
-1.38317 0.376197 0 
-0.937773 0.583192 0 
-0.811624 0.869564 0 
-1.60293 0.453696 0 
-0.733937 1.05152 0 
-1.21005 0.201988 0 
-1.40735 0.502269 0 
-0.749419 1.14998 0 
-1.2479 0.86431 0 
-0.713101 0.445791 0 
-0.767457 0.385153 0 
-0.654665 0.422543 0 
-0.826732 -0.0402739 0 
-0.879975 0.925107 0 
-1.32906 0.356697 0 
-1.16013 0.521 0 
-1.24336 1.06543 0 
-1.10397 0.119569 0 
-0.861948 0.823235 0 
-1.12725 -0.0954714 0 
-0.850755 -0.397793 0 
-0.682212 0.97895 0 
SCALARS mass double 1
LOOKUP_TABLE default
0.625
0.625
0.625
0.625
0.625
0.625
0.625
0.625
0.625
0.625
0.625
0.625
0.625
0.625
0.625
0.625
0.625
0.625
0.625
0.625
0.625
0.625
0.625
0.625
0.625
0.625
0.625
0.625
0.625
0.625
0.625
0.625
0.625
0.625
0.625
0.625
0.625
0.625
0.625
0.625
0.625
0.625
0.625
0.625
0.625
0.625
0.625
0.625
0.625
0.625
0.625
0.625
0.625
0.625
0.625
0.625
0.625
0.625
0.625
0.625
0.625
0.625
0.625
0.625
SCALARS volume double 1
LOOKUP_TABLE default
0.000638762
0.00062028
0.000635183
0.000648792
0.000630014
0.00063675
0.000616941
0.000622613
0.000624766
0.000630429
0.00062259
0.000625008
0.000645747
0.000608736
0.000643495
0.000579798
0.000623557
0.000607102
0.000597484
0.000607428
0.000599684
0.000677983
0.000590484
0.000635396
0.000669277
0.000625671
0.000646409
0.000632884
0.00071707
0.000629292
0.000649696
0.000605796
0.000665314
0.000622235
0.000614444
0.000596314
0.000634155
0.000642765
0.000611367
0.000614342
0.000644853
0.000575467
0.000631357
0.000569413
0.000659799
0.000620985
0.000686781
0.000644726
0.000636923
0.000610762
0.000622002
0.00061963
0.000646948
0.000646638
0.000600675
0.000638063
0.000590774
0.000612911
0.000579967
0.000604533
0.000639408
0.000640752
0.000648474
0.000648673
VECTORS momentum double
-0.870161 0.534062 0 
-0.648398 0.555952 0 
-0.693497 0.121308 0 
-0.625477 0.133441 0 
-0.717441 0.159251 0 
-0.52291 0.396075 0 
-0.611701 -0.0869954 0 
-0.704835 0.0507177 0 
-0.520916 0.248727 0 
-0.80649 -0.0383553 0 
-0.854506 -0.0906259 0 
-0.891409 -0.136454 0 
-0.725114 0.343206 0 
-1.09887 0.216107 0 
-0.862458 0.344431 0 
-1.35343 -0.103031 0 
-0.621973 0.0407068 0 
-0.609778 0.230121 0 
-0.748212 0.0823813 0 
-0.659215 0.282501 0 
-0.564356 0.0634173 0 
-0.49862 0.224781 0 
-0.690502 0.0508499 0 
-0.633239 0.340215 0 
-0.59543 0.213069 0 
-0.658549 0.199197 0 
-0.397293 0.571973 0 
-0.28435 0.529518 0 
-0.78382 0.615602 0 
-1.18077 0.146312 0 
-0.534327 0.984057 0 
-1.27418 0.455517 0 
-0.371371 -0.029878 0 
-0.635614 0.141816 0 
-0.557134 0.0790528 0 
-0.635094 0.493172 0 
-0.750014 0.0244205 0 
-0.610745 0.42823 0 
-0.671655 0.336474 0 
-0.553244 0.538361 0 
-0.571155 0.348451 0 
-0.284443 0.237017 0 
-0.86448 0.235123 0 
-0.586108 0.364495 0 
-0.507265 0.543478 0 
-1.00183 0.28356 0 
-0.458711 0.657203 0 
-0.756278 0.126242 0 
-0.879592 0.313918 0 
-0.468387 0.71874 0 
-0.779935 0.540194 0 
-0.445688 0.27862 0 
-0.479661 0.240721 0 
-0.409166 0.26409 0 
-0.516708 -0.0251712 0 
-0.549984 0.578192 0 
-0.830663 0.222935 0 
-0.725082 0.325625 0 
-0.777102 0.665892 0 
-0.689978 0.0747304 0 
-0.538718 0.514522 0 
-0.704529 -0.0596697 0 
-0.531722 -0.248621 0 
-0.426382 0.611844 0 
VECTORS body_force double
0 -9.81 0 
0 -9.81 0 
0 -9.81 0 
0 -9.81 0 
0 -9.81 0 
0 -9.81 0 
0 -9.81 0 
0 -9.81 0 
0 -9.81 0 
0 -9.81 0 
0 -9.81 0 
0 -9.81 0 
0 -9.81 0 
0 -9.81 0 
0 -9.81 0 
0 -9.81 0 
0 -9.81 0 
0 -9.81 0 
0 -9.81 0 
0 -9.81 0 
0 -9.81 0 
0 -9.81 0 
0 -9.81 0 
0 -9.81 0 
0 -9.81 0 
0 -9.81 0 
0 -9.81 0 
0 -9.81 0 
0 -9.81 0 
0 -9.81 0 
0 -9.81 0 
0 -9.81 0 
0 -9.81 0 
0 -9.81 0 
0 -9.81 0 
0 -9.81 0 
0 -9.81 0 
0 -9.81 0 
0 -9.81 0 
0 -9.81 0 
0 -9.81 0 
0 -9.81 0 
0 -9.81 0 
0 -9.81 0 
0 -9.81 0 
0 -9.81 0 
0 -9.81 0 
0 -9.81 0 
0 -9.81 0 
0 -9.81 0 
0 -9.81 0 
0 -9.81 0 
0 -9.81 0 
0 -9.81 0 
0 -9.81 0 
0 -9.81 0 
0 -9.81 0 
0 -9.81 0 
0 -9.81 0 
0 -9.81 0 
0 -9.81 0 
0 -9.81 0 
0 -9.81 0 
0 -9.81 0 
TENSORS cauchy_stress double
2475.96 -2326.72 0
-2326.72 1712.56 0
0 0 0

-1627.42 -3598.59 0
-3598.59 169.667 0
0 0 0

3499.32 -115.452 0
-115.452 -391.267 0
0 0 0

4368.96 -3254.91 0
-3254.91 2815.82 0
0 0 0

-676.459 1440.24 0
1440.24 2213.19 0
0 0 0

-219.157 492.527 0
492.527 3800.96 0
0 0 0

748.716 -5710.22 0
-5710.22 -3244.65 0
0 0 0

-3026.22 -2295.97 0
-2295.97 2290.4 0
0 0 0

818.215 -2367.31 0
-2367.31 -890.112 0
0 0 0

-510.875 2226.8 0
2226.8 2174.27 0
0 0 0

-1259.01 -2730.76 0
-2730.76 516.026 0
0 0 0

768.704 2194.36 0
2194.36 -766.327 0
0 0 0

4104.11 -1498.95 0
-1498.95 2176.03 0
0 0 0

-4505.35 -1989.38 0
-1989.38 -565.084 0
0 0 0

3072.45 2489.14 0
2489.14 2535.84 0
0 0 0

1522.36 -2278.52 0
-2278.52 -15959.4 0
0 0 0

524.702 -575.274 0
-575.274 -969.244 0
0 0 0

-7172.59 1227.24 0
1227.24 1584.98 0
0 0 0

-6663.1 -5050.53 0
-5050.53 -1995.53 0
0 0 0

-6979.85 -1936.46 0
-1936.46 1495.6 0
0 0 0

-4832.27 1784.28 0
1784.28 -3119.29 0
0 0 0

6188.72 5161.82 0
5161.82 9459.52 0
0 0 0

-7236.86 -4447.44 0
-4447.44 -3687.86 0
0 0 0

-4188.39 2382.34 0
2382.34 7360.92 0
0 0 0

8286.79 2857.23 0
2857.23 4876.06 0
0 0 0

6479.88 -412.394 0
-412.394 -6273.43 0
0 0 0

-1096.27 5554.51 0
5554.51 7573.29 0
0 0 0

5035.97 686.317 0
686.317 -2625.28 0
0 0 0

18153.8 5023.47 0
5023.47 8273.34 0
0 0 0

7057.45 -758.111 0
-758.111 -5741.26 0
0 0 0

5269.79 6256.45 0
6256.45 2182.56 0
0 0 0

-1714.52 1630.83 0
1630.83 -4287.18 0
0 0 0

6249.36 4252.54 0
4252.54 5771.41 0
0 0 0

-3601.89 5339.9 0
5339.9 2749.39 0
0 0 0

1147.3 -159.856 0
-159.856 -4423.01 0
0 0 0

-6421.14 1306.28 0
1306.28 -2614.42 0
0 0 0

1638.9 -1575.39 0
-1575.39 1157.52 0
0 0 0

2367.53 2294.2 0
2294.2 3022.47 0
0 0 0

-2901.28 -5441.26 0
-5441.26 -1339.98 0
0 0 0

-3011.29 670.186 0
670.186 -296.268 0
0 0 0

479.339 5363.83 0
5363.83 5534.34 0
0 0 0

-8395.02 -2060.45 0
-2060.45 -7483.93 0
0 0 0

-2165.05 2655.89 0
2655.89 4111.03 0
0 0 0

-4203.82 -7293.21 0
-7293.21 -13708.8 0
0 0 0

2838.44 6841.92 0
6841.92 7581.37 0
0 0 0

8039.79 -7293.62 0
-7293.62 -9279.3 0
0 0 0

9747.04 5518.99 0
5518.99 8380.71 0
0 0 0

3125.17 -3681.86 0
-3681.86 2850.48 0
0 0 0

2263.78 373.925 0
373.925 1370.38 0
0 0 0

-3713.29 -83.1929 0
-83.1929 -718.238 0
0 0 0

1510.13 538.679 0
538.679 -2434.73 0
0 0 0

839.857 1045.98 0
1045.98 -2499.45 0
0 0 0

6903.29 -6383.25 0
-6383.25 -265.989 0
0 0 0

4649.79 -3230.96 0
-3230.96 1895.35 0
0 0 0

-3890.7 -2079 0
-2079 -3743.54 0
0 0 0

-469.239 -894.681 0
-894.681 4447.07 0
0 0 0

-6761.64 2644.49 0
2644.49 -4068.62 0
0 0 0

2482.36 845.222 0
845.222 -6238.51 0
0 0 0

-3430.16 -33.9922 0
-33.9922 -10950.7 0
0 0 0

3846.46 -5212.31 0
-5212.31 -10249.5 0
0 0 0

5014.2 7720.68 0
7720.68 -631.407 0
0 0 0

1334.66 -714.392 0
-714.392 3452.05 0
0 0 0

187.705 -2733.37 0
-2733.37 6902.76 0
0 0 0

4356.68 -3378.52 0
-3378.52 2792.75 0
0 0 0

TENSORS velocity_gradient double
2.35036 3.37033 0
-5.54212 -2.86128 0
0 0 0

1.57221 3.29237 0
-5.50083 -2.85715 0
0 0 0

1.75737 2.51269 0
-4.79307 -1.96157 0
0 0 0

0.787619 2.40751 0
-2.55503 -1.71885 0
0 0 0

0.719244 0.633565 0
-4.94678 -2.92074 0
0 0 0

-0.232347 0.512415 0
-3.95808 -2.79486 0
0 0 0

0.432543 0.416652 0
-0.108795 -0.937246 0
0 0 0

0.910434 0.46573 0
2.79602 -0.63893 0
0 0 0

-1.27124 -4.9034 0
-2.77497 -0.48389 0
0 0 0

-2.39901 -4.95165 0
-1.41691 -0.425792 0
0 0 0

1.27919 -5.1797 0
5.49775 1.44571 0
0 0 0

1.46054 -5.17668 0
7.64361 1.48144 0
0 0 0

-1.484 -8.25373 0
2.677 1.53607 0
0 0 0

-2.15207 -8.36639 0
3.41433 1.47641 0
0 0 0

0.273945 -10.5404 0
7.42452 -0.874388 0
0 0 0

-2.37656 -10.8974 0
4.43718 -1.27675 0
0 0 0

1.87239 1.51272 0
-5.05853 0.346198 0
0 0 0

0.890531 1.458 0
-2.79253 0.472505 0
0 0 0

2.70386 -0.511852 0
2.88413 0.910893 0
0 0 0

1.8346 0.583693 0
3.75347 1.968 0
0 0 0

0.397071 0.878096 0
-0.324409 1.8676 0
0 0 0

0.888426 0.920025 0
2.66224 2.12246 0
0 0 0

1.03689 0.965807 0
4.07855 2.74321 0
0 0 0

0.816066 1.03976 0
2.89312 2.78796 0
0 0 0

1.27586 -4.99789 0
5.45841 3.59707 0
0 0 0

1.44964 -4.99271 0
7.51464 3.65833 0
0 0 0

1.44299 -3.2162 0
2.04757 4.67551 0
0 0 0

3.90214 -2.95821 0
2.54903 4.72812 0
0 0 0

2.81801 -13.2416 0
5.59376 -3.96018 0
0 0 0

4.4985 -13.5651 0
2.53403 -4.36553 0
0 0 0

5.76084 -13.7641 0
2.80114 -4.90087 0
0 0 0

5.64153 -13.7823 0
2.28175 -4.97993 0
0 0 0

2.68989 -2.23302 0
2.57798 1.34481 0
0 0 0

1.93217 -0.319242 0
3.67875 2.65945 0
0 0 0

-3.13219 -1.13629 0
5.90679 2.26748 0
0 0 0

-0.442179 -0.275201 0
3.89813 2.55437 0
0 0 0

1.08832 0.438211 0
4.10124 2.06456 0
0 0 0

0.834693 0.870408 0
3.01916 1.64208 0
0 0 0

1.47734 -0.0719899 0
1.86835 1.47443 0
0 0 0

-0.248414 -0.227387 0
0.659945 0.478621 0
0 0 0

1.18326 -0.475634 0
2.05769 4.37524 0
0 0 0

3.47342 -0.452386 0
2.4564 5.23831 0
0 0 0

-2.25542 -0.0574338 0
-0.645628 2.15266 0
0 0 0

-2.24509 0.445859 0
-3.0437 3.26226 0
0 0 0

2.23431 -9.98803 0
-1.9188 -3.00035 0
0 0 0

4.62064 -12.5206 0
-6.68126 -5.65138 0
0 0 0

-1.50565 -1.95284 0
-5.67412 -0.183529 0
0 0 0

3.35534 -6.44557 0
-7.09184 -6.81616 0
0 0 0

-3.52671 1.51366 0
6.0779 1.35059 0
0 0 0

-0.693544 2.10826 0
4.11549 0.493373 0
0 0 0

-1.65292 3.53277 0
-1.19112 1.33416 0
0 0 0

0.172411 4.69587 0
-1.05499 -1.274 0
0 0 0

1.46112 1.49885 0
2.09602 0.0166024 0
0 0 0

0.14287 -2.5113 0
0.835388 -0.545434 0
0 0 0

2.3931 5.21816 0
-1.43102 -1.33052 0
0 0 0

1.41736 -4.99471 0
-0.929291 -0.823535 0
0 0 0

-2.04205 -2.35946 0
-0.225069 -0.45727 0
0 0 0

-2.31572 0.792863 0
-2.46806 0.434271 0
0 0 0

-1.07483 -5.14492 0
-0.148985 -0.776503 0
0 0 0

-0.585359 2.80793 0
-0.230918 -0.840838 0
0 0 0

0.142639 1.14672 0
-3.14028 -0.0633671 0
0 0 0

5.77857 -1.27104 0
2.1033 -6.40543 0
0 0 0

1.73082 3.33913 0
-0.827828 -0.977737 0
0 0 0

4.64491 3.00831 0
0.795284 -1.3037 0
0 0 0

SCALARS active double 1
LOOKUP_TABLE default
1
1
1
1
1
1
1
1
1
1
1
1
1
1
1
1
1
1
1
1
1
1
1
1
1
1
1
1
1
1
1
1
1
1
1
1
1
1
1
1
1
1
1
1
1
1
1
1
1
1
1
1
1
1
1
1
1
1
1
1
1
1
1
1
SCALARS extent double 1
LOOKUP_TABLE default
0.0125
0.0125
0.0125
0.0125
0.0125
0.0125
0.0125
0.0125
0.0125
0.0125
0.0125
0.0125
0.0125
0.0125
0.0125
0.0125
0.0125
0.0125
0.0125
0.0125
0.0125
0.0125
0.0125
0.0125
0.0125
0.0125
0.0125
0.0125
0.0125
0.0125
0.0125
0.0125
0.0125
0.0125
0.0125
0.0125
0.0125
0.0125
0.0125
0.0125
0.0125
0.0125
0.0125
0.0125
0.0125
0.0125
0.0125
0.0125
0.0125
0.0125
0.0125
0.0125
0.0125
0.0125
0.0125
0.0125
0.0125
0.0125
0.0125
0.0125
0.0125
0.0125
0.0125
0.0125
SCALARS pressure double 1
LOOKUP_TABLE default
-2094.26
728.878
-1554.02
-3592.39
-768.367
-1790.9
1247.97
367.908
35.9481
-831.699
371.494
-1.18839
-3140.07
2535.22
-2804.14
7218.51
222.271
2793.81
4329.31
2742.13
3975.78
-7824.12
5462.36
-1586.27
-6581.43
-103.222
-3238.51
-1205.35
-13213.6
-658.094
-3726.18
3000.85
-6010.39
426.251
1637.85
4517.78
-1398.21
-2695
2120.63
1653.78
-3006.84
7939.48
-972.991
8956.3
-5209.9
619.756
-9063.88
-2987.83
-1817.08
2215.76
462.299
829.796
-3318.65
-3272.57
3817.12
-1988.92
5415.13
1878.08
7190.41
3201.53
-2191.39
-2393.35
-3545.23
-3574.72
SCALARS density double 1
LOOKUP_TABLE default
978.455
1007.61
983.968
963.328
992.041
981.547
1013.06
1003.83
1000.37
991.388
1003.87
999.988
967.871
1026.72
971.258
1077.96
1002.31
1029.48
1046.05
1028.93
1042.21
921.852
1058.45
983.638
933.843
998.927
966.88
987.543
871.603
993.179
961.989
1031.7
939.406
1004.44
1017.18
1048.11
985.564
972.361
1022.3
1017.35
969.213
1086.08
989.932
1097.62
947.259
1006.47
910.042
969.404
981.28
1023.31
1004.82
1008.67
966.075
966.538
1040.5
979.528
1057.93
1019.72
1077.65
1033.86
977.467
975.416
963.801
963.506
