# vtk DataFile Version 3.0
Frame: 36, Time: 0.617
ASCII
DATASET UNSTRUCTURED_GRID
POINTS 64 double
0.879437 0.281033 0 
0.869753 0.256254 0 
0.854526 0.29009 0 
0.844625 0.265487 0 
0.857972 0.232879 0 
0.846879 0.207849 0 
0.835125 0.241596 0 
0.822465 0.216069 0 
0.839029 0.184396 0 
0.82754 0.160415 0 
0.813343 0.193221 0 
0.803844 0.169979 0 
0.818067 0.13566 0 
0.807104 0.112722 0 
0.794363 0.146582 0 
0.783575 0.123069 0 
0.832011 0.2977 0 
0.820775 0.274117 0 
0.809895 0.306975 0 
0.797342 0.282314 0 
0.811819 0.250798 0 
0.800552 0.226752 0 
0.787743 0.26006 0 
0.776656 0.23633 0 
0.789603 0.20369 0 
0.780375 0.181087 0 
0.765839 0.213542 0 
0.756112 0.190969 0 
0.771171 0.156569 0 
0.759561 0.133272 0 
0.747359 0.167035 0 
0.7357 0.144091 0 
0.788067 0.317443 0 
0.77468 0.295129 0 
0.765052 0.329319 0 
0.752431 0.306802 0 
0.764896 0.272059 0 
0.752625 0.249228 0 
0.74049 0.283588 0 
0.729387 0.260422 0 
0.741547 0.226719 0 
0.732786 0.202498 0 
0.718273 0.237716 0 
0.710452 0.213184 0 
0.724014 0.177826 0 
0.712761 0.154671 0 
0.700504 0.18859 0 
0.688924 0.16537 0 
0.740737 0.339148 0 
0.729078 0.317028 0 
0.716976 0.350723 0 
0.705338 0.327959 0 
0.717503 0.293945 0 
0.706038 0.270092 0 
0.694974 0.30446 0 
0.682923 0.281608 0 
0.695697 0.245455 0 
0.686566 0.220624 0 
0.672893 0.257799 0 
0.663237 0.233177 0 
0.675402 0.196059 0 
0.664248 0.173444 0 
0.652459 0.209785 0 
0.642387 0.185659 0 
CELLS 64 128
1 0
1 1
1 2
1 3
1 4
1 5
1 6
1 7
1 8
1 9
1 10
1 11
1 12
1 13
1 14
1 15
1 16
1 17
1 18
1 19
1 20
1 21
1 22
1 23
1 24
1 25
1 26
1 27
1 28
1 29
1 30
1 31
1 32
1 33
1 34
1 35
1 36
1 37
1 38
1 39
1 40
1 41
1 42
1 43
1 44
1 45
1 46
1 47
1 48
1 49
1 50
1 51
1 52
1 53
1 54
1 55
1 56
1 57
1 58
1 59
1 60
1 61
1 62
1 63
CELL_TYPES 64
1
1
1
1
1
1
1
1
1
1
1
1
1
1
1
1
1
1
1
1
1
1
1
1
1
1
1
1
1
1
1
1
1
1
1
1
1
1
1
1
1
1
1
1
1
1
1
1
1
1
1
1
1
1
1
1
1
1
1
1
1
1
1
1
POINT_DATA 64
VECTORS displacement double
0.366937 -0.331467 0 
0.357253 -0.381246 0 
0.317026 -0.32241 0 
0.307125 -0.372013 0 
0.345472 -0.429621 0 
0.334379 -0.479651 0 
0.297625 -0.420904 0 
0.284965 -0.471431 0 
0.326529 -0.528104 0 
0.31504 -0.577085 0 
0.275843 -0.519279 0 
0.266344 -0.567521 0 
0.305567 -0.62684 0 
0.294604 -0.674778 0 
0.256863 -0.615918 0 
0.246075 -0.664431 0 
0.269511 -0.3148 0 
0.258275 -0.363383 0 
0.222395 -0.305525 0 
0.209842 -0.355186 0 
0.249319 -0.411702 0 
0.238052 -0.460748 0 
0.200243 -0.40244 0 
0.189156 -0.45117 0 
0.227103 -0.50881 0 
0.217875 -0.556413 0 
0.178339 -0.498958 0 
0.168612 -0.546531 0 
0.208671 -0.605931 0 
0.197061 -0.654228 0 
0.159859 -0.595465 0 
0.1482 -0.643409 0 
0.175567 -0.295057 0 
0.16218 -0.342371 0 
0.127552 -0.283181 0 
0.114931 -0.330698 0 
0.152396 -0.390441 0 
0.140125 -0.438272 0 
0.10299 -0.378912 0 
0.0918871 -0.427078 0 
0.129047 -0.485781 0 
0.120286 -0.535002 0 
0.0807731 -0.474784 0 
0.0729523 -0.524316 0 
0.111514 -0.584674 0 
0.100261 -0.632829 0 
0.0630038 -0.57391 0 
0.0514239 -0.62213 0 
0.078237 -0.273352 0 
0.0665783 -0.320472 0 
0.0294757 -0.261777 0 
0.0178385 -0.309541 0 
0.0550032 -0.368555 0 
0.0435385 -0.417408 0 
0.0074737 -0.35804 0 
-0.00457652 -0.405892 0 
0.0331969 -0.467045 0 
0.0240659 -0.516876 0 
-0.0146072 -0.454701 0 
-0.0242634 -0.504323 0 
0.0129024 -0.566441 0 
0.00174777 -0.614056 0 
-0.0350406 -0.552715 0 
-0.0451128 -0.601841 0 
VECTORS velocity double
-1.58261 -0.970946 0 
-1.69824 -0.907792 0 
-1.69232 -0.371327 0 
-1.6737 -0.242267 0 
-1.15509 -1.27667 0 
-1.83464 -1.07729 0 
-1.44908 -0.423514 0 
-1.73756 -1.13928 0 
-1.61784 -0.592759 0 
-1.81212 -1.25608 0 
-1.56847 -0.848988 0 
-1.64829 -1.03843 0 
-1.71708 -0.978263 0 
-2.186 -1.12725 0 
-1.79303 -0.579719 0 
-1.76898 -0.780272 0 
-1.6475 -0.965849 0 
-1.04775 -1.56747 0 
-1.76808 -0.313013 0 
-1.61888 -0.745606 0 
-1.05474 -1.22896 0 
-1.21157 -1.68831 0 
-1.65163 -0.779959 0 
-1.70355 -0.610324 0 
-1.44154 -1.10397 0 
-1.35635 -0.706912 0 
-1.87761 -0.240376 0 
-1.58374 -0.381647 0 
-1.82361 -1.03966 0 
-1.56174 -1.21221 0 
-1.74723 -0.864293 0 
-2.0067 -0.726591 0 
-1.18813 -0.833022 0 
-0.786157 -0.702018 0 
-1.06282 -0.91422 0 
-0.95521 -1.29705 0 
-1.04423 -1.01665 0 
-1.36718 -0.80645 0 
-1.34157 -1.0518 0 
-2.14267 -0.889645 0 
-1.36183 -0.630462 0 
-1.20335 -0.823836 0 
-2.33703 -1.53094 0 
-1.71699 -1.29327 0 
-1.46848 -1.4393 0 
-1.66867 -0.907445 0 
-1.64669 -1.47782 0 
-1.63083 -1.28384 0 
-1.397 -1.0536 0 
-1.86451 -1.54819 0 
-1.49697 -1.4076 0 
-1.21423 -1.24605 0 
-1.72629 -1.29365 0 
-1.96791 -0.920186 0 
-0.877596 -1.17935 0 
-1.20522 -0.819193 0 
-1.5307 -1.11028 0 
-1.344 -1.28489 0 
-1.23441 -1.22609 0 
-1.73488 -1.29674 0 
-1.28454 -1.44739 0 
-1.53048 -0.859742 0 
-1.55848 -0.712815 0 
-1.46443 -1.52812 0 
SCALARS mass double 1
LOOKUP_TABLE default
0.625
0.625
0.625
0.625
0.625
0.625
0.625
0.625
0.625
0.625
0.625
0.625
0.625
0.625
0.625
0.625
0.625
0.625
0.625
0.625
0.625
0.625
0.625
0.625
0.625
0.625
0.625
0.625
0.625
0.625
0.625
0.625
0.625
0.625
0.625
0.625
0.625
0.625
0.625
0.625
0.625
0.625
0.625
0.625
0.625
0.625
0.625
0.625
0.625
0.625
0.625
0.625
0.625
0.625
0.625
0.625
0.625
0.625
0.625
0.625
0.625
0.625
0.625
0.625
SCALARS volume double 1
LOOKUP_TABLE default
0.000647576
0.000611839
0.000613296
0.000642621
0.000629648
0.000635014
0.000621398
0.000596492
0.000638232
0.000618146
0.000621904
0.000634751
0.000629005
0.000624633
0.000614537
0.000607286
0.000610623
0.000601969
0.000598641
0.000614625
0.00064098
0.000636081
0.00064071
0.000646117
0.000570675
0.000634321
0.000639586
0.000653444
0.000627812
0.000640301
0.000617983
0.000630034
0.000597949
0.000622531
0.000640546
0.000639933
0.000610054
0.000660724
0.000645623
0.000636625
0.000650832
0.000628537
0.000611526
0.000600595
0.00063217
0.000607407
0.000643238
0.000625586
0.000641709
0.000611791
0.000623421
0.000622894
0.00058856
0.000640792
0.000627655
0.000629274
0.000620071
0.000649651
0.000597746
0.000615075
0.000636635
0.000617285
0.000591668
0.00062349
VECTORS momentum double
-0.989134 -0.606841 0 
-1.0614 -0.56737 0 
-1.0577 -0.232079 0 
-1.04606 -0.151417 0 
-0.721934 -0.797916 0 
-1.14665 -0.673304 0 
-0.905676 -0.264696 0 
-1.08598 -0.712048 0 
-1.01115 -0.370474 0 
-1.13257 -0.785048 0 
-0.980292 -0.530617 0 
-1.03018 -0.649021 0 
-1.07318 -0.611414 0 
-1.36625 -0.704529 0 
-1.12064 -0.362324 0 
-1.10561 -0.48767 0 
-1.02969 -0.603656 0 
-0.654844 -0.979668 0 
-1.10505 -0.195633 0 
-1.0118 -0.466004 0 
-0.659212 -0.768102 0 
-0.757232 -1.0552 0 
-1.03227 -0.487475 0 
-1.06472 -0.381452 0 
-0.900965 -0.689978 0 
-0.847719 -0.44182 0 
-1.17351 -0.150235 0 
-0.98984 -0.238529 0 
-1.13976 -0.649787 0 
-0.976086 -0.757632 0 
-1.09202 -0.540183 0 
-1.25419 -0.45412 0 
-0.74258 -0.520639 0 
-0.491348 -0.438761 0 
-0.664263 -0.571388 0 
-0.597006 -0.810657 0 
-0.652644 -0.635405 0 
-0.854487 -0.504031 0 
-0.838481 -0.657377 0 
-1.33917 -0.556028 0 
-0.851143 -0.394039 0 
-0.752094 -0.514898 0 
-1.46065 -0.956835 0 
-1.07312 -0.808292 0 
-0.917797 -0.899562 0 
-1.04292 -0.567153 0 
-1.02918 -0.923636 0 
-1.01927 -0.802399 0 
-0.873122 -0.658502 0 
-1.16532 -0.967616 0 
-0.935608 -0.879751 0 
-0.758896 -0.778782 0 
-1.07893 -0.808528 0 
-1.22994 -0.575116 0 
-0.548497 -0.737095 0 
-0.753265 -0.511995 0 
-0.956689 -0.693928 0 
-0.840003 -0.803059 0 
-0.771507 -0.766307 0 
-1.0843 -0.810463 0 
-0.802836 -0.904618 0 
-0.956552 -0.537339 0 
-0.974049 -0.445509 0 
-0.915267 -0.955076 0 
VECTORS body_force double
0 -9.81 0 
0 -9.81 0 
0 -9.81 0 
0 -9.81 0 
0 -9.81 0 
0 -9.81 0 
0 -9.81 0 
0 -9.81 0 
0 -9.81 0 
0 -9.81 0 
0 -9.81 0 
0 -9.81 0 
0 -9.81 0 
0 -9.81 0 
0 -9.81 0 
0 -9.81 0 
0 -9.81 0 
0 -9.81 0 
0 -9.81 0 
0 -9.81 0 
0 -9.81 0 
0 -9.81 0 
0 -9.81 0 
0 -9.81 0 
0 -9.81 0 
0 -9.81 0 
0 -9.81 0 
0 -9.81 0 
0 -9.81 0 
0 -9.81 0 
0 -9.81 0 
0 -9.81 0 
0 -9.81 0 
0 -9.81 0 
0 -9.81 0 
0 -9.81 0 
0 -9.81 0 
0 -9.81 0 
0 -9.81 0 
0 -9.81 0 
0 -9.81 0 
0 -9.81 0 
0 -9.81 0 
0 -9.81 0 
0 -9.81 0 
0 -9.81 0 
0 -9.81 0 
0 -9.81 0 
0 -9.81 0 
0 -9.81 0 
0 -9.81 0 
0 -9.81 0 
0 -9.81 0 
0 -9.81 0 
0 -9.81 0 
0 -9.81 0 
0 -9.81 0 
0 -9.81 0 
0 -9.81 0 
0 -9.81 0 
0 -9.81 0 
0 -9.81 0 
0 -9.81 0 
0 -9.81 0 
TENSORS cauchy_stress double
386.645 -322.24 0
-322.24 6437.25 0
0 0 0

-4454.66 591.622 0
591.622 361.961 0
0 0 0

-2721.14 2907.29 0
2907.29 -914.388 0
0 0 0

4415.47 215.059 0
215.059 931.441 0
0 0 0

-231.66 7484.31 0
7484.31 1656.62 0
0 0 0

1949.44 -2907.84 0
-2907.84 1107.41 0
0 0 0

-2816.07 3470.73 0
3470.73 1704.62 0
0 0 0

-8116.02 2375.57 0
2375.57 -861.863 0
0 0 0

4876.67 2328.31 0
2328.31 -847.903 0
0 0 0

-85.2482 3090.48 0
3090.48 -2035.28 0
0 0 0

663.832 -3892.2 0
-3892.2 -1618.71 0
0 0 0

2402.7 -555.427 0
-555.427 574.395 0
0 0 0

-519.296 -2206.68 0
-2206.68 1747.75 0
0 0 0

-867.855 2332.82 0
2332.82 754.81 0
0 0 0

-470.707 -904.388 0
-904.388 -2776.01 0
0 0 0

-3516.35 -548.606 0
-548.606 -2012.75 0
0 0 0

-103.839 2849.34 0
2849.34 -4371.47 0
0 0 0

-2612.61 1317.05 0
1317.05 -4607.6 0
0 0 0

-7491.56 4747.25 0
4747.25 -794.862 0
0 0 0

-1564.84 -1323.76 0
-1323.76 -1654.32 0
0 0 0

4137.67 1693.32 0
1693.32 717.45 0
0 0 0

3624.75 3404.76 0
3404.76 -245.09 0
0 0 0

4177.74 3585.66 0
3585.66 596.239 0
0 0 0

5263.63 -1909.49 0
-1909.49 1126.42 0
0 0 0

-6573.3 2248.58 0
2248.58 -10913.5 0
0 0 0

1992.39 724.003 0
724.003 854.316 0
0 0 0

4578.1 -4618.48 0
-4618.48 -141.612 0
0 0 0

2299.86 -2739.18 0
-2739.18 6258.93 0
0 0 0

-614.305 372.318 0
372.318 1477.59 0
0 0 0

3325.03 -1460.19 0
-1460.19 1326.29 0
0 0 0

-1868.66 -2552.16 0
-2552.16 -302.655 0
0 0 0

891.242 2143.33 0
2143.33 651.497 0
0 0 0

-6165.75 -4798.39 0
-4798.39 -2343.23 0
0 0 0

-2500.82 736.543 0
736.543 1739.61 0
0 0 0

252.921 -232.385 0
-232.385 4471.79 0
0 0 0

2072.18 2711.06 0
2711.06 2468.53 0
0 0 0

-4936.71 -4991.47 0
-4991.47 282.203 0
0 0 0

4725.43 1075.14 0
1075.14 5963.92 0
0 0 0

5348.88 -1080.41 0
-1080.41 894.355 0
0 0 0

6873.04 386.577 0
386.577 -3328.96 0
0 0 0

1115.33 -5805.63 0
-5805.63 6673.12 0
0 0 0

-2468.47 -1352.74 0
-1352.74 3553.69 0
0 0 0

-2881.32 2813.98 0
2813.98 -1309.74 0
0 0 0

-3561.54 1942.77 0
1942.77 -4098.16 0
0 0 0

1655.91 549.403 0
549.403 537.6 0
0 0 0

-759.733 3537.71 0
3537.71 -4731.06 0
0 0 0

446.187 -711.581 0
-711.581 5085.22 0
0 0 0

2915.33 2119.51 0
2119.51 -2734.97 0
0 0 0

4129.7 -2361.57 0
-2361.57 943.979 0
0 0 0

273.401 -1063.75 0
-1063.75 -4381.31 0
0 0 0

918.726 731.486 0
731.486 -1405.27 0
0 0 0

2036.03 1846.26 0
1846.26 -2685.22 0
0 0 0

-6645.87 2034.32 0
2034.32 -4906.56 0
0 0 0

1525.55 2281.22 0
2281.22 3273.15 0
0 0 0

403.379 1442.68 0
1442.68 411.911 0
0 0 0

-738.919 1100.58 0
1100.58 2049.48 0
0 0 0

-4220.51 540.846 0
540.846 2697.77 0
0 0 0

718.174 2323.62 0
2323.62 6720.85 0
0 0 0

-4768.32 2316.29 0
2316.29 -3805.84 0
0 0 0

-5536.6 -1766.77 0
-1766.77 2458.37 0
0 0 0

3155.25 -221.161 0
-221.161 391.783 0
0 0 0

-703.639 -473.698 0
-473.698 -1684.97 0
0 0 0

-6780.25 -1724.58 0
-1724.58 -3759.29 0
0 0 0

-639.207 256.616 0
256.616 174.156 0
0 0 0

TENSORS velocity_gradient double
0.404579 -1.68187 0
-4.25684 0.751137 0
0 0 0

0.167216 -1.775 0
-2.67166 1.37309 0
0 0 0

0.433711 -1.91446 0
-4.76087 2.34038 0
0 0 0

-2.19933 -1.60149 0
0.95142 2.81462 0
0 0 0

2.68898 0.823813 0
-4.98823 3.02292 0
0 0 0

1.40201 1.94651 0
-2.71888 1.68619 0
0 0 0

-1.63697 2.2788 0
2.23943 1.00265 0
0 0 0

-1.75574 2.21996 0
1.48529 0.629039 0
0 0 0

-1.34347 2.74822 0
-0.410931 2.18791 0
0 0 0

-0.539384 3.13179 0
-2.68988 1.10078 0
0 0 0

-1.63133 3.56406 0
0.41395 -0.240562 0
0 0 0

-0.790905 3.91495 0
-1.74799 -1.08053 0
0 0 0

-0.0173432 4.2344 0
-3.32711 1.18528 0
0 0 0

0.222226 4.34786 0
-2.56057 1.54832 0
0 0 0

-0.218099 3.96297 0
0.0771179 0.920538 0
0 0 0

-2.39453 2.98156 0
0.811365 1.64917 0
0 0 0

-5.36565 -1.75905 0
1.13924 3.03666 0
0 0 0

-3.40837 0.0319698 0
1.68175 3.60176 0
0 0 0

-6.62472 0.660905 0
1.28963 1.55338 0
0 0 0

-1.2404 1.71152 0
3.11255 3.57466 0
0 0 0

-1.90114 1.22067 0
2.2702 2.58856 0
0 0 0

-0.555905 2.02545 0
0.260618 -0.0831785 0
0 0 0

2.0561 2.35982 0
0.429358 2.44172 0
0 0 0

2.16741 1.05127 0
-2.20723 -1.37175 0
0 0 0

0.625387 1.99272 0
-3.99606 -0.616558 0
0 0 0

0.306911 4.05523 0
-2.39874 0.327306 0
0 0 0

1.06147 0.529616 0
-3.55765 -2.00872 0
0 0 0

0.338507 3.97686 0
-3.49082 3.03624 0
0 0 0

0.227852 4.02587 0
0.333827 1.34221 0
0 0 0

-1.37384 0.574437 0
0.95111 1.31961 0
0 0 0

-0.571273 3.8065 0
2.87188 3.05454 0
0 0 0

-2.1703 -0.64949 0
1.61449 -1.48529 0
0 0 0

0.933088 1.86379 0
8.0756 0.421571 0
0 0 0

-0.0990677 2.78155 0
6.30336 0.101933 0
0 0 0

1.8994 0.0231608 0
8.70952 -0.785907 0
0 0 0

0.290852 -0.824584 0
6.2399 -1.41005 0
0 0 0

1.25914 3.87383 0
2.49077 -1.47444 0
0 0 0

2.20573 2.31556 0
-0.0118346 -2.96212 0
0 0 0

1.35599 4.9085 0
2.24222 -3.55254 0
0 0 0

1.2205 4.84441 0
4.3053 -2.57657 0
0 0 0

0.721225 -0.444092 0
7.60875 -2.33254 0
0 0 0

0.221196 0.270186 0
9.7178 -0.765286 0
0 0 0

0.936915 -0.892887 0
6.46883 0.0393486 0
0 0 0

0.464713 -1.04422 0
8.96442 0.839137 0
0 0 0

-0.715321 2.91179 0
7.2283 0.214393 0
0 0 0

-1.70245 2.23908 0
3.71457 -1.73147 0
0 0 0

-0.850901 1.87837 0
5.4747 -2.85009 0
0 0 0

-3.36064 1.28518 0
0.643999 -2.85086 0
0 0 0

-0.584395 -0.890492 0
1.75026 -1.81683 0
0 0 0

0.530017 -0.303107 0
1.27113 -2.06937 0
0 0 0

-1.0267 -3.48098 0
1.63936 -0.226726 0
0 0 0

-0.023008 0.891415 0
1.5089 -2.58294 0
0 0 0

1.37961 4.29681 0
1.38859 -1.59333 0
0 0 0

1.27759 4.70795 0
3.43601 -0.498846 0
0 0 0

-2.62084 1.70056 0
-4.80101 -2.76038 0
0 0 0

-2.52728 5.25596 0
-4.50347 2.12682 0
0 0 0

-0.671912 0.139587 0
1.0641 1.46184 0
0 0 0

-1.3979 -1.32189 0
-1.42108 1.64442 0
0 0 0

-1.62748 5.63149 0
-1.53417 3.36606 0
0 0 0

-1.3499 -1.41147 0
-0.976454 0.814705 0
0 0 0

-1.72705 -0.00793016 0
-1.75328 -0.870338 0
0 0 0

-2.90627 -0.104388 0
-0.042998 -0.749864 0
0 0 0

0.476952 -1.68667 0
-1.09083 0.83088 0
0 0 0

6.13563 -1.25652 0
5.91222 0.760927 0
0 0 0

SCALARS active double 1
LOOKUP_TABLE default
1
1
1
1
1
1
1
1
1
1
1
1
1
1
1
1
1
1
1
1
1
1
1
1
1
1
1
1
1
1
1
1
1
1
1
1
1
1
1
1
1
1
1
1
1
1
1
1
1
1
1
1
1
1
1
1
1
1
1
1
1
1
1
1
SCALARS extent double 1
LOOKUP_TABLE default
0.0125
0.0125
0.0125
0.0125
0.0125
0.0125
0.0125
0.0125
0.0125
0.0125
0.0125
0.0125
0.0125
0.0125
0.0125
0.0125
0.0125
0.0125
0.0125
0.0125
0.0125
0.0125
0.0125
0.0125
0.0125
0.0125
0.0125
0.0125
0.0125
0.0125
0.0125
0.0125
0.0125
0.0125
0.0125
0.0125
0.0125
0.0125
0.0125
0.0125
0.0125
0.0125
0.0125
0.0125
0.0125
0.0125
0.0125
0.0125
0.0125
0.0125
0.0125
0.0125
0.0125
0.0125
0.0125
0.0125
0.0125
0.0125
0.0125
0.0125
0.0125
0.0125
0.0125
0.0125
SCALARS pressure double 1
LOOKUP_TABLE default
-3411.95
2046.35
1817.76
-2673.45
-712.481
-1528.43
555.727
4488.94
-2014.38
1060.26
477.441
-1488.55
-614.226
56.5226
1623.36
2764.55
2237.65
3610.11
4143.21
1609.58
-2427.56
-1689.83
-2386.99
-3195.02
8743.4
-1423.35
-2218.24
-4279.4
-431.641
-2325.66
1085.66
-771.369
4254.49
380.6
-2362.36
-2270.35
2327.25
-5344.67
-3121.62
-1772.04
-3894.22
-542.613
2095.53
3829.85
-1096.75
2745.4
-2765.7
-90.1775
-2536.84
2053.95
243.271
324.598
5776.21
-2399.35
-407.645
-655.281
761.371
-3719.51
4287.08
1539.12
-1773.52
1194.3
5269.77
232.525
SCALARS density double 1
LOOKUP_TABLE default
965.138
1021.51
1019.08
972.579
992.618
984.23
1005.8
1047.79
979.268
1011.09
1004.98
984.638
993.632
1000.59
1017.03
1029.17
1023.54
1038.26
1044.03
1016.88
975.069
982.579
975.481
967.318
1095.19
985.306
977.194
956.47
995.521
976.103
1011.35
992.01
1045.24
1003.97
975.731
976.665
1024.5
945.932
968.056
981.74
960.309
994.373
1022.03
1040.63
988.659
1028.96
971.646
999.063
973.962
1021.59
1002.53
1003.38
1061.91
975.356
995.769
993.208
1007.95
962.056
1045.59
1016.14
981.724
1012.5
1056.34
1002.42
