# vtk DataFile Version 3.0
Frame: 18, Time: 0.317
ASCII
DATASET UNSTRUCTURED_GRID
POINTS 64 double
0.391096 0.0349968 0 
0.393526 0.0568195 0 
0.419369 0.0330001 0 
0.420303 0.053646 0 
0.395882 0.0806237 0 
0.398133 0.104131 0 
0.421618 0.0760926 0 
0.422986 0.0983491 0 
0.400059 0.128944 0 
0.403301 0.153624 0 
0.424505 0.12209 0 
0.427034 0.146093 0 
0.408886 0.178318 0 
0.415383 0.203038 0 
0.431626 0.170648 0 
0.438937 0.196072 0 
0.447683 0.0312964 0 
0.447793 0.0509169 0 
0.479154 0.0291614 0 
0.47901 0.0475268 0 
0.448141 0.0720662 0 
0.448509 0.0929829 0 
0.47831 0.067386 0 
0.477268 0.0870881 0 
0.449266 0.1154 0 
0.45127 0.138236 0 
0.476599 0.108142 0 
0.477576 0.128899 0 
0.454305 0.161698 0 
0.460598 0.185381 0 
0.478842 0.150143 0 
0.481756 0.170758 0 
0.511001 0.0276466 0 
0.510474 0.0451001 0 
0.542837 0.0269525 0 
0.541674 0.0439823 0 
0.508886 0.0639918 0 
0.506732 0.0827082 0 
0.539309 0.0623421 0 
0.536583 0.0804569 0 
0.504902 0.102651 0 
0.504644 0.12186 0 
0.53418 0.0996865 0 
0.532743 0.11787 0 
0.504822 0.141401 0 
0.50596 0.160574 0 
0.531791 0.136308 0 
0.532348 0.15497 0 
0.574971 0.0270448 0 
0.57335 0.0440493 0 
0.607226 0.0278792 0 
0.604536 0.0452065 0 
0.570298 0.0623936 0 
0.567049 0.0804911 0 
0.600879 0.0639128 0 
0.597359 0.0822817 0 
0.564179 0.0993732 0 
0.56118 0.116902 0 
0.594064 0.101075 0 
0.589493 0.118248 0 
0.558638 0.134622 0 
0.558339 0.152276 0 
0.585152 0.136014 0 
0.583949 0.152501 0 
CELLS 64 128
1 0
1 1
1 2
1 3
1 4
1 5
1 6
1 7
1 8
1 9
1 10
1 11
1 12
1 13
1 14
1 15
1 16
1 17
1 18
1 19
1 20
1 21
1 22
1 23
1 24
1 25
1 26
1 27
1 28
1 29
1 30
1 31
1 32
1 33
1 34
1 35
1 36
1 37
1 38
1 39
1 40
1 41
1 42
1 43
1 44
1 45
1 46
1 47
1 48
1 49
1 50
1 51
1 52
1 53
1 54
1 55
1 56
1 57
1 58
1 59
1 60
1 61
1 62
1 63
CELL_TYPES 64
1
1
1
1
1
1
1
1
1
1
1
1
1
1
1
1
1
1
1
1
1
1
1
1
1
1
1
1
1
1
1
1
1
1
1
1
1
1
1
1
1
1
1
1
1
1
1
1
1
1
1
1
1
1
1
1
1
1
1
1
1
1
1
1
POINT_DATA 64
VECTORS displacement double
-0.0214037 -0.377503 0 
-0.0189744 -0.38068 0 
-0.0181308 -0.3795 0 
-0.0171966 -0.383854 0 
-0.0166184 -0.381876 0 
-0.0143674 -0.383369 0 
-0.0158822 -0.386407 0 
-0.0145136 -0.389151 0 
-0.0124414 -0.383556 0 
-0.00919901 -0.383876 0 
-0.0129949 -0.39041 0 
-0.0104661 -0.391407 0 
-0.00361358 -0.384182 0 
0.00288282 -0.384462 0 
-0.00587357 -0.391852 0 
0.00143715 -0.391428 0 
-0.0148175 -0.381204 0 
-0.0147066 -0.386583 0 
-0.00834627 -0.383339 0 
-0.00848996 -0.389973 0 
-0.0143593 -0.390434 0 
-0.0139907 -0.394517 0 
-0.00918961 -0.395114 0 
-0.0102321 -0.400412 0 
-0.0132338 -0.3971 0 
-0.0112297 -0.399264 0 
-0.0109009 -0.404358 0 
-0.00992415 -0.408601 0 
-0.00819492 -0.400802 0 
-0.00190161 -0.402119 0 
-0.00865843 -0.412357 0 
-0.00574388 -0.416742 0 
-0.00149902 -0.384853 0 
-0.00202597 -0.3924 0 
0.0053369 -0.385547 0 
0.00417377 -0.393518 0 
-0.00361436 -0.398508 0 
-0.00576837 -0.404792 0 
0.0018095 -0.400158 0 
-0.000916812 -0.407043 0 
-0.00759771 -0.409849 0 
-0.00785577 -0.41564 0 
-0.00331965 -0.412813 0 
-0.00475691 -0.41963 0 
-0.00767846 -0.421099 0 
-0.00654006 -0.426926 0 
-0.00570882 -0.426192 0 
-0.00515192 -0.43253 0 
0.0124712 -0.385455 0 
0.0108502 -0.393451 0 
0.0197262 -0.384621 0 
0.0170363 -0.392294 0 
0.00779837 -0.400106 0 
0.00454901 -0.407009 0 
0.0133787 -0.398587 0 
0.00985866 -0.405218 0 
0.00167868 -0.413127 0 
-0.00132018 -0.420598 0 
0.0065642 -0.411425 0 
0.00199347 -0.419252 0 
-0.00386241 -0.427878 0 
-0.00416051 -0.435224 0 
-0.00234816 -0.426486 0 
-0.00355122 -0.434999 0 
VECTORS velocity double
0.234306 0.287511 0 
1.18474 1.19891 0 
-0.170573 0.219184 0 
0.181421 1.20619 0 
1.05667 1.06132 0 
0.722861 1.19976 0 
0.138013 1.11417 0 
-0.0620057 1.20221 0 
0.3776 1.70139 0 
0.231296 1.87669 0 
-0.295744 1.53656 0 
-0.405541 1.64462 0 
0.375972 2.15856 0 
1.36868 2.05572 0 
-0.100862 1.80209 0 
1.5913 1.9917 0 
-0.520103 0.283875 0 
-0.301467 1.36996 0 
-0.488674 0.00514445 0 
-0.320852 0.939996 0 
-0.34088 1.24337 0 
-0.545545 1.19214 0 
-0.411929 0.672048 0 
-0.675322 0.500402 0 
-0.764542 1.36697 0 
-0.825753 1.44879 0 
-0.880089 0.677146 0 
-0.773984 0.992475 0 
-0.624043 1.53031 0 
1.01456 1.2862 0 
-0.591093 1.32874 0 
0.0701924 0.122057 0 
-0.511595 -0.130828 0 
-0.5673 0.722987 0 
-0.589017 -0.0703503 0 
-1.12351 0.827542 0 
-0.691299 0.346529 0 
-0.860171 0.0271554 0 
-1.33403 0.444889 0 
-1.22198 0.0335809 0 
-0.989565 0.0753418 0 
-0.824115 0.449453 0 
-1.10094 -0.0612109 0 
-0.982574 0.134814 0 
-0.569219 0.903869 0 
-0.0845126 -0.12669 0 
-0.826269 0.435601 0 
-0.0679424 -0.0749651 0 
-0.539421 -0.321455 0 
-1.11251 0.407063 0 
-0.2636 -0.407502 0 
-1.26373 0.209808 0 
-1.28457 -0.0559175 0 
-1.11807 -0.461421 0 
-1.44339 -0.144719 0 
-1.15546 -0.548745 0 
-0.948712 -0.501174 0 
-1.0432 -0.0863761 0 
-1.01741 -0.623713 0 
-1.20953 -0.107091 0 
-1.12691 0.392938 0 
-0.248688 -0.266487 0 
-1.47193 0.741746 0 
-0.412896 -0.614881 0 
SCALARS mass double 1
LOOKUP_TABLE default
0.625
0.625
0.625
0.625
0.625
0.625
0.625
0.625
0.625
0.625
0.625
0.625
0.625
0.625
0.625
0.625
0.625
0.625
0.625
0.625
0.625
0.625
0.625
0.625
0.625
0.625
0.625
0.625
0.625
0.625
0.625
0.625
0.625
0.625
0.625
0.625
0.625
0.625
0.625
0.625
0.625
0.625
0.625
0.625
0.625
0.625
0.625
0.625
0.625
0.625
0.625
0.625
0.625
0.625
0.625
0.625
0.625
0.625
0.625
0.625
0.625
0.625
0.625
0.625
SCALARS volume double 1
LOOKUP_TABLE default
0.000513538
0.000646321
0.00048401
0.000642632
0.000594173
0.000615563
0.000578559
0.00058259
0.000624585
0.000616246
0.000602696
0.000596593
0.000611414
0.000630038
0.000612674
0.000648835
0.000489045
0.000665122
0.000480859
0.000669252
0.000595085
0.000599925
0.000587708
0.000588982
0.000622459
0.000612633
0.00059474
0.000556164
0.000622028
0.000568737
0.000568098
0.000486717
0.000455328
0.000630434
0.000445163
0.000617491
0.000556357
0.000576201
0.000537116
0.00055593
0.000589056
0.000532814
0.000558761
0.000499302
0.000545077
0.000483749
0.000511684
0.00048062
0.000457963
0.000629603
0.00045077
0.000569767
0.000560958
0.00058186
0.000519924
0.000549574
0.000566315
0.00049735
0.000515245
0.000487439
0.00048996
0.000425154
0.00049181
0.000360761
VECTORS momentum double
0.146441 0.179694 0 
0.740465 0.74932 0 
-0.106608 0.13699 0 
0.113388 0.753869 0 
0.660419 0.663327 0 
0.451788 0.74985 0 
0.0862583 0.696355 0 
-0.0387536 0.751383 0 
0.236 1.06337 0 
0.14456 1.17293 0 
-0.18484 0.960353 0 
-0.253463 1.02789 0 
0.234982 1.3491 0 
0.855423 1.28483 0 
-0.0630389 1.1263 0 
0.994565 1.24481 0 
-0.325064 0.177422 0 
-0.188417 0.856226 0 
-0.305421 0.00321528 0 
-0.200532 0.587498 0 
-0.21305 0.777104 0 
-0.340965 0.745088 0 
-0.257456 0.42003 0 
-0.422076 0.312751 0 
-0.477839 0.854357 0 
-0.516095 0.905493 0 
-0.550056 0.423216 0 
-0.48374 0.620297 0 
-0.390027 0.956445 0 
0.634099 0.803878 0 
-0.369433 0.830461 0 
0.0438703 0.0762857 0 
-0.319747 -0.0817676 0 
-0.354563 0.451867 0 
-0.368136 -0.043969 0 
-0.702191 0.517214 0 
-0.432062 0.216581 0 
-0.537607 0.0169722 0 
-0.833769 0.278056 0 
-0.763737 0.020988 0 
-0.618478 0.0470886 0 
-0.515072 0.280908 0 
-0.688088 -0.0382568 0 
-0.614109 0.0842589 0 
-0.355762 0.564918 0 
-0.0528204 -0.0791809 0 
-0.516418 0.272251 0 
-0.042464 -0.0468532 0 
-0.337138 -0.200909 0 
-0.695318 0.254414 0 
-0.16475 -0.254689 0 
-0.789834 0.13113 0 
-0.802857 -0.0349484 0 
-0.698793 -0.288388 0 
-0.90212 -0.0904494 0 
-0.72216 -0.342966 0 
-0.592945 -0.313234 0 
-0.652002 -0.053985 0 
-0.635879 -0.389821 0 
-0.755955 -0.0669317 0 
-0.704318 0.245586 0 
-0.15543 -0.166554 0 
-0.919955 0.463591 0 
-0.25806 -0.384301 0 
VECTORS body_force double
0 -9.81 0 
0 -9.81 0 
0 -9.81 0 
0 -9.81 0 
0 -9.81 0 
0 -9.81 0 
0 -9.81 0 
0 -9.81 0 
0 -9.81 0 
0 -9.81 0 
0 -9.81 0 
0 -9.81 0 
0 -9.81 0 
0 -9.81 0 
0 -9.81 0 
0 -9.81 0 
0 -9.81 0 
0 -9.81 0 
0 -9.81 0 
0 -9.81 0 
0 -9.81 0 
0 -9.81 0 
0 -9.81 0 
0 -9.81 0 
0 -9.81 0 
0 -9.81 0 
0 -9.81 0 
0 -9.81 0 
0 -9.81 0 
0 -9.81 0 
0 -9.81 0 
0 -9.81 0 
0 -9.81 0 
0 -9.81 0 
0 -9.81 0 
0 -9.81 0 
0 -9.81 0 
0 -9.81 0 
0 -9.81 0 
0 -9.81 0 
0 -9.81 0 
0 -9.81 0 
0 -9.81 0 
0 -9.81 0 
0 -9.81 0 
0 -9.81 0 
0 -9.81 0 
0 -9.81 0 
0 -9.81 0 
0 -9.81 0 
0 -9.81 0 
0 -9.81 0 
0 -9.81 0 
0 -9.81 0 
0 -9.81 0 
0 -9.81 0 
0 -9.81 0 
0 -9.81 0 
0 -9.81 0 
0 -9.81 0 
0 -9.81 0 
0 -9.81 0 
0 -9.81 0 
0 -9.81 0 
TENSORS cauchy_stress double
-1749.89 -343.897 0
-343.897 -36024.6 0
0 0 0

4278.77 -851.972 0
-851.972 2172.23 0
0 0 0

-5361.76 -2967.08 0
-2967.08 -43801.1 0
0 0 0

7991.81 -3968.19 0
-3968.19 -2641.79 0
0 0 0

-2512.29 -844.467 0
-844.467 -7215.01 0
0 0 0

-1864.31 -3080.79 0
-3080.79 -1061.38 0
0 0 0

-1541.4 -5473.25 0
-5473.25 -13307 0
0 0 0

-4713.77 -7937.93 0
-7937.93 -8799.43 0
0 0 0

-1105.42 -3046.53 0
-3046.53 977.614 0
0 0 0

-3262.21 -3890.85 0
-3890.85 549.491 0
0 0 0

-4393.23 -7455.33 0
-7455.33 -2594.91 0
0 0 0

-6623.69 -7724.73 0
-7724.73 -2321.82 0
0 0 0

-4929.45 -867.317 0
-867.317 702.893 0
0 0 0

-767.893 -313.324 0
-313.324 2311.75 0
0 0 0

-6061.36 -459.203 0
-459.203 2230.91 0
0 0 0

310.908 1874.07 0
1874.07 6886.41 0
0 0 0

231.816 -2732.89 0
-2732.89 -47404.2 0
0 0 0

16611.5 -3525.3 0
-3525.3 -4646.42 0
0 0 0

3381.6 -4712.12 0
-4712.12 -53800.2 0
0 0 0

21708.7 -6235.67 0
-6235.67 -8553.28 0
0 0 0

7756.15 -5607.95 0
-5607.95 -17188.3 0
0 0 0

4734.05 -8191.85 0
-8191.85 -12608.6 0
0 0 0

11243.6 -9740.15 0
-9740.15 -23074.7 0
0 0 0

7121.76 -11902.7 0
-11902.7 -18536.4 0
0 0 0

3726.79 -8208.25 0
-8208.25 -4510.29 0
0 0 0

420.802 -11800.6 0
-11800.6 -4264.33 0
0 0 0

3285.54 -11677.6 0
-11677.6 -12829.1 0
0 0 0

-4427.15 -14347.3 0
-14347.3 -18013 0
0 0 0

-4091.89 -9787.24 0
-9787.24 3175.33 0
0 0 0

-20232 -11111.8 0
-11111.8 2090.83 0
0 0 0

-7569.18 -16349.5 0
-16349.5 -10788.1 0
0 0 0

-26381.1 -17780.9 0
-17780.9 -21709 0
0 0 0

321.378 -1654.37 0
-1654.37 -61231.6 0
0 0 0

17507.3 -2711.54 0
-2711.54 -15842.6 0
0 0 0

-714.158 -1747.25 0
-1747.25 -64538 0
0 0 0

16697.7 -3520.1 0
-3520.1 -19022.2 0
0 0 0

8477.09 -5436.74 0
-5436.74 -30850.5 0
0 0 0

8934.71 -6744.86 0
-6744.86 -24568.5 0
0 0 0

6438.72 -6125.7 0
-6125.7 -35580.4 0
0 0 0

6683.61 -7428.83 0
-7428.83 -29204.5 0
0 0 0

8424.05 -6646.87 0
-6646.87 -19814.4 0
0 0 0

-815.221 -7695.01 0
-7695.01 -29873 0
0 0 0

5308.67 -7937.63 0
-7937.63 -26852.9 0
0 0 0

-4580.06 -9450.36 0
-9450.36 -38601 0
0 0 0

-2991.25 -9131.06 0
-9131.06 -23321.1 0
0 0 0

-10964.5 -8399.31 0
-8399.31 -38302 0
0 0 0

-6600.05 -10656.8 0
-10656.8 -31869.9 0
0 0 0

-11738.4 -7910.14 0
-7910.14 -38775.9 0
0 0 0

2692.73 641.404 0
641.404 -62493.2 0
0 0 0

19856.4 -1039.14 0
-1039.14 -18445.2 0
0 0 0

-1835.63 1971.63 0
1971.63 -61009.3 0
0 0 0

5157.88 277.272 0
277.272 -22950.9 0
0 0 0

11584.9 -2012.49 0
-2012.49 -32374.5 0
0 0 0

12473.7 -1245.4 0
-1245.4 -26227.9 0
0 0 0

-1780.52 2481.43 0
2481.43 -33617.3 0
0 0 0

2237.39 3461.67 0
3461.67 -26969.7 0
0 0 0

9876.52 -933.745 0
-933.745 -28838.3 0
0 0 0

-2376.66 -1084.29 0
-1084.29 -41557.5 0
0 0 0

-1441.12 683.464 0
683.464 -35695.4 0
0 0 0

-5530.58 -2596.19 0
-2596.19 -42274.4 0
0 0 0

-8932.54 -311.323 0
-311.323 -37880.5 0
0 0 0

-20139.8 3443.9 0
3443.9 -53956.5 0
0 0 0

-8834.37 -2725.08 0
-2725.08 -37253.8 0
0 0 0

-29581.6 2788.53 0
2788.53 -76098.3 0
0 0 0

TENSORS velocity_gradient double
-6.15835 12.4305 0
-0.339974 18.5973 0
0 0 0

-7.77387 -1.96284 0
0.193123 5.93971 0
0 0 0

-12.5703 8.01382 0
-0.462582 18.2297 0
0 0 0

-15.4224 0.20034 0
-0.71869 9.56931 0
0 0 0

-8.15905 -2.38001 0
2.34277 5.70849 0
0 0 0

-9.20645 -4.36879 0
3.17247 8.86162 0
0 0 0

-16.3956 -2.8409 0
-0.881195 6.18245 0
0 0 0

-16.8079 -2.54028 0
-1.20439 6.6915 0
0 0 0

-8.38748 -4.87209 0
2.01421 9.96608 0
0 0 0

-7.2387 8.55112 0
-2.44235 7.18071 0
0 0 0

-14.0759 -1.36638 0
-3.32319 7.90825 0
0 0 0

-10.441 0.388259 0
-5.92872 7.40163 0
0 0 0

-4.06278 16.6151 0
-8.63939 5.58621 0
0 0 0

0.360011 13.7381 0
-9.66015 -0.487787 0
0 0 0

-5.63123 21.4605 0
-8.0488 3.76171 0
0 0 0

-0.348413 22.2539 0
-9.98058 3.04266 0
0 0 0

-9.73275 3.29477 0
-2.25265 17.4521 0
0 0 0

-12.0774 -0.245325 0
-3.65346 11.5007 0
0 0 0

-4.58054 0.183141 0
-5.42085 12.2145 0
0 0 0

-6.06236 -0.991928 0
-8.76811 9.53105 0
0 0 0

-12.7288 -3.69785 0
-5.23427 5.67628 0
0 0 0

-12.9777 -3.71015 0
-6.98078 5.6421 0
0 0 0

-6.79692 -4.40165 0
-11.8333 1.80976 0
0 0 0

-7.22414 -4.38072 0
-14.6809 1.94928 0
0 0 0

-10.6982 2.33556 0
-9.39558 5.42154 0
0 0 0

-6.30085 2.59952 0
-12.8324 5.29533 0
0 0 0

-6.65712 5.67486 0
-16.79 4.60965 0
0 0 0

-4.23723 5.77588 0
-17.1741 4.59361 0
0 0 0

-4.588 23.9344 0
-16.9648 1.82369 0
0 0 0

-9.67466 22.9863 0
-20.9979 1.264 0
0 0 0

-2.72273 11.4331 0
-17.7914 2.28626 0
0 0 0

-6.34193 17.9058 0
-19.576 -0.903554 0
0 0 0

-4.68271 -3.7955 0
-1.70091 7.66257 0
0 0 0

-7.81012 -3.70915 0
-2.79805 6.8707 0
0 0 0

-4.5625 -9.8395 0
-1.66148 5.68001 0
0 0 0

-7.76237 -9.64969 0
-2.71111 5.74228 0
0 0 0

-7.56207 -3.88182 0
-4.56798 -2.29106 0
0 0 0

-5.65765 -4.09446 0
-6.58671 -2.06566 0
0 0 0

-7.71631 -0.767535 0
-4.40449 -5.59229 0
0 0 0

-5.8674 -1.04472 0
-6.36438 -5.29847 0
0 0 0

-4.27036 4.27729 0
-8.70434 2.19196 0
0 0 0

-4.35742 8.16661 0
-9.57277 4.05869 0
0 0 0

-4.2651 2.88031 0
-8.19523 -1.1071 0
0 0 0

-4.23052 7.65065 0
-8.90206 3.39563 0
0 0 0

-4.56508 8.1675 0
-10.0124 4.0583 0
0 0 0

-3.51696 14.4866 0
-9.98337 -2.9272 0
0 0 0

-4.60639 7.67311 0
-9.3346 3.42148 0
0 0 0

-4.12746 16.845 0
-9.81917 -2.90794 0
0 0 0

0.453073 -12.4848 0
-3.84733 1.61254 0
0 0 0

-0.491483 -12.1971 0
-6.24742 1.67269 0
0 0 0

2.25005 -14.2295 0
1.53346 -1.40049 0
0 0 0

1.28144 -12.5973 0
2.10701 -1.83435 0
0 0 0

-1.22253 -0.459443 0
-6.89072 -6.23329 0
0 0 0

-1.79921 -0.356505 0
-6.54686 -6.29466 0
0 0 0

-0.254388 -1.56249 0
1.39172 -4.88143 0
0 0 0

-1.4983 -1.3955 0
-0.44049 -5.27523 0
0 0 0

-2.45865 2.85693 0
-5.95821 -1.3492 0
0 0 0

-3.29985 6.68231 0
-4.49833 4.21218 0
0 0 0

-2.67476 2.34583 0
-3.69995 2.31787 0
0 0 0

-3.37606 5.20327 0
-4.35341 7.02456 0
0 0 0

-4.21845 6.82143 0
-2.75162 3.94764 0
0 0 0

-3.99685 17.3965 0
-2.52017 -3.25592 0
0 0 0

-4.29427 5.43515 0
-2.60745 6.58364 0
0 0 0

-3.97293 21.268 0
-2.54327 -7.39769 0
0 0 0

SCALARS active double 1
LOOKUP_TABLE default
1
1
1
1
1
1
1
1
1
1
1
1
1
1
1
1
1
1
1
1
1
1
1
1
1
1
1
1
1
1
1
1
1
1
1
1
1
1
1
1
1
1
1
1
1
1
1
1
1
1
1
1
1
1
1
1
1
1
1
1
1
1
1
1
SCALARS extent double 1
LOOKUP_TABLE default
0.0125
0.0125
0.0125
0.0125
0.0125
0.0125
0.0125
0.0125
0.0125
0.0125
0.0125
0.0125
0.0125
0.0125
0.0125
0.0125
0.0125
0.0125
0.0125
0.0125
0.0125
0.0125
0.0125
0.0125
0.0125
0.0125
0.0125
0.0125
0.0125
0.0125
0.0125
0.0125
0.0125
0.0125
0.0125
0.0125
0.0125
0.0125
0.0125
0.0125
0.0125
0.0125
0.0125
0.0125
0.0125
0.0125
0.0125
0.0125
0.0125
0.0125
0.0125
0.0125
0.0125
0.0125
0.0125
0.0125
0.0125
0.0125
0.0125
0.0125
0.0125
0.0125
0.0125
0.0125
SCALARS pressure double 1
LOOKUP_TABLE default
18887.2
-3225.5
24581.4
-2675.01
4863.65
1462.85
7424.21
6756.6
63.9009
1356.36
3494.07
4472.75
2113.28
-771.93
1915.23
-3598.66
23586.2
-5982.54
25209.3
-6577.73
4716.06
3937.27
5915.54
5707.34
391.753
1921.76
4771.8
11220.1
458.277
9070.61
9178.62
24045.1
30455.1
-832.376
32626.1
1162.28
11186.7
7816.92
14570.9
11260.5
5695.16
15344.1
10772.1
21590.5
13156.2
24633.2
19235
25257.2
29900.2
-705.606
31422.5
8896.53
10394.8
6877.06
17698.9
12366.2
9480.9
21967.1
18568.3
23902.5
23406.5
37048.1
23044.1
52840
SCALARS density double 1
LOOKUP_TABLE default
1217.05
967.011
1291.3
972.563
1051.88
1015.33
1080.27
1072.8
1000.66
1014.21
1037.01
1047.62
1022.22
992.004
1020.12
963.266
1278
939.678
1299.76
933.879
1050.27
1041.8
1063.45
1061.15
1004.08
1020.19
1050.88
1123.77
1004.78
1098.93
1100.16
1284.11
1372.64
991.381
1403.98
1012.16
1123.38
1084.69
1163.62
1124.24
1061.02
1173.02
1118.55
1251.75
1146.63
1291.99
1221.46
1300.4
1364.74
992.689
1386.52
1096.94
1114.17
1074.14
1202.1
1137.24
1103.63
1256.66
1213.02
1282.21
1275.61
1470.06
1270.81
1732.45
