# vtk DataFile Version 3.0
Frame: 1, Time: 0.034
ASCII
DATASET UNSTRUCTURED_GRID
POINTS 64 double
0.5125 0.60632 0 
0.5125 0.63132 0 
0.5375 0.60632 0 
0.5375 0.63132 0 
0.5125 0.65632 0 
0.5125 0.68132 0 
0.5375 0.65632 0 
0.5375 0.68132 0 
0.5125 0.70632 0 
0.5125 0.73132 0 
0.5375 0.70632 0 
0.5375 0.73132 0 
0.5125 0.75632 0 
0.5125 0.78132 0 
0.5375 0.75632 0 
0.5375 0.78132 0 
0.5625 0.60632 0 
0.5625 0.63132 0 
0.5875 0.60632 0 
0.5875 0.63132 0 
0.5625 0.65632 0 
0.5625 0.68132 0 
0.5875 0.65632 0 
0.5875 0.68132 0 
0.5625 0.70632 0 
0.5625 0.73132 0 
0.5875 0.70632 0 
0.5875 0.73132 0 
0.5625 0.75632 0 
0.5625 0.78132 0 
0.5875 0.75632 0 
0.5875 0.78132 0 
0.6125 0.60632 0 
0.6125 0.63132 0 
0.6375 0.60632 0 
0.6375 0.63132 0 
0.6125 0.65632 0 
0.6125 0.68132 0 
0.6375 0.65632 0 
0.6375 0.68132 0 
0.6125 0.70632 0 
0.6125 0.73132 0 
0.6375 0.70632 0 
0.6375 0.73132 0 
0.6125 0.75632 0 
0.6125 0.78132 0 
0.6375 0.75632 0 
0.6375 0.78132 0 
0.6625 0.60632 0 
0.6625 0.63132 0 
0.6875 0.60632 0 
0.6875 0.63132 0 
0.6625 0.65632 0 
0.6625 0.68132 0 
0.6875 0.65632 0 
0.6875 0.68132 0 
0.6625 0.70632 0 
0.6625 0.73132 0 
0.6875 0.70632 0 
0.6875 0.73132 0 
0.6625 0.75632 0 
0.6625 0.78132 0 
0.6875 0.75632 0 
0.6875 0.78132 0 
CELLS 64 128
1 0
1 1
1 2
1 3
1 4
1 5
1 6
1 7
1 8
1 9
1 10
1 11
1 12
1 13
1 14
1 15
1 16
1 17
1 18
1 19
1 20
1 21
1 22
1 23
1 24
1 25
1 26
1 27
1 28
1 29
1 30
1 31
1 32
1 33
1 34
1 35
1 36
1 37
1 38
1 39
1 40
1 41
1 42
1 43
1 44
1 45
1 46
1 47
1 48
1 49
1 50
1 51
1 52
1 53
1 54
1 55
1 56
1 57
1 58
1 59
1 60
1 61
1 62
1 63
CELL_TYPES 64
1
1
1
1
1
1
1
1
1
1
1
1
1
1
1
1
1
1
1
1
1
1
1
1
1
1
1
1
1
1
1
1
1
1
1
1
1
1
1
1
1
1
1
1
1
1
1
1
1
1
1
1
1
1
1
1
1
1
1
1
1
1
1
1
POINT_DATA 64
VECTORS displacement double
-8.88106e-19 -0.0061803 0 
-4.33086e-19 -0.0061803 0 
-8.1015e-19 -0.0061803 0 
-3.83323e-19 -0.0061803 0 
-6.58614e-20 -0.0061803 0 
1.18597e-19 -0.0061803 0 
-3.263e-20 -0.0061803 0 
1.86086e-19 -0.0061803 0 
3.11115e-19 -0.0061803 0 
4.87223e-19 -0.0061803 0 
3.79113e-19 -0.0061803 0 
4.935e-19 -0.0061803 0 
6.51527e-19 -0.0061803 0 
8.33033e-19 -0.0061803 0 
6.56243e-19 -0.0061803 0 
9.20711e-19 -0.0061803 0 
-6.83562e-19 -0.0061803 0 
-2.71842e-19 -0.0061803 0 
-5.08342e-19 -0.0061803 0 
-9.86405e-20 -0.0061803 0 
5.49452e-20 -0.0061803 0 
2.4789e-19 -0.0061803 0 
1.96864e-19 -0.0061803 0 
3.04009e-19 -0.0061803 0 
4.05981e-19 -0.0061803 0 
4.73954e-19 -0.0061803 0 
3.91719e-19 -0.0061803 0 
4.28586e-19 -0.0061803 0 
6.2476e-19 -0.0061803 0 
9.16467e-19 -0.0061803 0 
5.57077e-19 -0.0061803 0 
8.20302e-19 -0.0061803 0 
-2.8638e-19 -0.0061803 0 
7.06168e-20 -0.0061803 0 
-1.7676e-20 -0.0061803 0 
2.3593e-19 -0.0061803 0 
3.04614e-19 -0.0061803 0 
3.27501e-19 -0.0061803 0 
3.78194e-19 -0.0061803 0 
3.18364e-19 -0.0061803 0 
3.46505e-19 -0.0061803 0 
3.60779e-19 -0.0061803 0 
2.70339e-19 -0.0061803 0 
2.70533e-19 -0.0061803 0 
4.32938e-19 -0.0061803 0 
5.71135e-19 -0.0061803 0 
2.52343e-19 -0.0061803 0 
1.68966e-19 -0.0061803 0 
1.53983e-19 -0.0061803 0 
3.15549e-19 -0.0061803 0 
2.28597e-19 -0.0061803 0 
3.09475e-19 -0.0061803 0 
3.92804e-19 -0.0061803 0 
2.98993e-19 -0.0061803 0 
3.48442e-19 -0.0061803 0 
2.69388e-19 -0.0061803 0 
2.16734e-19 -0.0061803 0 
2.01418e-19 -0.0061803 0 
1.85691e-19 -0.0061803 0 
1.53431e-19 -0.0061803 0 
1.14032e-19 -0.0061803 0 
-1.2781e-19 -0.0061803 0 
1.80044e-20 -0.0061803 0 
-3.19195e-19 -0.0061803 0 
VECTORS velocity double
-9.85359e-17 -0.34335 0 
-1.81456e-18 -0.34335 0 
-6.10972e-17 -0.34335 0 
-1.6091e-17 -0.34335 0 
5.64781e-17 -0.34335 0 
3.65369e-17 -0.34335 0 
1.54429e-17 -0.34335 0 
2.97916e-17 -0.34335 0 
2.16024e-17 -0.34335 0 
7.87993e-18 -0.34335 0 
3.00677e-17 -0.34335 0 
5.53071e-19 -0.34335 0 
6.5277e-18 -0.34335 0 
5.21657e-17 -0.34335 0 
-5.11189e-19 -0.34335 0 
5.8065e-17 -0.34335 0 
-6.18524e-17 -0.34335 0 
-3.13732e-17 -0.34335 0 
-1.00802e-16 -0.34335 0 
-4.76612e-17 -0.34335 0 
-7.52892e-18 -0.34335 0 
1.87518e-17 -0.34335 0 
-1.24373e-17 -0.34335 0 
3.41733e-18 -0.34335 0 
2.66814e-17 -0.34335 0 
7.22109e-19 -0.34335 0 
1.14434e-17 -0.34335 0 
8.38704e-18 -0.34335 0 
6.81808e-18 -0.34335 0 
6.61725e-17 -0.34335 0 
2.85155e-17 -0.34335 0 
7.64883e-17 -0.34335 0 
-1.01445e-16 -0.34335 0 
-3.96756e-17 -0.34335 0 
-6.3781e-17 -0.34335 0 
-7.4164e-18 -0.34335 0 
-3.50839e-18 -0.34335 0 
-3.30627e-18 -0.34335 0 
1.92579e-17 -0.34335 0 
-1.41903e-18 -0.34335 0 
2.64475e-18 -0.34335 0 
2.41396e-17 -0.34335 0 
2.85486e-19 -0.34335 0 
4.79797e-17 -0.34335 0 
5.0792e-17 -0.34335 0 
7.21776e-17 -0.34335 0 
7.36477e-17 -0.34335 0 
5.32404e-17 -0.34335 0 
-4.65151e-17 -0.34335 0 
9.97199e-18 -0.34335 0 
-4.96467e-17 -0.34335 0 
1.24896e-17 -0.34335 0 
3.76801e-17 -0.34335 0 
1.09684e-17 -0.34335 0 
5.17584e-17 -0.34335 0 
3.3856e-17 -0.34335 0 
1.25589e-17 -0.34335 0 
7.02132e-17 -0.34335 0 
3.94649e-17 -0.34335 0 
9.08401e-17 -0.34335 0 
9.11499e-17 -0.34335 0 
4.60767e-17 -0.34335 0 
1.03299e-16 -0.34335 0 
5.06866e-17 -0.34335 0 
SCALARS mass double 1
LOOKUP_TABLE default
0.625
0.625
0.625
0.625
0.625
0.625
0.625
0.625
0.625
0.625
0.625
0.625
0.625
0.625
0.625
0.625
0.625
0.625
0.625
0.625
0.625
0.625
0.625
0.625
0.625
0.625
0.625
0.625
0.625
0.625
0.625
0.625
0.625
0.625
0.625
0.625
0.625
0.625
0.625
0.625
0.625
0.625
0.625
0.625
0.625
0.625
0.625
0.625
0.625
0.625
0.625
0.625
0.625
0.625
0.625
0.625
0.625
0.625
0.625
0.625
0.625
0.625
0.625
0.625
SCALARS volume double 1
LOOKUP_TABLE default
0.000625
0.000625
0.000625
0.000625
0.000625
0.000625
0.000625
0.000625
0.000625
0.000625
0.000625
0.000625
0.000625
0.000625
0.000625
0.000625
0.000625
0.000625
0.000625
0.000625
0.000625
0.000625
0.000625
0.000625
0.000625
0.000625
0.000625
0.000625
0.000625
0.000625
0.000625
0.000625
0.000625
0.000625
0.000625
0.000625
0.000625
0.000625
0.000625
0.000625
0.000625
0.000625
0.000625
0.000625
0.000625
0.000625
0.000625
0.000625
0.000625
0.000625
0.000625
0.000625
0.000625
0.000625
0.000625
0.000625
0.000625
0.000625
0.000625
0.000625
0.000625
0.000625
0.000625
0.000625
VECTORS momentum double
-6.1585e-17 -0.214594 0 
-1.1341e-18 -0.214594 0 
-3.81858e-17 -0.214594 0 
-1.00569e-17 -0.214594 0 
3.52988e-17 -0.214594 0 
2.28356e-17 -0.214594 0 
9.6518e-18 -0.214594 0 
1.86198e-17 -0.214594 0 
1.35015e-17 -0.214594 0 
4.92495e-18 -0.214594 0 
1.87923e-17 -0.214594 0 
3.45669e-19 -0.214594 0 
4.07981e-18 -0.214594 0 
3.26036e-17 -0.214594 0 
-3.19493e-19 -0.214594 0 
3.62906e-17 -0.214594 0 
-3.86578e-17 -0.214594 0 
-1.96083e-17 -0.214594 0 
-6.3001e-17 -0.214594 0 
-2.97882e-17 -0.214594 0 
-4.70557e-18 -0.214594 0 
1.17199e-17 -0.214594 0 
-7.77332e-18 -0.214594 0 
2.13583e-18 -0.214594 0 
1.66759e-17 -0.214594 0 
4.51318e-19 -0.214594 0 
7.15211e-18 -0.214594 0 
5.2419e-18 -0.214594 0 
4.2613e-18 -0.214594 0 
4.13578e-17 -0.214594 0 
1.78222e-17 -0.214594 0 
4.78052e-17 -0.214594 0 
-6.34028e-17 -0.214594 0 
-2.47972e-17 -0.214594 0 
-3.98631e-17 -0.214594 0 
-4.63525e-18 -0.214594 0 
-2.19274e-18 -0.214594 0 
-2.06642e-18 -0.214594 0 
1.20362e-17 -0.214594 0 
-8.86896e-19 -0.214594 0 
1.65297e-18 -0.214594 0 
1.50872e-17 -0.214594 0 
1.78429e-19 -0.214594 0 
2.99873e-17 -0.214594 0 
3.1745e-17 -0.214594 0 
4.5111e-17 -0.214594 0 
4.60298e-17 -0.214594 0 
3.32752e-17 -0.214594 0 
-2.90719e-17 -0.214594 0 
6.23249e-18 -0.214594 0 
-3.10292e-17 -0.214594 0 
7.806e-18 -0.214594 0 
2.35501e-17 -0.214594 0 
6.85525e-18 -0.214594 0 
3.2349e-17 -0.214594 0 
2.116e-17 -0.214594 0 
7.8493e-18 -0.214594 0 
4.38832e-17 -0.214594 0 
2.46656e-17 -0.214594 0 
5.67751e-17 -0.214594 0 
5.69687e-17 -0.214594 0 
2.8798e-17 -0.214594 0 
6.45617e-17 -0.214594 0 
3.16791e-17 -0.214594 0 
VECTORS body_force double
0 -9.81 0 
0 -9.81 0 
0 -9.81 0 
0 -9.81 0 
0 -9.81 0 
0 -9.81 0 
0 -9.81 0 
0 -9.81 0 
0 -9.81 0 
0 -9.81 0 
0 -9.81 0 
0 -9.81 0 
0 -9.81 0 
0 -9.81 0 
0 -9.81 0 
0 -9.81 0 
0 -9.81 0 
0 -9.81 0 
0 -9.81 0 
0 -9.81 0 
0 -9.81 0 
0 -9.81 0 
0 -9.81 0 
0 -9.81 0 
0 -9.81 0 
0 -9.81 0 
0 -9.81 0 
0 -9.81 0 
0 -9.81 0 
0 -9.81 0 
0 -9.81 0 
0 -9.81 0 
0 -9.81 0 
0 -9.81 0 
0 -9.81 0 
0 -9.81 0 
0 -9.81 0 
0 -9.81 0 
0 -9.81 0 
0 -9.81 0 
0 -9.81 0 
0 -9.81 0 
0 -9.81 0 
0 -9.81 0 
0 -9.81 0 
0 -9.81 0 
0 -9.81 0 
0 -9.81 0 
0 -9.81 0 
0 -9.81 0 
0 -9.81 0 
0 -9.81 0 
0 -9.81 0 
0 -9.81 0 
0 -9.81 0 
0 -9.81 0 
0 -9.81 0 
0 -9.81 0 
0 -9.81 0 
0 -9.81 0 
0 -9.81 0 
0 -9.81 0 
0 -9.81 0 
0 -9.81 0 
TENSORS cauchy_stress double
-1.47456e-12 -2.16971e-13 0
-2.16971e-13 -4.24018e-12 0
0 0 0

-4.25405e-13 -6.26899e-13 0
-6.26899e-13 -1.50299e-12 0
0 0 0

-2.12745e-13 6.10753e-13 0
6.10753e-13 -1.29595e-12 0
0 0 0

-4.33411e-13 9.08692e-14 0
9.08692e-14 -1.52168e-12 0
0 0 0

5.78058e-13 4.08949e-13 0
4.08949e-13 1.00797e-12 0
0 0 0

2.80136e-13 -5.0832e-13 0
-5.0832e-13 -3.8545e-14 0
0 0 0

3.58282e-13 -2.97622e-13 0
-2.97622e-13 4.95156e-13 0
0 0 0

5.61962e-13 -6.06324e-14 0
-6.06324e-14 6.19049e-13 0
0 0 0

-6.12237e-13 -3.79186e-13 0
-3.79186e-13 -2.12598e-12 0
0 0 0

-5.18643e-13 -7.29333e-13 0
-7.29333e-13 -1.27455e-12 0
0 0 0

3.91768e-13 -2.3822e-13 0
-2.3822e-13 2.16701e-13 0
0 0 0

-6.35537e-13 -4.64534e-13 0
-4.64534e-13 -1.5473e-12 0
0 0 0

-1.22361e-12 -4.4027e-13 0
-4.4027e-13 -2.90345e-12 0
0 0 0

-9.16202e-13 -8.98237e-13 0
-8.98237e-13 -3.03706e-12 0
0 0 0

4.86565e-13 -8.52803e-13 0
-8.52803e-13 1.08695e-12 0
0 0 0

4.62503e-13 -2.80611e-13 0
-2.80611e-13 1.79915e-13 0
0 0 0

-2.79087e-13 -1.08339e-14 0
-1.08339e-14 -2.44833e-12 0
0 0 0

2.90507e-13 -2.2167e-13 0
-2.2167e-13 -1.09857e-12 0
0 0 0

-5.52106e-13 -2.17303e-13 0
-2.17303e-13 -3.08538e-12 0
0 0 0

4.20211e-13 -2.57869e-13 0
-2.57869e-13 -7.9593e-13 0
0 0 0

1.03749e-14 -1.06612e-12 0
-1.06612e-12 -1.43137e-12 0
0 0 0

9.24133e-14 -8.99854e-13 0
-8.99854e-13 -3.59953e-13 0
0 0 0

4.6634e-13 -7.575e-13 0
-7.575e-13 -3.67452e-13 0
0 0 0

3.43815e-13 -7.98066e-13 0
-7.98066e-13 2.26651e-13 0
0 0 0

-3.93853e-13 -1.10386e-12 0
-1.10386e-12 -7.72707e-13 0
0 0 0

-4.98895e-13 -9.42666e-13 0
-9.42666e-13 -6.98772e-13 0
0 0 0

-4.2748e-13 -1.02468e-12 0
-1.02468e-12 -8.5117e-13 0
0 0 0

-6.76637e-13 -8.91241e-13 0
-8.91241e-13 -1.1135e-12 0
0 0 0

-6.81502e-13 -4.60748e-13 0
-4.60748e-13 -8.95985e-13 0
0 0 0

-7.99637e-13 -7.36169e-13 0
-7.36169e-13 -8.79513e-13 0
0 0 0

-4.57926e-14 -1.44811e-13 0
-1.44811e-13 5.87337e-13 0
0 0 0

-2.77619e-13 -8.44038e-13 0
-8.44038e-13 3.3853e-13 0
0 0 0

1.15e-13 -1.12438e-12 0
-1.12438e-12 -2.4876e-12 0
0 0 0

6.27538e-13 -7.0191e-13 0
-7.0191e-13 -2.31266e-13 0
0 0 0

2.12278e-13 -4.37166e-13 0
-4.37166e-13 -2.26062e-12 0
0 0 0

-3.17219e-13 -5.47121e-13 0
-5.47121e-13 -2.4357e-12 0
0 0 0

-1.92269e-13 -4.80936e-13 0
-4.80936e-13 -1.2033e-12 0
0 0 0

-1.24459e-13 -4.59052e-13 0
-4.59052e-13 -1.96693e-13 0
0 0 0

9.6626e-13 -3.29037e-13 0
-3.29037e-13 1.49993e-12 0
0 0 0

2.67855e-13 -5.98053e-13 0
-5.98053e-13 7.18708e-13 0
0 0 0

-6.26295e-13 -9.46282e-13 0
-9.46282e-13 -6.80171e-13 0
0 0 0

-1.64847e-12 -7.95762e-13 0
-7.95762e-13 -2.92083e-12 0
0 0 0

-8.10443e-13 -3.71199e-13 0
-3.71199e-13 -1.10985e-12 0
0 0 0

5.2094e-14 -7.68317e-13 0
-7.68317e-13 1.04715e-12 0
0 0 0

-2.28068e-12 -5.67747e-13 0
-5.67747e-13 -3.46934e-12 0
0 0 0

-2.23438e-12 -4.43914e-13 0
-4.43914e-13 -1.08874e-12 0
0 0 0

2.98985e-13 -1.34676e-13 0
-1.34676e-13 2.54989e-12 0
0 0 0

-1.83566e-12 -4.50663e-13 0
-4.50663e-13 -1.58399e-13 0
0 0 0

4.00966e-13 3.16352e-13 0
3.16352e-13 1.70317e-13 0
0 0 0

-2.36072e-13 4.16165e-13 0
4.16165e-13 -4.88532e-13 0
0 0 0

-1.13648e-14 -1.93693e-13 0
-1.93693e-13 -7.91787e-13 0
0 0 0

-4.5865e-13 2.84557e-13 0
2.84557e-13 -1.00788e-12 0
0 0 0

-1.17173e-13 6.41372e-13 0
6.41372e-13 1.81588e-13 0
0 0 0

-7.91919e-13 5.74118e-13 0
5.74118e-13 -1.54417e-12 0
0 0 0

-1.62009e-13 7.28125e-13 0
7.28125e-13 7.69706e-14 0
0 0 0

-5.37276e-14 3.56628e-13 0
3.56628e-13 1.78278e-13 0
0 0 0

-3.00066e-13 1.2628e-12 0
1.2628e-12 -3.81755e-13 0
0 0 0

-1.0222e-12 7.99495e-13 0
7.99495e-13 -1.89297e-12 0
0 0 0

1.86724e-13 1.18122e-12 0
1.18122e-12 7.54089e-13 0
0 0 0

4.52582e-13 1.11824e-12 0
1.11824e-12 1.54819e-12 0
0 0 0

-1.22564e-12 1.2906e-12 0
1.2906e-12 -1.87493e-12 0
0 0 0

-1.45327e-12 3.4104e-13 0
3.4104e-13 -1.42805e-12 0
0 0 0

-1.58513e-12 -2.4505e-14 0
-2.4505e-14 -2.71373e-12 0
0 0 0

-7.51908e-13 6.64047e-13 0
6.64047e-13 2.08465e-13 0
0 0 0

TENSORS velocity_gradient double
4.27334e-16 1.80864e-15 0
-1.33227e-15 -8.43769e-15 0
0 0 0

-2.3614e-16 1.80864e-15 0
-8.88178e-16 -4.44089e-15 0
0 0 0

4.27334e-16 1.14516e-15 0
-2.22045e-15 -5.77316e-15 0
0 0 0

-2.3614e-16 1.14516e-15 0
0 -5.32907e-15 0
0 0 0

-6.65332e-16 1.91531e-16 0
6.21725e-15 6.21725e-15 0
0 0 0

-4.4977e-16 1.91531e-16 0
0 0 0
0 0 0

-6.65332e-16 4.07093e-16 0
-4.44089e-16 -4.44089e-16 0
0 0 0

-4.4977e-16 4.07093e-16 0
3.55271e-15 0 0
0 0 0

-2.1565e-16 -4.75596e-16 0
-1.33227e-15 -4.88498e-15 0
0 0 0

6.95463e-17 -4.75596e-16 0
-2.22045e-15 -2.22045e-15 0
0 0 0

-2.1565e-16 -1.904e-16 0
-2.66454e-15 -9.76996e-15 0
0 0 0

6.95463e-17 -1.904e-16 0
-5.32907e-15 -1.77636e-15 0
0 0 0

2.69626e-16 1.13405e-15 0
-1.55431e-15 2.22045e-16 0
0 0 0

2.35463e-16 1.13405e-15 0
-3.55271e-15 -1.77636e-15 0
0 0 0

2.69626e-16 1.09988e-15 0
-6.21725e-15 8.88178e-16 0
0 0 0

2.35463e-16 1.09988e-15 0
0 0 0
0 0 0

-5.14507e-16 8.89966e-16 0
8.88178e-16 -2.66454e-15 0
0 0 0

-3.61429e-16 8.89966e-16 0
2.66454e-15 8.88178e-16 0
0 0 0

-5.14507e-16 1.04304e-15 0
-8.88178e-16 8.88178e-16 0
0 0 0

-3.61429e-16 1.04304e-15 0
-1.77636e-15 -1.77636e-15 0
0 0 0

-2.54431e-16 5.04963e-16 0
3.10862e-15 -4.44089e-16 0
0 0 0

-2.74253e-16 5.04963e-16 0
-8.88178e-16 -4.44089e-15 0
0 0 0

-2.54431e-16 4.85141e-16 0
-8.88178e-16 -2.66454e-15 0
0 0 0

-2.74253e-16 4.85141e-16 0
3.55271e-15 0 0
0 0 0

-1.95647e-16 1.26939e-16 0
-4.44089e-16 -4.44089e-16 0
0 0 0

1.53836e-16 1.26939e-16 0
4.44089e-15 8.88178e-16 0
0 0 0

-1.95647e-16 4.76422e-16 0
4.44089e-16 -4.88498e-15 0
0 0 0

1.53836e-16 4.76422e-16 0
5.32907e-15 -5.32907e-15 0
0 0 0

3.4881e-16 9.67683e-16 0
4.21885e-15 4.21885e-15 0
0 0 0

1.18571e-16 9.67683e-16 0
0 0 0
0 0 0

3.4881e-16 7.37444e-16 0
5.77316e-15 2.22045e-15 0
0 0 0

1.18571e-16 7.37444e-16 0
1.77636e-15 0 0
0 0 0

5.42096e-16 1.1117e-15 0
-8.88178e-16 -8.88178e-16 0
0 0 0

5.26322e-16 1.1117e-15 0
0 5.32907e-15 0
0 0 0

5.42096e-16 1.09592e-15 0
-1.77636e-15 -3.55271e-15 0
0 0 0

5.26322e-16 1.09592e-15 0
-3.55271e-15 -1.77636e-15 0
0 0 0

4.88471e-16 4.25927e-16 0
-8.88178e-16 2.66454e-15 0
0 0 0

3.89864e-16 4.25927e-16 0
8.88178e-16 -2.66454e-15 0
0 0 0

4.88471e-16 3.27321e-16 0
-2.22045e-15 1.33227e-15 0
0 0 0

3.89864e-16 3.27321e-16 0
1.77636e-15 0 0
0 0 0

3.40768e-16 6.94742e-16 0
-2.22045e-15 -3.9968e-15 0
0 0 0

4.27925e-16 6.94742e-16 0
-4.44089e-16 -3.9968e-15 0
0 0 0

3.40768e-16 7.819e-16 0
-1.77636e-15 -1.77636e-15 0
0 0 0

4.27925e-16 7.819e-16 0
-1.77636e-15 -5.32907e-15 0
0 0 0

3.89888e-16 4.31035e-16 0
-1.9984e-15 1.55431e-15 0
0 0 0

7.30898e-18 4.31035e-16 0
-3.10862e-15 -3.10862e-15 0
0 0 0

3.89888e-16 4.84564e-17 0
0 -3.55271e-15 0
0 0 0

7.30898e-18 4.84564e-17 0
-1.77636e-15 -5.32907e-15 0
0 0 0

4.63669e-16 1.14268e-15 0
1.77636e-15 5.32907e-15 0
0 0 0

5.72961e-16 1.14268e-15 0
-4.44089e-16 3.10862e-15 0
0 0 0

4.63669e-16 1.25197e-15 0
-4.44089e-16 -4.44089e-16 0
0 0 0

5.72961e-16 1.25197e-15 0
1.77636e-15 -3.55271e-15 0
0 0 0

6.46071e-16 2.64785e-16 0
1.77636e-15 1.77636e-15 0
0 0 0

6.19607e-16 2.64785e-16 0
-1.33227e-15 -1.33227e-15 0
0 0 0

6.46071e-16 2.38321e-16 0
0 -1.77636e-15 0
0 0 0

6.19607e-16 2.38321e-16 0
-1.77636e-15 -5.32907e-15 0
0 0 0

6.00232e-16 8.25545e-16 0
6.66134e-16 4.21885e-15 0
0 0 0

6.00365e-16 8.25545e-16 0
2.22045e-15 -1.33227e-15 0
0 0 0

6.00232e-16 8.25677e-16 0
0 -1.77636e-15 0
0 0 0

6.00365e-16 8.25677e-16 0
0 3.55271e-15 0
0 0 0

5.54249e-16 -2.2953e-16 0
2.44249e-15 6.66134e-16 0
0 0 0

3.80856e-16 -2.2953e-16 0
-1.77636e-15 -1.77636e-15 0
0 0 0

5.54249e-16 -4.02922e-16 0
8.88178e-16 -6.21725e-15 0
0 0 0

3.80856e-16 -4.02922e-16 0
1.77636e-15 -1.77636e-15 0
0 0 0

SCALARS active double 1
LOOKUP_TABLE default
1
1
1
1
1
1
1
1
1
1
1
1
1
1
1
1
1
1
1
1
1
1
1
1
1
1
1
1
1
1
1
1
1
1
1
1
1
1
1
1
1
1
1
1
1
1
1
1
1
1
1
1
1
1
1
1
1
1
1
1
1
1
1
1
SCALARS extent double 1
LOOKUP_TABLE default
0.0125
0.0125
0.0125
0.0125
0.0125
0.0125
0.0125
0.0125
0.0125
0.0125
0.0125
0.0125
0.0125
0.0125
0.0125
0.0125
0.0125
0.0125
0.0125
0.0125
0.0125
0.0125
0.0125
0.0125
0.0125
0.0125
0.0125
0.0125
0.0125
0.0125
0.0125
0.0125
0.0125
0.0125
0.0125
0.0125
0.0125
0.0125
0.0125
0.0125
0.0125
0.0125
0.0125
0.0125
0.0125
0.0125
0.0125
0.0125
0.0125
0.0125
0.0125
0.0125
0.0125
0.0125
0.0125
0.0125
0.0125
0.0125
0.0125
0.0125
0.0125
0.0125
0.0125
0.0125
SCALARS pressure double 1
LOOKUP_TABLE default
2.85737e-12
9.64199e-13
7.54348e-13
9.77543e-13
-7.93013e-13
-1.20796e-13
-4.26719e-13
-5.90505e-13
1.36911e-12
8.96595e-13
-3.04235e-13
1.09142e-12
2.06353e-12
1.97663e-12
-7.86755e-13
-3.21209e-13
1.36371e-12
4.04032e-13
1.81874e-12
1.87859e-13
7.10498e-13
1.3377e-13
-4.94443e-14
-2.85233e-13
5.8328e-13
5.98833e-13
6.39325e-13
8.95071e-13
7.88743e-13
8.39575e-13
-2.70772e-13
-3.04554e-14
1.1863e-12
-1.98136e-13
1.02417e-12
1.37646e-12
6.97784e-13
1.60576e-13
-1.2331e-12
-4.93282e-13
6.53233e-13
2.28465e-12
9.60145e-13
-5.49621e-13
2.87501e-12
1.66156e-12
-1.42444e-12
9.9703e-13
-2.85641e-13
3.62302e-13
4.01576e-13
7.33266e-13
-3.22073e-14
1.16804e-12
4.25193e-14
-6.22753e-14
3.4091e-13
1.45758e-12
-4.70406e-13
-1.00039e-12
1.55028e-12
1.44066e-12
2.14943e-12
2.71722e-13
SCALARS density double 1
LOOKUP_TABLE default
1000
1000
1000
1000
1000
1000
1000
1000
1000
1000
1000
1000
1000
1000
1000
1000
1000
1000
1000
1000
1000
1000
1000
1000
1000
1000
1000
1000
1000
1000
1000
1000
1000
1000
1000
1000
1000
1000
1000
1000
1000
1000
1000
1000
1000
1000
1000
1000
1000
1000
1000
1000
1000
1000
1000
1000
1000
1000
1000
1000
1000
1000
1000
1000
