# vtk DataFile Version 3.0
Frame: 27, Time: 0.467
ASCII
DATASET UNSTRUCTURED_GRID
POINTS 64 double
0.249549 0.122691 0 
0.252327 0.147309 0 
0.273584 0.119573 0 
0.276521 0.144473 0 
0.252019 0.171466 0 
0.254457 0.196357 0 
0.277233 0.168156 0 
0.279779 0.192455 0 
0.255001 0.22119 0 
0.256439 0.246392 0 
0.281493 0.21799 0 
0.281784 0.242587 0 
0.261197 0.271286 0 
0.263117 0.294094 0 
0.287068 0.26836 0 
0.288568 0.291827 0 
0.299724 0.117896 0 
0.30106 0.142775 0 
0.323758 0.114115 0 
0.324493 0.138448 0 
0.301583 0.166988 0 
0.303806 0.191915 0 
0.325779 0.162547 0 
0.327844 0.187555 0 
0.306071 0.217916 0 
0.305769 0.241138 0 
0.331391 0.214279 0 
0.331943 0.237435 0 
0.310741 0.265831 0 
0.313284 0.292623 0 
0.33613 0.262851 0 
0.337129 0.289289 0 
0.349066 0.109356 0 
0.348564 0.134966 0 
0.376016 0.107734 0 
0.373946 0.133273 0 
0.350235 0.159641 0 
0.351565 0.184354 0 
0.376318 0.158092 0 
0.377445 0.183163 0 
0.355257 0.210351 0 
0.35642 0.234891 0 
0.380289 0.208906 0 
0.381294 0.233802 0 
0.360051 0.262565 0 
0.361138 0.287489 0 
0.384458 0.260425 0 
0.386138 0.285669 0 
0.400424 0.105113 0 
0.396971 0.131707 0 
0.425657 0.103373 0 
0.421716 0.129576 0 
0.400963 0.15626 0 
0.402361 0.18133 0 
0.426789 0.153046 0 
0.427618 0.179836 0 
0.404263 0.206231 0 
0.406241 0.231949 0 
0.429097 0.205676 0 
0.432369 0.230549 0 
0.408169 0.259121 0 
0.410119 0.283712 0 
0.432705 0.257955 0 
0.436171 0.282483 0 
CELLS 64 128
1 0
1 1
1 2
1 3
1 4
1 5
1 6
1 7
1 8
1 9
1 10
1 11
1 12
1 13
1 14
1 15
1 16
1 17
1 18
1 19
1 20
1 21
1 22
1 23
1 24
1 25
1 26
1 27
1 28
1 29
1 30
1 31
1 32
1 33
1 34
1 35
1 36
1 37
1 38
1 39
1 40
1 41
1 42
1 43
1 44
1 45
1 46
1 47
1 48
1 49
1 50
1 51
1 52
1 53
1 54
1 55
1 56
1 57
1 58
1 59
1 60
1 61
1 62
1 63
CELL_TYPES 64
1
1
1
1
1
1
1
1
1
1
1
1
1
1
1
1
1
1
1
1
1
1
1
1
1
1
1
1
1
1
1
1
1
1
1
1
1
1
1
1
1
1
1
1
1
1
1
1
1
1
1
1
1
1
1
1
1
1
1
1
1
1
1
1
POINT_DATA 64
VECTORS displacement double
-0.162951 -0.289809 0 
-0.160173 -0.290191 0 
-0.163916 -0.292927 0 
-0.160979 -0.293027 0 
-0.160481 -0.291034 0 
-0.158043 -0.291143 0 
-0.160267 -0.294344 0 
-0.157721 -0.295045 0 
-0.157499 -0.29131 0 
-0.156061 -0.291108 0 
-0.156007 -0.29451 0 
-0.155716 -0.294913 0 
-0.151303 -0.291214 0 
-0.149383 -0.293406 0 
-0.150432 -0.29414 0 
-0.148932 -0.295673 0 
-0.162776 -0.294604 0 
-0.16144 -0.294725 0 
-0.163742 -0.298385 0 
-0.163007 -0.299052 0 
-0.160917 -0.295512 0 
-0.158694 -0.295585 0 
-0.161721 -0.299953 0 
-0.159656 -0.299945 0 
-0.156429 -0.294584 0 
-0.156731 -0.296362 0 
-0.156109 -0.298221 0 
-0.155557 -0.300065 0 
-0.151759 -0.296669 0 
-0.149216 -0.294877 0 
-0.15137 -0.299649 0 
-0.150371 -0.298211 0 
-0.163434 -0.303144 0 
-0.163936 -0.302534 0 
-0.161484 -0.304766 0 
-0.163554 -0.304227 0 
-0.162265 -0.302859 0 
-0.160935 -0.303146 0 
-0.161182 -0.304408 0 
-0.160055 -0.304337 0 
-0.157243 -0.302149 0 
-0.15608 -0.302609 0 
-0.157211 -0.303594 0 
-0.156206 -0.303698 0 
-0.152449 -0.299935 0 
-0.151362 -0.300011 0 
-0.153042 -0.302075 0 
-0.151362 -0.301831 0 
-0.162076 -0.307387 0 
-0.165529 -0.305793 0 
-0.161843 -0.309127 0 
-0.165784 -0.307924 0 
-0.161537 -0.30624 0 
-0.160139 -0.30617 0 
-0.160711 -0.309454 0 
-0.159882 -0.307664 0 
-0.158237 -0.306269 0 
-0.156259 -0.305551 0 
-0.158403 -0.306824 0 
-0.155131 -0.306951 0 
-0.154331 -0.303379 0 
-0.152381 -0.303788 0 
-0.154795 -0.304545 0 
-0.151329 -0.305017 0 
VECTORS velocity double
-0.624706 -0.0690763 0 
-0.769011 0.144278 0 
-0.657484 -0.287139 0 
-1.18316 0.0661887 0 
-1.29241 -0.423908 0 
-1.28185 0.110569 0 
-1.26605 -0.147239 0 
-1.3027 0.158726 0 
-1.12217 0.208359 0 
-1.19791 0.198736 0 
-1.29655 0.0840852 0 
-1.05458 0.155892 0 
-0.884909 0.439808 0 
-1.43101 -0.307897 0 
-0.716928 0.913482 0 
-1.02512 0.387188 0 
-0.531177 -0.108711 0 
-1.03657 0.456287 0 
-1.22218 0.214437 0 
-1.08736 0.481004 0 
-1.16686 0.176623 0 
-1.19769 0.271987 0 
-1.12569 -0.0782632 0 
-1.25131 0.0673265 0 
-1.43974 0.0142232 0 
-1.55019 -0.292809 0 
-1.20584 -0.0593658 0 
-1.43429 -0.699558 0 
-1.27783 0.14167 0 
-0.719307 -0.176976 0 
-1.29085 -0.0354415 0 
-0.942375 -0.428426 0 
-0.971943 -0.241415 0 
-1.19416 -0.182213 0 
-1.05624 -0.283465 0 
-1.14525 0.185919 0 
-1.11261 -0.473388 0 
-0.939193 0.165745 0 
-1.05331 -0.050623 0 
-0.738823 0.749082 0 
-1.06989 -0.0696491 0 
-1.04679 -0.733537 0 
-1.13887 0.491553 0 
-0.897011 0.0509333 0 
-1.31971 -0.19665 0 
-1.44963 -0.00829348 0 
-0.955536 0.414284 0 
-1.55222 0.373492 0 
-1.0458 0.319407 0 
-0.922396 0.801895 0 
-0.810689 0.50823 0 
-0.914857 0.293041 0 
-1.2297 0.181273 0 
-0.703248 0.370075 0 
-1.46804 0.137228 0 
-1.1355 0.573722 0 
-0.882393 0.197554 0 
-0.687726 0.107726 0 
-0.883337 0.191093 0 
-0.757886 0.328141 0 
-0.777847 0.645531 0 
-1.29285 -0.3393 0 
-0.780461 0.709426 0 
-0.977349 0.491309 0 
SCALARS mass double 1
LOOKUP_TABLE default
0.625
0.625
0.625
0.625
0.625
0.625
0.625
0.625
0.625
0.625
0.625
0.625
0.625
0.625
0.625
0.625
0.625
0.625
0.625
0.625
0.625
0.625
0.625
0.625
0.625
0.625
0.625
0.625
0.625
0.625
0.625
0.625
0.625
0.625
0.625
0.625
0.625
0.625
0.625
0.625
0.625
0.625
0.625
0.625
0.625
0.625
0.625
0.625
0.625
0.625
0.625
0.625
0.625
0.625
0.625
0.625
0.625
0.625
0.625
0.625
0.625
0.625
0.625
0.625
SCALARS volume double 1
LOOKUP_TABLE default
0.000623274
0.000603461
0.00062663
0.000639871
0.000624597
0.000655726
0.000597821
0.000614873
0.000649263
0.000638288
0.000619638
0.000612798
0.000642498
0.000622708
0.000633649
0.000562048
0.000651721
0.000627813
0.00059907
0.000611624
0.000602124
0.000679049
0.00059992
0.000637814
0.000643627
0.000572677
0.000618764
0.000589502
0.000680341
0.000583243
0.00064637
0.000592155
0.000653464
0.000623856
0.000616814
0.000610968
0.000636872
0.000641948
0.000624751
0.000626736
0.000662445
0.000590878
0.000693909
0.000617687
0.000645513
0.00056448
0.000668937
0.000589718
0.000644457
0.000615163
0.000633862
0.000638511
0.000638998
0.000644984
0.000621795
0.000647897
0.000621051
0.000656235
0.000620441
0.000658639
0.000625454
0.000605799
0.000646066
0.000619364
VECTORS momentum double
-0.390441 -0.0431727 0 
-0.480632 0.0901738 0 
-0.410927 -0.179462 0 
-0.739478 0.0413679 0 
-0.807759 -0.264943 0 
-0.801153 0.0691055 0 
-0.79128 -0.0920245 0 
-0.814188 0.0992038 0 
-0.701354 0.130224 0 
-0.748696 0.12421 0 
-0.810341 0.0525532 0 
-0.65911 0.0974322 0 
-0.553068 0.27488 0 
-0.894384 -0.192436 0 
-0.44808 0.570926 0 
-0.640702 0.241993 0 
-0.331986 -0.0679442 0 
-0.647853 0.285179 0 
-0.763863 0.134023 0 
-0.679601 0.300628 0 
-0.729288 0.110389 0 
-0.748555 0.169992 0 
-0.703555 -0.0489145 0 
-0.782067 0.0420791 0 
-0.89984 0.00888948 0 
-0.968868 -0.183005 0 
-0.753651 -0.0371037 0 
-0.896431 -0.437224 0 
-0.798646 0.0885439 0 
-0.449567 -0.11061 0 
-0.80678 -0.0221509 0 
-0.588984 -0.267766 0 
-0.607464 -0.150884 0 
-0.746349 -0.113883 0 
-0.660153 -0.177166 0 
-0.715781 0.1162 0 
-0.695379 -0.295868 0 
-0.586996 0.10359 0 
-0.658321 -0.0316394 0 
-0.461764 0.468176 0 
-0.668681 -0.0435307 0 
-0.654243 -0.45846 0 
-0.711795 0.30722 0 
-0.560632 0.0318333 0 
-0.824818 -0.122906 0 
-0.906016 -0.00518343 0 
-0.59721 0.258928 0 
-0.970137 0.233432 0 
-0.653624 0.19963 0 
-0.576498 0.501184 0 
-0.506681 0.317644 0 
-0.571786 0.183151 0 
-0.768562 0.113296 0 
-0.43953 0.231297 0 
-0.917526 0.0857674 0 
-0.709689 0.358576 0 
-0.551496 0.123471 0 
-0.429829 0.0673285 0 
-0.552085 0.119433 0 
-0.473679 0.205088 0 
-0.486155 0.403457 0 
-0.808034 -0.212063 0 
-0.487788 0.443391 0 
-0.610843 0.307068 0 
VECTORS body_force double
0 -9.81 0 
0 -9.81 0 
0 -9.81 0 
0 -9.81 0 
0 -9.81 0 
0 -9.81 0 
0 -9.81 0 
0 -9.81 0 
0 -9.81 0 
0 -9.81 0 
0 -9.81 0 
0 -9.81 0 
0 -9.81 0 
0 -9.81 0 
0 -9.81 0 
0 -9.81 0 
0 -9.81 0 
0 -9.81 0 
0 -9.81 0 
0 -9.81 0 
0 -9.81 0 
0 -9.81 0 
0 -9.81 0 
0 -9.81 0 
0 -9.81 0 
0 -9.81 0 
0 -9.81 0 
0 -9.81 0 
0 -9.81 0 
0 -9.81 0 
0 -9.81 0 
0 -9.81 0 
0 -9.81 0 
0 -9.81 0 
0 -9.81 0 
0 -9.81 0 
0 -9.81 0 
0 -9.81 0 
0 -9.81 0 
0 -9.81 0 
0 -9.81 0 
0 -9.81 0 
0 -9.81 0 
0 -9.81 0 
0 -9.81 0 
0 -9.81 0 
0 -9.81 0 
0 -9.81 0 
0 -9.81 0 
0 -9.81 0 
0 -9.81 0 
0 -9.81 0 
0 -9.81 0 
0 -9.81 0 
0 -9.81 0 
0 -9.81 0 
0 -9.81 0 
0 -9.81 0 
0 -9.81 0 
0 -9.81 0 
0 -9.81 0 
0 -9.81 0 
0 -9.81 0 
0 -9.81 0 
TENSORS cauchy_stress double
-1023.07 -1492.12 0
-1492.12 491.402 0
0 0 0

-5589.41 -2928.31 0
-2928.31 -1154.9 0
0 0 0

1039.44 1486.75 0
1486.75 -538.499 0
0 0 0

1948.68 -849.318 0
-849.318 2573.43 0
0 0 0

-974.741 -448.83 0
-448.83 850.575 0
0 0 0

4734.69 -1240.55 0
-1240.55 4494.53 0
0 0 0

-1291.7 -3821.45 0
-3821.45 -7258.47 0
0 0 0

-2518.78 -648.03 0
-648.03 -622.64 0
0 0 0

5910.58 -3063.5 0
-3063.5 1413.66 0
0 0 0

1900.99 1456.94 0
1456.94 2144.83 0
0 0 0

-1041.72 -1448.79 0
-1448.79 -615.31 0
0 0 0

-1193.69 2996.79 0
2996.79 -2598.01 0
0 0 0

6971.52 -1769.2 0
-1769.2 -1661.39 0
0 0 0

1835.48 1256.68 0
1256.68 -2541.93 0
0 0 0

-1555.3 1884.12 0
1884.12 4198.27 0
0 0 0

-4608.41 -892.775 0
-892.775 -15807.7 0
0 0 0

6554.25 628.095 0
628.095 1496.62 0
0 0 0

-2194.21 877.159 0
877.159 3057.9 0
0 0 0

-3047.55 -4493.51 0
-4493.51 -5101.21 0
0 0 0

-3289.83 -2510.04 0
-2510.04 -870.66 0
0 0 0

-2134.05 1293.91 0
1293.91 -5036.85 0
0 0 0

8447.41 5105.5 0
5105.5 7502.83 0
0 0 0

-3393.78 -5873.53 0
-5873.53 -4482.33 0
0 0 0

-1724.11 57.6723 0
57.6723 5627.03 0
0 0 0

5060.94 1165.12 0
1165.12 586.802 0
0 0 0

-3428.04 -2803.69 0
-2803.69 -13385.4 0
0 0 0

-4033.3 -412.974 0
-412.974 2104.76 0
0 0 0

-1711.09 -4050.55 0
-4050.55 -9533.66 0
0 0 0

6833.86 1321.43 0
1321.43 9482 0
0 0 0

-6842.08 -4244.95 0
-4244.95 -6455.54 0
0 0 0

-37.1025 3007.59 0
3007.59 6502.65 0
0 0 0

-8818.02 -2138.79 0
-2138.79 -1563.23 0
0 0 0

6907.51 -145.05 0
-145.05 1656.98 0
0 0 0

-1130.12 4184.32 0
4184.32 777.731 0
0 0 0

368.514 -1403.13 0
-1403.13 -2904.06 0
0 0 0

-4028.24 1327.79 0
1327.79 -338.608 0
0 0 0

4182.45 -1695.34 0
-1695.34 -563.848 0
0 0 0

4248.78 2612.92 0
2612.92 896.406 0
0 0 0

482.16 -4227.21 0
-4227.21 -558.775 0
0 0 0

667.798 2845.45 0
2845.45 -134.334 0
0 0 0

2751.91 2957.14 0
2957.14 8437.68 0
0 0 0

-6052.39 -1099.73 0
-1099.73 -4744.29 0
0 0 0

5882.77 1750.44 0
1750.44 14230.5 0
0 0 0

2714.6 -5238.75 0
-5238.75 -4977.92 0
0 0 0

-3459.82 6604.1 0
6604.1 9670.24 0
0 0 0

-3613.54 -5803.79 0
-5803.79 -15972.3 0
0 0 0

2740.03 4827.07 0
4827.07 10324.9 0
0 0 0

-5723.56 -4733.52 0
-4733.52 -5451.06 0
0 0 0

2483.75 1111.41 0
1111.41 3411.83 0
0 0 0

-5485.98 1926.41 0
1926.41 2435.16 0
0 0 0

2806.85 -815.404 0
-815.404 -99.1918 0
0 0 0

703.389 761.764 0
761.764 3409.42 0
0 0 0

2976.95 -2592.27 0
-2592.27 1282.53 0
0 0 0

3530.28 338.24 0
338.24 2522.38 0
0 0 0

-4062.7 924.71 0
924.71 3073.97 0
0 0 0

-905.104 3242.7 0
3242.7 7824.3 0
0 0 0

-4284.51 1902.12 0
1902.12 3065.44 0
0 0 0

4051.64 -239.759 0
-239.759 5326.56 0
0 0 0

-1521.01 1282.16 0
1282.16 112.997 0
0 0 0

5963.46 -3168.29 0
-3168.29 4118.15 0
0 0 0

-3026.09 5750.92 0
5750.92 3165.63 0
0 0 0

-3261.35 -689.691 0
-689.691 -2739.45 0
0 0 0

-2607.86 -3794.9 0
-3794.9 8982.95 0
0 0 0

-769.164 1428.61 0
1428.61 -972.713 0
0 0 0

TENSORS velocity_gradient double
1.0078 -6.41302 0
3.49316 0.214257 0
0 0 0

-0.247331 -5.79239 0
3.87322 0.731102 0
0 0 0

-2.92762 -5.53005 0
2.48176 1.23982 0
0 0 0

-1.85923 -5.34992 0
3.59532 1.31317 0
0 0 0

-0.624431 -4.36344 0
3.25633 1.78411 0
0 0 0

-1.64006 -2.92783 0
0.702016 2.10594 0
0 0 0

-1.60949 -4.5652 0
2.48951 0.0520086 0
0 0 0

-1.61995 -4.56634 0
0.601559 -0.154786 0
0 0 0

-2.49954 3.12943 0
-0.985738 3.41467 0
0 0 0

-3.23546 2.18429 0
-2.24184 2.35042 0
0 0 0

-2.32872 2.06813 0
-0.910415 2.05468 0
0 0 0

-3.29585 2.05863 0
-2.17427 2.04227 0
0 0 0

-0.836481 -0.793984 0
-1.48904 -1.52195 0
0 0 0

2.11927 -0.701905 0
-0.337967 -1.42917 0
0 0 0

-1.21352 2.58731 0
-1.63591 -0.204845 0
0 0 0

1.85088 2.7748 0
-0.442243 -0.131811 0
0 0 0

-3.10517 -4.2456 0
0.0780939 2.23369 0
0 0 0

-1.36289 -4.15302 0
-0.335705 2.25367 0
0 0 0

-3.50539 -2.31847 0
-1.73783 1.96274 0
0 0 0

-1.44727 -2.25137 0
-2.19532 1.94783 0
0 0 0

0.406301 -4.13204 0
-0.57245 -1.33496 0
0 0 0

3.14874 -4.01807 0
-0.78121 -1.38417 0
0 0 0

0.766231 -1.92604 0
-1.97219 -0.680548 0
0 0 0

3.23224 -1.71852 0
-1.08746 -0.606095 0
0 0 0

2.90869 0.751083 0
-2.58886 0.36932 0
0 0 0

0.890644 0.778862 0
-5.11262 0.404061 0
0 0 0

3.21998 -1.44334 0
-2.19957 -2.37501 0
0 0 0

1.20173 -1.49423 0
-4.72358 -2.43866 0
0 0 0

-0.872533 3.38265 0
-5.8557 0.566257 0
0 0 0

-2.54815 3.22888 0
-5.47074 0.601584 0
0 0 0

-0.695582 1.79292 0
-5.89635 0.931488 0
0 0 0

-2.34799 1.73328 0
-5.51672 0.945188 0
0 0 0

-0.865966 -0.58945 0
2.58882 1.46039 0
0 0 0

-0.523673 -0.598543 0
1.69129 1.47143 0
0 0 0

2.13759 -1.4609 0
6.70438 0.771338 0
0 0 0

0.926938 -1.36459 0
6.02846 0.825113 0
0 0 0

0.574013 0.308674 0
2.64867 0.106847 0
0 0 0

2.22055 0.40851 0
3.99074 0.140162 0
0 0 0

0.545631 1.79699 0
5.70207 0.551287 0
0 0 0

1.86726 1.85398 0
6.08122 0.567635 0
0 0 0

3.44776 -2.54147 0
6.76363 -4.01103 0
0 0 0

5.0737 -2.46096 0
7.7757 -3.96091 0
0 0 0

3.3409 -0.894693 0
6.69712 -2.98599 0
0 0 0

4.98883 -0.827257 0
7.72288 -2.94402 0
0 0 0

3.80415 -1.00329 0
7.95249 0.723037 0
0 0 0

-0.64428 -1.20206 0
7.08528 0.684287 0
0 0 0

4.22115 -5.34507 0
8.03378 -0.123376 0
0 0 0

-0.287264 -5.6694 0
7.15488 -0.186602 0
0 0 0

0.776132 -2.52851 0
4.31697 -0.816506 0
0 0 0

0.420313 -2.41284 0
4.53682 0.156609 0
0 0 0

-0.123225 -2.41825 0
2.85052 -2.04295 0
0 0 0

-0.654997 -3.17487 0
1.6838 -1.0752 0
0 0 0

-0.600386 2.81465 0
2.10103 0.65494 0
0 0 0

-0.211354 2.97832 0
0.722499 0.649003 0
0 0 0

-1.11614 1.49067 0
0.441693 -0.666999 0
0 0 0

-0.826829 3.37578 0
-0.814925 -0.433825 0
0 0 0

0.0013287 0.620294 0
-0.161348 -1.27206 0
0 0 0

0.823349 0.65174 0
3.29973 -1.07265 0
0 0 0

-0.304594 1.76655 0
-0.813052 2.37176 0
0 0 0

0.759024 1.78518 0
3.06281 3.10204 0
0 0 0

2.67689 -6.84294 0
5.32854 -1.55882 0
0 0 0

5.61728 -6.59144 0
2.81754 -1.77359 0
0 0 0

2.52155 -3.92152 0
5.4612 -4.05362 0
0 0 0

5.46107 -3.49847 0
2.95094 -4.4149 0
0 0 0

SCALARS active double 1
LOOKUP_TABLE default
1
1
1
1
1
1
1
1
1
1
1
1
1
1
1
1
1
1
1
1
1
1
1
1
1
1
1
1
1
1
1
1
1
1
1
1
1
1
1
1
1
1
1
1
1
1
1
1
1
1
1
1
1
1
1
1
1
1
1
1
1
1
1
1
SCALARS extent double 1
LOOKUP_TABLE default
0.0125
0.0125
0.0125
0.0125
0.0125
0.0125
0.0125
0.0125
0.0125
0.0125
0.0125
0.0125
0.0125
0.0125
0.0125
0.0125
0.0125
0.0125
0.0125
0.0125
0.0125
0.0125
0.0125
0.0125
0.0125
0.0125
0.0125
0.0125
0.0125
0.0125
0.0125
0.0125
0.0125
0.0125
0.0125
0.0125
0.0125
0.0125
0.0125
0.0125
0.0125
0.0125
0.0125
0.0125
0.0125
0.0125
0.0125
0.0125
0.0125
0.0125
0.0125
0.0125
0.0125
0.0125
0.0125
0.0125
0.0125
0.0125
0.0125
0.0125
0.0125
0.0125
0.0125
0.0125
SCALARS pressure double 1
LOOKUP_TABLE default
265.834
3372.15
-250.471
-2261.05
62.0833
-4614.61
4275.09
1570.71
-3662.12
-2022.91
828.513
1895.85
-2655.07
353.227
-1321.48
10208.1
-4025.44
-431.845
4074.38
2080.24
3585.45
-7975.12
3938.05
-1951.46
-2823.87
8406.73
964.274
5622.38
-8157.93
6648.81
-3232.78
5190.63
-4282.25
176.194
1267.77
2183.42
-1809.3
-2572.59
38.3073
-266.732
-5594.8
5398.34
-10056.6
1131.66
-3105.21
9792.93
-6532.46
5587.31
-2947.79
1525.41
-1353.83
-2056.4
-2129.74
-3026.33
494.363
-3459.6
609.534
-4689.1
704.006
-5040.8
-69.7678
3000.4
-3187.55
870.939
SCALARS density double 1
LOOKUP_TABLE default
1002.77
1035.69
997.398
976.759
1000.65
953.141
1045.46
1016.47
962.63
979.181
1008.65
1019.91
972.765
1003.68
986.351
1112
959
995.519
1043.28
1021.87
1037.99
920.405
1041.81
979.909
971.059
1091.37
1010.08
1060.22
918.657
1071.59
966.938
1055.47
956.442
1001.83
1013.27
1022.97
981.359
973.6
1000.4
997.23
943.475
1057.75
900.695
1011.84
968.222
1107.21
934.319
1059.83
969.808
1015.99
986.019
978.84
978.094
969.016
1005.15
964.66
1006.36
952.403
1007.35
948.926
999.275
1031.7
967.393
1009.1
