# vtk DataFile Version 3.0
Frame: 12, Time: 0.217
ASCII
DATASET UNSTRUCTURED_GRID
POINTS 64 double
0.4125 0.178325 0 
0.4125 0.203325 0 
0.4375 0.178325 0 
0.4375 0.203325 0 
0.4125 0.228325 0 
0.4125 0.253325 0 
0.4375 0.228325 0 
0.4375 0.253325 0 
0.4125 0.278325 0 
0.4125 0.303325 0 
0.4375 0.278325 0 
0.4375 0.303325 0 
0.4125 0.328325 0 
0.4125 0.353325 0 
0.4375 0.328325 0 
0.4375 0.353325 0 
0.4625 0.178325 0 
0.4625 0.203325 0 
0.4875 0.178325 0 
0.4875 0.203325 0 
0.4625 0.228325 0 
0.4625 0.253325 0 
0.4875 0.228325 0 
0.4875 0.253325 0 
0.4625 0.278325 0 
0.4625 0.303325 0 
0.4875 0.278325 0 
0.4875 0.303325 0 
0.4625 0.328325 0 
0.4625 0.353325 0 
0.4875 0.328325 0 
0.4875 0.353325 0 
0.5125 0.178325 0 
0.5125 0.203325 0 
0.5375 0.178325 0 
0.5375 0.203325 0 
0.5125 0.228325 0 
0.5125 0.253325 0 
0.5375 0.228325 0 
0.5375 0.253325 0 
0.5125 0.278325 0 
0.5125 0.303325 0 
0.5375 0.278325 0 
0.5375 0.303325 0 
0.5125 0.328325 0 
0.5125 0.353325 0 
0.5375 0.328325 0 
0.5375 0.353325 0 
0.5625 0.178325 0 
0.5625 0.203325 0 
0.5875 0.178325 0 
0.5875 0.203325 0 
0.5625 0.228325 0 
0.5625 0.253325 0 
0.5875 0.228325 0 
0.5875 0.253325 0 
0.5625 0.278325 0 
0.5625 0.303325 0 
0.5875 0.278325 0 
0.5875 0.303325 0 
0.5625 0.328325 0 
0.5625 0.353325 0 
0.5875 0.328325 0 
0.5875 0.353325 0 
CELLS 64 128
1 0
1 1
1 2
1 3
1 4
1 5
1 6
1 7
1 8
1 9
1 10
1 11
1 12
1 13
1 14
1 15
1 16
1 17
1 18
1 19
1 20
1 21
1 22
1 23
1 24
1 25
1 26
1 27
1 28
1 29
1 30
1 31
1 32
1 33
1 34
1 35
1 36
1 37
1 38
1 39
1 40
1 41
1 42
1 43
1 44
1 45
1 46
1 47
1 48
1 49
1 50
1 51
1 52
1 53
1 54
1 55
1 56
1 57
1 58
1 59
1 60
1 61
1 62
1 63
CELL_TYPES 64
1
1
1
1
1
1
1
1
1
1
1
1
1
1
1
1
1
1
1
1
1
1
1
1
1
1
1
1
1
1
1
1
1
1
1
1
1
1
1
1
1
1
1
1
1
1
1
1
1
1
1
1
1
1
1
1
1
1
1
1
1
1
1
1
POINT_DATA 64
VECTORS displacement double
-1.07253e-16 -0.234175 0 
-7.80207e-17 -0.234175 0 
-9.72454e-17 -0.234175 0 
-7.80295e-17 -0.234175 0 
-5.66572e-17 -0.234175 0 
-6.36572e-17 -0.234175 0 
-6.32667e-17 -0.234175 0 
-6.63598e-17 -0.234175 0 
-7.25311e-17 -0.234175 0 
-7.00857e-17 -0.234175 0 
-7.03947e-17 -0.234175 0 
-6.749e-17 -0.234175 0 
-5.17283e-17 -0.234175 0 
-3.6587e-17 -0.234175 0 
-5.42289e-17 -0.234175 0 
-4.10615e-17 -0.234175 0 
-9.31058e-17 -0.234175 0 
-8.0125e-17 -0.234175 0 
-9.48342e-17 -0.234175 0 
-8.43074e-17 -0.234175 0 
-6.89921e-17 -0.234175 0 
-6.84292e-17 -0.234175 0 
-7.38334e-17 -0.234175 0 
-6.98655e-17 -0.234175 0 
-6.84969e-17 -0.234175 0 
-6.5104e-17 -0.234175 0 
-6.68376e-17 -0.234175 0 
-6.29278e-17 -0.234175 0 
-5.56478e-17 -0.234175 0 
-4.43247e-17 -0.234175 0 
-5.59853e-17 -0.234175 0 
-4.63765e-17 -0.234175 0 
-9.58055e-17 -0.234175 0 
-8.80193e-17 -0.234175 0 
-9.60196e-17 -0.234175 0 
-9.12606e-17 -0.234175 0 
-7.95756e-17 -0.234175 0 
-7.26461e-17 -0.234175 0 
-8.62186e-17 -0.234175 0 
-7.67709e-17 -0.234175 0 
-6.64017e-17 -0.234175 0 
-6.05842e-17 -0.234175 0 
-6.71891e-17 -0.234175 0 
-5.80731e-17 -0.234175 0 
-5.4825e-17 -0.234175 0 
-4.72887e-17 -0.234175 0 
-5.21671e-17 -0.234175 0 
-4.70613e-17 -0.234175 0 
-9.13659e-17 -0.234175 0 
-9.41356e-17 -0.234175 0 
-8.18445e-17 -0.234175 0 
-9.66442e-17 -0.234175 0 
-9.45472e-17 -0.234175 0 
-8.18171e-17 -0.234175 0 
-1.04561e-16 -0.234175 0 
-8.77849e-17 -0.234175 0 
-6.79157e-17 -0.234175 0 
-5.51921e-17 -0.234175 0 
-6.85815e-17 -0.234175 0 
-5.19412e-17 -0.234175 0 
-4.96885e-17 -0.234175 0 
-4.72127e-17 -0.234175 0 
-4.73893e-17 -0.234175 0 
-4.7743e-17 -0.234175 0 
VECTORS velocity double
-8.92644e-15 -2.13858 0 
1.07068e-15 -2.13858 0 
-4.54025e-15 -2.13858 0 
6.93537e-16 -2.13858 0 
4.28092e-15 -2.13858 0 
1.56778e-16 -2.13858 0 
2.1822e-15 -2.13858 0 
8.5935e-16 -2.13858 0 
-1.36705e-15 -2.13858 0 
6.34083e-16 -2.13858 0 
1.64948e-16 -2.13858 0 
9.19033e-16 -2.13858 0 
1.94251e-15 -2.13858 0 
1.61741e-16 -2.13858 0 
1.39281e-16 -2.13858 0 
-9.4597e-16 -2.13858 0 
-2.44478e-15 -2.13858 0 
9.1634e-19 -2.13858 0 
-2.64001e-15 -2.13858 0 
-1.00719e-15 -2.13858 0 
7.41833e-16 -2.13858 0 
1.06883e-15 -2.13858 0 
-4.01768e-17 -2.13858 0 
7.85231e-16 -2.13858 0 
1.03789e-15 -2.13858 0 
7.51347e-16 -2.13858 0 
1.25178e-15 -2.13858 0 
1.31026e-16 -2.13858 0 
-8.26949e-16 -2.13858 0 
-1.60798e-15 -2.13858 0 
-9.56177e-16 -2.13858 0 
-1.82428e-15 -2.13858 0 
-2.56451e-15 -2.13858 0 
-1.61465e-15 -2.13858 0 
-2.21827e-15 -2.13858 0 
-1.82147e-15 -2.13858 0 
-7.12505e-16 -2.13858 0 
1.61281e-16 -2.13858 0 
-1.27515e-15 -2.13858 0 
-8.03015e-16 -2.13858 0 
8.09447e-16 -2.13858 0 
-2.82329e-16 -2.13858 0 
-2.89118e-16 -2.13858 0 
-4.88719e-16 -2.13858 0 
-3.96958e-16 -2.13858 0 
-1.28248e-15 -2.13858 0 
8.50707e-16 -2.13858 0 
1.74262e-17 -2.13858 0 
8.6411e-16 -2.13858 0 
-1.83803e-15 -2.13858 0 
6.68263e-15 -2.13858 0 
-1.66433e-15 -2.13858 0 
-2.79296e-15 -2.13858 0 
-1.36332e-15 -2.13858 0 
-5.26594e-15 -2.13858 0 
-1.51963e-15 -2.13858 0 
-4.89463e-16 -2.13858 0 
-1.15671e-16 -2.13858 0 
2.08411e-16 -2.13858 0 
8.36813e-16 -2.13858 0 
1.13946e-15 -2.13858 0 
1.20979e-15 -2.13858 0 
4.69302e-16 -2.13858 0 
2.2946e-15 -2.13858 0 
SCALARS mass double 1
LOOKUP_TABLE default
0.625
0.625
0.625
0.625
0.625
0.625
0.625
0.625
0.625
0.625
0.625
0.625
0.625
0.625
0.625
0.625
0.625
0.625
0.625
0.625
0.625
0.625
0.625
0.625
0.625
0.625
0.625
0.625
0.625
0.625
0.625
0.625
0.625
0.625
0.625
0.625
0.625
0.625
0.625
0.625
0.625
0.625
0.625
0.625
0.625
0.625
0.625
0.625
0.625
0.625
0.625
0.625
0.625
0.625
0.625
0.625
0.625
0.625
0.625
0.625
0.625
0.625
0.625
0.625
SCALARS volume double 1
LOOKUP_TABLE default
0.000625
0.000625
0.000625
0.000625
0.000625
0.000625
0.000625
0.000625
0.000625
0.000625
0.000625
0.000625
0.000625
0.000625
0.000625
0.000625
0.000625
0.000625
0.000625
0.000625
0.000625
0.000625
0.000625
0.000625
0.000625
0.000625
0.000625
0.000625
0.000625
0.000625
0.000625
0.000625
0.000625
0.000625
0.000625
0.000625
0.000625
0.000625
0.000625
0.000625
0.000625
0.000625
0.000625
0.000625
0.000625
0.000625
0.000625
0.000625
0.000625
0.000625
0.000625
0.000625
0.000625
0.000625
0.000625
0.000625
0.000625
0.000625
0.000625
0.000625
0.000625
0.000625
0.000625
0.000625
VECTORS momentum double
-5.57902e-15 -1.33661 0 
6.69172e-16 -1.33661 0 
-2.83766e-15 -1.33661 0 
4.33461e-16 -1.33661 0 
2.67557e-15 -1.33661 0 
9.7986e-17 -1.33661 0 
1.36387e-15 -1.33661 0 
5.37094e-16 -1.33661 0 
-8.54404e-16 -1.33661 0 
3.96302e-16 -1.33661 0 
1.03093e-16 -1.33661 0 
5.74395e-16 -1.33661 0 
1.21407e-15 -1.33661 0 
1.01088e-16 -1.33661 0 
8.70507e-17 -1.33661 0 
-5.91231e-16 -1.33661 0 
-1.52799e-15 -1.33661 0 
5.72713e-19 -1.33661 0 
-1.65001e-15 -1.33661 0 
-6.29492e-16 -1.33661 0 
4.63646e-16 -1.33661 0 
6.68021e-16 -1.33661 0 
-2.51105e-17 -1.33661 0 
4.90769e-16 -1.33661 0 
6.48682e-16 -1.33661 0 
4.69592e-16 -1.33661 0 
7.82365e-16 -1.33661 0 
8.18912e-17 -1.33661 0 
-5.16843e-16 -1.33661 0 
-1.00499e-15 -1.33661 0 
-5.9761e-16 -1.33661 0 
-1.14018e-15 -1.33661 0 
-1.60282e-15 -1.33661 0 
-1.00916e-15 -1.33661 0 
-1.38642e-15 -1.33661 0 
-1.13842e-15 -1.33661 0 
-4.45316e-16 -1.33661 0 
1.00801e-16 -1.33661 0 
-7.96969e-16 -1.33661 0 
-5.01885e-16 -1.33661 0 
5.05904e-16 -1.33661 0 
-1.76456e-16 -1.33661 0 
-1.80698e-16 -1.33661 0 
-3.05449e-16 -1.33661 0 
-2.48099e-16 -1.33661 0 
-8.01551e-16 -1.33661 0 
5.31692e-16 -1.33661 0 
1.08914e-17 -1.33661 0 
5.40068e-16 -1.33661 0 
-1.14877e-15 -1.33661 0 
4.17664e-15 -1.33661 0 
-1.0402e-15 -1.33661 0 
-1.7456e-15 -1.33661 0 
-8.52075e-16 -1.33661 0 
-3.29121e-15 -1.33661 0 
-9.49771e-16 -1.33661 0 
-3.05914e-16 -1.33661 0 
-7.22945e-17 -1.33661 0 
1.30257e-16 -1.33661 0 
5.23008e-16 -1.33661 0 
7.12163e-16 -1.33661 0 
7.56116e-16 -1.33661 0 
2.93314e-16 -1.33661 0 
1.43412e-15 -1.33661 0 
VECTORS body_force double
0 -9.81 0 
0 -9.81 0 
0 -9.81 0 
0 -9.81 0 
0 -9.81 0 
0 -9.81 0 
0 -9.81 0 
0 -9.81 0 
0 -9.81 0 
0 -9.81 0 
0 -9.81 0 
0 -9.81 0 
0 -9.81 0 
0 -9.81 0 
0 -9.81 0 
0 -9.81 0 
0 -9.81 0 
0 -9.81 0 
0 -9.81 0 
0 -9.81 0 
0 -9.81 0 
0 -9.81 0 
0 -9.81 0 
0 -9.81 0 
0 -9.81 0 
0 -9.81 0 
0 -9.81 0 
0 -9.81 0 
0 -9.81 0 
0 -9.81 0 
0 -9.81 0 
0 -9.81 0 
0 -9.81 0 
0 -9.81 0 
0 -9.81 0 
0 -9.81 0 
0 -9.81 0 
0 -9.81 0 
0 -9.81 0 
0 -9.81 0 
0 -9.81 0 
0 -9.81 0 
0 -9.81 0 
0 -9.81 0 
0 -9.81 0 
0 -9.81 0 
0 -9.81 0 
0 -9.81 0 
0 -9.81 0 
0 -9.81 0 
0 -9.81 0 
0 -9.81 0 
0 -9.81 0 
0 -9.81 0 
0 -9.81 0 
0 -9.81 0 
0 -9.81 0 
0 -9.81 0 
0 -9.81 0 
0 -9.81 0 
0 -9.81 0 
0 -9.81 0 
0 -9.81 0 
0 -9.81 0 
TENSORS cauchy_stress double
-2.46936e-12 1.23319e-11 0
1.23319e-11 -1.08405e-10 0
0 0 0

-9.33749e-11 4.16698e-11 0
4.16698e-11 -2.17785e-10 0
0 0 0

1.95098e-12 7.31049e-12 0
7.31049e-12 -9.80911e-11 0
0 0 0

-7.07408e-11 1.17769e-11 0
1.17769e-11 -1.64972e-10 0
0 0 0

-7.59091e-12 4.05741e-12 0
4.05741e-12 5.00779e-11 0
0 0 0

3.00737e-11 -2.64326e-11 0
-2.64326e-11 9.78909e-11 0
0 0 0

-1.26658e-11 1.59936e-12 0
1.59936e-12 3.82365e-11 0
0 0 0

1.96958e-11 -1.54238e-11 0
-1.54238e-11 7.36758e-11 0
0 0 0

3.262e-11 -9.00796e-12 0
-9.00796e-12 5.42019e-11 0
0 0 0

2.86161e-11 2.49438e-12 0
2.49438e-12 4.01477e-11 0
0 0 0

4.04158e-13 -4.67535e-12 0
-4.67535e-12 -2.09683e-11 0
0 0 0

7.18454e-12 8.86261e-12 0
8.86261e-12 -9.85928e-12 0
0 0 0

-2.05809e-12 1.06552e-11 0
1.06552e-11 2.08443e-11 0
0 0 0

-1.17077e-11 -3.55112e-13 0
-3.55112e-13 1.85747e-11 0
0 0 0

-9.4292e-12 -5.04226e-12 0
-5.04226e-12 3.64507e-12 0
0 0 0

-1.5293e-11 3.83964e-12 0
3.83964e-12 1.0209e-11 0
0 0 0

-4.56782e-11 2.87949e-12 0
2.87949e-12 -8.88547e-11 0
0 0 0

-8.50506e-11 1.91405e-11 0
1.91405e-11 -1.55555e-10 0
0 0 0

-4.07682e-11 9.96311e-12 0
9.96311e-12 -7.73982e-11 0
0 0 0

-7.64645e-11 8.53231e-12 0
8.53231e-12 -1.35521e-10 0
0 0 0

6.42034e-12 -2.90006e-12 0
-2.90006e-12 6.46351e-11 0
0 0 0

4.22933e-11 1.59781e-12 0
1.59781e-12 1.13416e-10 0
0 0 0

-9.99562e-12 9.59789e-12 0
9.59789e-12 2.63312e-11 0
0 0 0

2.80066e-11 6.95721e-12 0
6.95721e-12 8.00803e-11 0
0 0 0

1.16144e-11 -8.13692e-12 0
-8.13692e-12 1.00819e-11 0
0 0 0

-9.96504e-12 1.18244e-12 0
1.18244e-12 -4.55716e-11 0
0 0 0

-9.76911e-12 2.99461e-12 0
2.99461e-12 -3.9813e-11 0
0 0 0

1.15226e-11 -6.97683e-13 0
-6.97683e-13 4.56614e-12 0
0 0 0

1.15055e-11 4.42356e-12 0
4.42356e-12 3.03067e-11 0
0 0 0

-1.63851e-11 -1.04381e-11 0
-1.04381e-11 -1.71881e-11 0
0 0 0

-1.96839e-11 9.75505e-12 0
9.75505e-12 -4.24686e-11 0
0 0 0

-2.34292e-11 1.67757e-12 0
1.67757e-12 -3.36242e-11 0
0 0 0

-3.36917e-11 -9.90651e-12 0
-9.90651e-12 -7.64181e-11 0
0 0 0

-8.30339e-11 3.49838e-12 0
3.49838e-12 -1.60501e-10 0
0 0 0

-5.05973e-11 -9.24946e-12 0
-9.24946e-12 -1.15864e-10 0
0 0 0

-8.74422e-11 -6.16483e-14 0
-6.16483e-14 -1.70787e-10 0
0 0 0

2.81893e-12 -2.58303e-12 0
-2.58303e-12 7.47116e-11 0
0 0 0

1.17849e-11 -3.48673e-12 0
-3.48673e-12 6.98035e-11 0
0 0 0

-5.70983e-13 4.6013e-12 0
4.6013e-12 6.68018e-11 0
0 0 0

1.26304e-11 4.74055e-12 0
4.74055e-12 7.17763e-11 0
0 0 0

4.12056e-12 4.80064e-12 0
4.80064e-12 1.76911e-11 0
0 0 0

-1.6032e-11 1.1602e-11 0
1.1602e-11 -6.31628e-11 0
0 0 0

-1.34983e-12 1.74961e-11 0
1.74961e-11 4.92687e-12 0
0 0 0

4.62455e-12 1.11661e-11 0
1.11661e-11 -1.49642e-11 0
0 0 0

9.18061e-12 1.53624e-13 0
1.53624e-13 -5.83938e-12 0
0 0 0

-2.2345e-11 1.56667e-11 0
1.56667e-11 -5.44703e-11 0
0 0 0

2.59148e-11 3.07995e-12 0
3.07995e-12 3.32071e-11 0
0 0 0

4.5518e-12 1.40541e-11 0
1.40541e-11 8.2888e-12 0
0 0 0

1.65222e-11 3.23953e-12 0
3.23953e-12 -5.91039e-11 0
0 0 0

-8.5367e-11 -1.55234e-11 0
-1.55234e-11 -1.73461e-10 0
0 0 0

-5.87491e-12 -6.56344e-12 0
-6.56344e-12 -1.11364e-10 0
0 0 0

-9.33414e-11 -2.48447e-11 0
-2.48447e-11 -1.92067e-10 0
0 0 0

-2.37147e-11 7.9365e-13 0
7.9365e-13 4.73745e-11 0
0 0 0

3.29101e-11 2.01674e-11 0
2.01674e-11 1.37998e-10 0
0 0 0

-2.76626e-11 -1.6606e-12 0
-1.6606e-12 3.81626e-11 0
0 0 0

1.69805e-11 2.98597e-11 0
2.98597e-11 1.00829e-10 0
0 0 0

-5.72209e-12 7.51581e-12 0
7.51581e-12 -6.5234e-12 0
0 0 0

-1.60629e-11 4.07745e-12 0
4.07745e-12 -7.08226e-11 0
0 0 0

1.10093e-11 2.58149e-11 0
2.58149e-11 3.25166e-11 0
0 0 0

2.11205e-11 -6.37522e-14 0
-6.37522e-14 1.59387e-11 0
0 0 0

6.41418e-12 -5.23131e-12 0
-5.23131e-12 -8.61484e-12 0
0 0 0

-1.96008e-12 -8.16836e-12 0
-8.16836e-12 8.64951e-13 0
0 0 0

2.63522e-11 -9.31254e-12 0
-9.31254e-12 3.79071e-11 0
0 0 0

6.80695e-12 -5.63953e-12 0
-5.63953e-12 2.13213e-11 0
0 0 0

TENSORS velocity_gradient double
3.62312e-14 8.87043e-14 0
-6.75016e-14 -2.4869e-14 0
0 0 0

2.41599e-14 5.34914e-14 0
-5.41789e-14 -9.68114e-14 0
0 0 0

3.62312e-14 7.67967e-14 0
-6.39488e-14 -7.81597e-14 0
0 0 0

2.41599e-14 4.09289e-14 0
-4.9738e-14 -1.35003e-13 0
0 0 0

1.15645e-14 5.11288e-14 0
-2.84217e-14 -8.52651e-14 0
0 0 0

1.03641e-16 2.86746e-15 0
-1.95399e-14 2.22045e-13 0
0 0 0

1.15645e-14 3.85224e-14 0
-4.26326e-14 -9.9476e-14 0
0 0 0

1.03641e-16 -5.15663e-15 0
7.10543e-15 2.62901e-13 0
0 0 0

-7.68988e-15 -3.70529e-16 0
-1.06581e-14 4.61853e-14 0
0 0 0

-1.42644e-14 -1.68577e-14 0
4.79616e-14 -1.36779e-13 0
0 0 0

-7.68988e-15 -8.08718e-15 0
2.13163e-14 1.06581e-13 0
0 0 0

-1.42644e-14 -2.00058e-14 0
3.19744e-14 -1.38556e-13 0
0 0 0

-1.71827e-14 -1.79638e-14 0
2.84217e-14 8.52651e-14 0
0 0 0

-1.82206e-14 -1.14207e-14 0
2.30926e-14 6.57252e-14 0
0 0 0

-1.71827e-14 -2.08055e-14 0
3.55271e-14 4.9738e-14 0
0 0 0

-1.82206e-14 -7.04712e-15 0
3.55271e-15 8.88178e-14 0
0 0 0

3.04193e-15 5.89029e-14 0
-1.77636e-14 -4.61853e-14 0
0 0 0

-1.56213e-14 3.3141e-14 0
3.4639e-14 -1.35891e-13 0
0 0 0

3.04193e-15 3.5023e-14 0
-7.10543e-15 -3.55271e-14 0
0 0 0

-1.56213e-14 3.01276e-14 0
0 -1.13687e-13 0
0 0 0

-1.75847e-14 3.14126e-14 0
2.13163e-14 -1.20792e-13 0
0 0 0

-1.69781e-14 -5.5355e-15 0
1.5099e-14 2.85105e-13 0
0 0 0

-1.75847e-14 2.97992e-14 0
1.42109e-14 -9.9476e-14 0
0 0 0

-1.69781e-14 1.73087e-15 0
-1.42109e-14 2.98428e-13 0
0 0 0

-9.26495e-15 -8.01445e-15 0
-1.77636e-14 1.24345e-13 0
0 0 0

-3.1426e-15 -2.11284e-14 0
7.99361e-15 -1.34115e-13 0
0 0 0

-9.26495e-15 -1.52318e-16 0
-7.10543e-15 1.35003e-13 0
0 0 0

-3.1426e-15 -2.02254e-14 0
3.55271e-15 -1.81188e-13 0
0 0 0

-2.58978e-15 -2.20083e-14 0
-3.19744e-14 3.90799e-14 0
0 0 0

-2.73714e-15 -5.80919e-15 0
-4.26326e-14 7.10543e-14 0
0 0 0

-2.58978e-15 -2.15722e-14 0
-1.42109e-14 1.42109e-14 0
0 0 0

-2.73714e-15 -7.70691e-15 0
-1.77636e-14 3.90799e-14 0
0 0 0

2.03898e-14 7.8597e-15 0
-3.19744e-14 -3.19744e-14 0
0 0 0

-5.48588e-15 2.25396e-14 0
-2.66454e-14 -1.1191e-13 0
0 0 0

2.03898e-14 -2.2587e-14 0
-3.55271e-14 -6.39488e-14 0
0 0 0

-5.48588e-15 1.03769e-14 0
-1.77636e-14 -1.3145e-13 0
0 0 0

-1.67286e-14 2.35245e-14 0
-7.10543e-15 -1.06581e-13 0
0 0 0

-2.27492e-14 9.72683e-15 0
0 3.12639e-13 0
0 0 0

-1.67286e-14 1.25885e-14 0
-1.42109e-14 -1.56319e-13 0
0 0 0

-2.27492e-14 1.84524e-14 0
-3.55271e-14 3.05533e-13 0
0 0 0

-1.30342e-14 8.80111e-15 0
-1.42109e-14 1.27898e-13 0
0 0 0

-1.01418e-15 -1.08009e-14 0
1.15463e-14 -1.87406e-13 0
0 0 0

-1.30342e-14 1.88458e-14 0
-7.10543e-15 1.35003e-13 0
0 0 0

-1.01418e-15 7.14518e-15 0
2.13163e-14 -1.77636e-13 0
0 0 0

1.73295e-14 -1.2116e-14 0
0 0 0
0 0 0

3.11025e-14 -8.82404e-15 0
-2.04281e-14 7.99361e-15 0
0 0 0

1.73295e-14 6.36015e-15 0
7.10543e-15 2.13163e-14 0
0 0 0

3.11025e-14 -9.16059e-15 0
-7.10543e-15 4.9738e-14 0
0 0 0

5.75165e-14 -4.52529e-14 0
5.68434e-14 -8.52651e-14 0
0 0 0

3.95707e-14 -9.26863e-15 0
3.10862e-14 -9.68114e-14 0
0 0 0

5.75165e-14 -6.01379e-14 0
7.81597e-14 -1.06581e-13 0
0 0 0

3.95707e-14 -3.63969e-14 0
4.9738e-14 -1.35003e-13 0
0 0 0

1.18263e-14 -6.85434e-15 0
1.42109e-14 -9.9476e-14 0
0 0 0

-9.03376e-15 2.30196e-14 0
-1.06581e-14 2.59348e-13 0
0 0 0

1.18263e-14 -3.48041e-14 0
2.13163e-14 -1.35003e-13 0
0 0 0

-9.03376e-15 2.34285e-14 0
0 2.55795e-13 0
0 0 0

-7.19791e-15 2.50239e-14 0
-1.77636e-14 9.59233e-14 0
0 0 0

-3.47665e-15 2.00935e-14 0
-3.73035e-14 -2.07834e-13 0
0 0 0

-7.19791e-15 2.73355e-14 0
-2.84217e-14 8.52651e-14 0
0 0 0

-3.47665e-15 2.8044e-14 0
-2.84217e-14 -1.98952e-13 0
0 0 0

4.75761e-15 1.97627e-14 0
-3.19744e-14 1.06581e-14 0
0 0 0

1.62871e-14 1.23692e-15 0
2.66454e-15 2.66454e-15 0
0 0 0

4.75761e-15 2.80915e-14 0
-3.55271e-14 2.13163e-14 0
0 0 0

1.62871e-14 2.23685e-14 0
-4.26326e-14 -1.42109e-14 0
0 0 0

SCALARS active double 1
LOOKUP_TABLE default
1
1
1
1
1
1
1
1
1
1
1
1
1
1
1
1
1
1
1
1
1
1
1
1
1
1
1
1
1
1
1
1
1
1
1
1
1
1
1
1
1
1
1
1
1
1
1
1
1
1
1
1
1
1
1
1
1
1
1
1
1
1
1
1
SCALARS extent double 1
LOOKUP_TABLE default
0.0125
0.0125
0.0125
0.0125
0.0125
0.0125
0.0125
0.0125
0.0125
0.0125
0.0125
0.0125
0.0125
0.0125
0.0125
0.0125
0.0125
0.0125
0.0125
0.0125
0.0125
0.0125
0.0125
0.0125
0.0125
0.0125
0.0125
0.0125
0.0125
0.0125
0.0125
0.0125
0.0125
0.0125
0.0125
0.0125
0.0125
0.0125
0.0125
0.0125
0.0125
0.0125
0.0125
0.0125
0.0125
0.0125
0.0125
0.0125
0.0125
0.0125
0.0125
0.0125
0.0125
0.0125
0.0125
0.0125
0.0125
0.0125
0.0125
0.0125
0.0125
0.0125
0.0125
0.0125
SCALARS pressure double 1
LOOKUP_TABLE default
5.54373e-11
1.5558e-10
4.80701e-11
1.17856e-10
-2.12435e-11
-6.39823e-11
-1.27854e-11
-4.66858e-11
-4.3411e-11
-3.43819e-11
1.02821e-11
1.33737e-12
-9.39312e-12
-3.43348e-12
2.89206e-12
2.54197e-12
6.72665e-11
1.20303e-10
5.90832e-11
1.05993e-10
-3.55277e-11
-7.78545e-11
-8.16778e-12
-5.40434e-11
-1.08482e-11
2.77683e-11
2.47911e-11
-8.04436e-12
-2.09061e-11
1.67866e-11
3.10762e-11
2.85267e-11
5.50549e-11
1.21768e-10
8.32308e-11
1.29115e-10
-3.87653e-11
-4.07942e-11
-3.31154e-11
-4.22033e-11
-1.09058e-11
3.95974e-11
-1.78852e-12
5.16983e-12
-1.67062e-12
3.84076e-11
-2.9561e-11
-6.4203e-12
2.12908e-11
1.29414e-10
5.86194e-11
1.42704e-10
-1.18299e-11
-8.5454e-11
-5.24996e-12
-5.89047e-11
6.12275e-12
4.34427e-11
-2.17629e-11
-1.85296e-11
1.10033e-12
5.47564e-13
-3.21296e-11
-1.40641e-11
SCALARS density double 1
LOOKUP_TABLE default
1000
1000
1000
1000
1000
1000
1000
1000
1000
1000
1000
1000
1000
1000
1000
1000
1000
1000
1000
1000
1000
1000
1000
1000
1000
1000
1000
1000
1000
1000
1000
1000
1000
1000
1000
1000
1000
1000
1000
1000
1000
1000
1000
1000
1000
1000
1000
1000
1000
1000
1000
1000
1000
1000
1000
1000
1000
1000
1000
1000
1000
1000
1000
1000
