# vtk DataFile Version 3.0
Frame: 57, Time: 0.967
ASCII
DATASET UNSTRUCTURED_GRID
POINTS 64 double
0.37462 0.341409 0 
0.399643 0.336772 0 
0.37017 0.313528 0 
0.397084 0.309347 0 
0.424499 0.332101 0 
0.449593 0.327811 0 
0.42223 0.306373 0 
0.448799 0.301128 0 
0.475094 0.324151 0 
0.500921 0.318683 0 
0.473781 0.297077 0 
0.499621 0.293624 0 
0.526259 0.315591 0 
0.552139 0.313725 0 
0.524998 0.29048 0 
0.551126 0.286902 0 
0.36695 0.289777 0 
0.393098 0.28424 0 
0.361895 0.264419 0 
0.389466 0.25992 0 
0.418086 0.280312 0 
0.443355 0.276223 0 
0.413246 0.255129 0 
0.438991 0.25081 0 
0.469248 0.2717 0 
0.493832 0.268114 0 
0.465016 0.247462 0 
0.489895 0.242284 0 
0.520017 0.265298 0 
0.545465 0.260787 0 
0.515714 0.239308 0 
0.540932 0.234746 0 
0.359993 0.239157 0 
0.385496 0.23334 0 
0.356606 0.214173 0 
0.381437 0.207372 0 
0.409905 0.229602 0 
0.435608 0.224345 0 
0.407539 0.203171 0 
0.43292 0.199419 0 
0.461358 0.220358 0 
0.486688 0.21684 0 
0.456583 0.194534 0 
0.481638 0.191928 0 
0.511511 0.212817 0 
0.536778 0.208409 0 
0.506838 0.18718 0 
0.531455 0.182854 0 
0.350819 0.189392 0 
0.375933 0.183235 0 
0.345082 0.164354 0 
0.371771 0.159478 0 
0.4023 0.178697 0 
0.428103 0.173669 0 
0.397097 0.154159 0 
0.421073 0.145928 0 
0.452519 0.169513 0 
0.477228 0.166813 0 
0.447009 0.141417 0 
0.473391 0.139441 0 
0.504868 0.161688 0 
0.529678 0.158009 0 
0.499236 0.135002 0 
0.526672 0.132665 0 
CELLS 64 128
1 0
1 1
1 2
1 3
1 4
1 5
1 6
1 7
1 8
1 9
1 10
1 11
1 12
1 13
1 14
1 15
1 16
1 17
1 18
1 19
1 20
1 21
1 22
1 23
1 24
1 25
1 26
1 27
1 28
1 29
1 30
1 31
1 32
1 33
1 34
1 35
1 36
1 37
1 38
1 39
1 40
1 41
1 42
1 43
1 44
1 45
1 46
1 47
1 48
1 49
1 50
1 51
1 52
1 53
1 54
1 55
1 56
1 57
1 58
1 59
1 60
1 61
1 62
1 63
CELL_TYPES 64
1
1
1
1
1
1
1
1
1
1
1
1
1
1
1
1
1
1
1
1
1
1
1
1
1
1
1
1
1
1
1
1
1
1
1
1
1
1
1
1
1
1
1
1
1
1
1
1
1
1
1
1
1
1
1
1
1
1
1
1
1
1
1
1
POINT_DATA 64
VECTORS displacement double
-0.13788 -0.271091 0 
-0.112857 -0.300728 0 
-0.16733 -0.298972 0 
-0.140416 -0.328153 0 
-0.088001 -0.330399 0 
-0.0629067 -0.359689 0 
-0.11527 -0.356127 0 
-0.0887011 -0.386372 0 
-0.0374061 -0.388349 0 
-0.0115786 -0.418817 0 
-0.0637193 -0.415423 0 
-0.0378786 -0.443876 0 
0.0137588 -0.446909 0 
0.0396386 -0.473775 0 
-0.0125019 -0.47202 0 
0.0136263 -0.500598 0 
-0.19555 -0.322723 0 
-0.169402 -0.35326 0 
-0.225605 -0.348081 0 
-0.198034 -0.37758 0 
-0.144414 -0.382188 0 
-0.119145 -0.411277 0 
-0.174254 -0.407371 0 
-0.148509 -0.43669 0 
-0.093252 -0.4408 0 
-0.0686676 -0.469386 0 
-0.122484 -0.465038 0 
-0.0976046 -0.495216 0 
-0.0424825 -0.497202 0 
-0.0170349 -0.526713 0 
-0.0717862 -0.523192 0 
-0.046568 -0.552754 0 
-0.252507 -0.373343 0 
-0.227004 -0.40416 0 
-0.280894 -0.398327 0 
-0.256063 -0.430128 0 
-0.202595 -0.432898 0 
-0.176892 -0.463155 0 
-0.229961 -0.459329 0 
-0.20458 -0.488081 0 
-0.151142 -0.492142 0 
-0.125812 -0.52066 0 
-0.180917 -0.517966 0 
-0.155862 -0.545572 0 
-0.100989 -0.549683 0 
-0.075722 -0.579091 0 
-0.130662 -0.57532 0 
-0.106045 -0.604646 0 
-0.311681 -0.423108 0 
-0.286567 -0.454265 0 
-0.342418 -0.448146 0 
-0.315729 -0.478022 0 
-0.2602 -0.483803 0 
-0.234397 -0.513831 0 
-0.290403 -0.508341 0 
-0.266427 -0.541572 0 
-0.209981 -0.542987 0 
-0.185272 -0.570687 0 
-0.240491 -0.571083 0 
-0.214109 -0.598059 0 
-0.157632 -0.600812 0 
-0.132822 -0.629491 0 
-0.188264 -0.627498 0 
-0.160828 -0.654835 0 
VECTORS velocity double
-0.21936 -0.368987 0 
-0.235074 -0.231736 0 
-0.0331127 -0.646288 0 
-0.298012 -0.140853 0 
-0.0234163 -0.454555 0 
-0.129939 -0.125588 0 
-0.20929 -0.360644 0 
-0.00855773 -0.410036 0 
-0.46719 -0.226876 0 
-0.02899 -0.128928 0 
-0.312031 0.177964 0 
0.010991 -0.339532 0 
-0.52936 -0.125728 0 
-0.356175 0.0459506 0 
0.0161458 -0.455609 0 
0.0392328 0.281715 0 
-0.127374 -0.557884 0 
0.0908187 -0.497928 0 
-0.138291 -0.617454 0 
-0.0973744 -0.0462966 0 
-0.236862 -0.139173 0 
0.189884 -0.520092 0 
-0.344289 -0.296359 0 
-0.0775634 -0.139659 0 
-0.122435 -0.199118 0 
-0.086177 -0.164796 0 
-0.396901 -0.150763 0 
-0.0640643 -0.281022 0 
-0.0850315 -0.38582 0 
-0.0492239 0.0197037 0 
0.0637508 -0.102789 0 
-0.125224 0.147597 0 
-0.0537838 -1.08319 0 
0.326386 -0.0826362 0 
0.656919 -1.07369 0 
0.730491 -0.476091 0 
0.269013 -0.784349 0 
0.429931 -0.586629 0 
0.475239 -0.274723 0 
0.260834 -0.143347 0 
0.470983 -0.173899 0 
0.458615 -0.224815 0 
0.285453 -0.455712 0 
0.589809 -0.0160236 0 
-0.0288564 -0.561922 0 
0.511162 -0.0175087 0 
0.0853659 -0.35675 0 
0.10207 0.0425884 0 
0.676832 -0.891688 0 
0.497991 -0.676735 0 
0.731699 -0.616724 0 
0.357123 -1.07142 0 
0.563504 -0.469527 0 
-0.0663995 -0.753572 0 
0.976098 -0.435288 0 
0.17359 -0.791767 0 
0.188932 -0.404787 0 
0.487157 0.246825 0 
0.529357 -0.461917 0 
0.892965 -0.212429 0 
0.266975 -0.660578 0 
0.343094 -0.0670099 0 
0.561362 -0.409898 0 
0.624858 -0.0833786 0 
SCALARS mass double 1
LOOKUP_TABLE default
0.625
0.625
0.625
0.625
0.625
0.625
0.625
0.625
0.625
0.625
0.625
0.625
0.625
0.625
0.625
0.625
0.625
0.625
0.625
0.625
0.625
0.625
0.625
0.625
0.625
0.625
0.625
0.625
0.625
0.625
0.625
0.625
0.625
0.625
0.625
0.625
0.625
0.625
0.625
0.625
0.625
0.625
0.625
0.625
0.625
0.625
0.625
0.625
0.625
0.625
0.625
0.625
0.625
0.625
0.625
0.625
0.625
0.625
0.625
0.625
0.625
0.625
0.625
0.625
SCALARS volume double 1
LOOKUP_TABLE default
0.000625828
0.000609055
0.000627186
0.000629984
0.000636099
0.00061437
0.000637086
0.000602875
0.00063163
0.000618562
0.000635696
0.000628532
0.000626461
0.000626035
0.000613877
0.000635931
0.000627803
0.000613335
0.000636282
0.000624403
0.000612235
0.000648972
0.000640383
0.000614142
0.000604447
0.000632846
0.000620515
0.000626635
0.000641351
0.000622401
0.000631499
0.000619933
0.000625834
0.000622486
0.000601953
0.000639808
0.000596
0.000656448
0.000632813
0.000583346
0.000643938
0.000630878
0.000613977
0.000618637
0.00061055
0.000643448
0.000618685
0.000626735
0.000618775
0.000592151
0.000624156
0.000680743
0.000609202
0.000673158
0.000578654
0.000644079
0.000610221
0.000658731
0.000626955
0.000628487
0.000647369
0.000613936
0.000636542
0.00061714
VECTORS momentum double
-0.1371 -0.230617 0 
-0.146921 -0.144835 0 
-0.0206954 -0.40393 0 
-0.186258 -0.0880331 0 
-0.0146352 -0.284097 0 
-0.0812118 -0.0784924 0 
-0.130806 -0.225403 0 
-0.00534858 -0.256272 0 
-0.291994 -0.141797 0 
-0.0181188 -0.0805802 0 
-0.195019 0.111228 0 
0.00686937 -0.212208 0 
-0.33085 -0.07858 0 
-0.22261 0.0287191 0 
0.0100911 -0.284756 0 
0.0245205 0.176072 0 
-0.0796086 -0.348678 0 
0.0567617 -0.311205 0 
-0.0864317 -0.385908 0 
-0.060859 -0.0289354 0 
-0.148039 -0.0869834 0 
0.118678 -0.325057 0 
-0.21518 -0.185224 0 
-0.0484771 -0.0872868 0 
-0.0765216 -0.124449 0 
-0.0538606 -0.102998 0 
-0.248063 -0.0942268 0 
-0.0400402 -0.175639 0 
-0.0531447 -0.241137 0 
-0.0307649 0.0123148 0 
0.0398443 -0.0642431 0 
-0.0782651 0.0922482 0 
-0.0336149 -0.676994 0 
0.203991 -0.0516476 0 
0.410574 -0.671055 0 
0.456557 -0.297557 0 
0.168133 -0.490218 0 
0.268707 -0.366643 0 
0.297025 -0.171702 0 
0.163021 -0.0895916 0 
0.294365 -0.108687 0 
0.286635 -0.140509 0 
0.178408 -0.28482 0 
0.368631 -0.0100148 0 
-0.0180352 -0.351201 0 
0.319476 -0.0109429 0 
0.0533537 -0.222969 0 
0.0637941 0.0266177 0 
0.42302 -0.557305 0 
0.311244 -0.42296 0 
0.457312 -0.385452 0 
0.223202 -0.669636 0 
0.35219 -0.293454 0 
-0.0414997 -0.470983 0 
0.610061 -0.272055 0 
0.108494 -0.494854 0 
0.118082 -0.252992 0 
0.304473 0.154266 0 
0.330848 -0.288698 0 
0.558103 -0.132768 0 
0.16686 -0.412861 0 
0.214434 -0.0418812 0 
0.350851 -0.256186 0 
0.390536 -0.0521116 0 
VECTORS body_force double
0 -9.81 0 
0 -9.81 0 
0 -9.81 0 
0 -9.81 0 
0 -9.81 0 
0 -9.81 0 
0 -9.81 0 
0 -9.81 0 
0 -9.81 0 
0 -9.81 0 
0 -9.81 0 
0 -9.81 0 
0 -9.81 0 
0 -9.81 0 
0 -9.81 0 
0 -9.81 0 
0 -9.81 0 
0 -9.81 0 
0 -9.81 0 
0 -9.81 0 
0 -9.81 0 
0 -9.81 0 
0 -9.81 0 
0 -9.81 0 
0 -9.81 0 
0 -9.81 0 
0 -9.81 0 
0 -9.81 0 
0 -9.81 0 
0 -9.81 0 
0 -9.81 0 
0 -9.81 0 
0 -9.81 0 
0 -9.81 0 
0 -9.81 0 
0 -9.81 0 
0 -9.81 0 
0 -9.81 0 
0 -9.81 0 
0 -9.81 0 
0 -9.81 0 
0 -9.81 0 
0 -9.81 0 
0 -9.81 0 
0 -9.81 0 
0 -9.81 0 
0 -9.81 0 
0 -9.81 0 
0 -9.81 0 
0 -9.81 0 
0 -9.81 0 
0 -9.81 0 
0 -9.81 0 
0 -9.81 0 
0 -9.81 0 
0 -9.81 0 
0 -9.81 0 
0 -9.81 0 
0 -9.81 0 
0 -9.81 0 
0 -9.81 0 
0 -9.81 0 
0 -9.81 0 
0 -9.81 0 
TENSORS cauchy_stress double
-295.922 72.1027 0
72.1027 550.66 0
0 0 0

-2440.58 1668.7 0
1668.7 -2529.31 0
0 0 0

1748.11 -1365.6 0
-1365.6 -1076.81 0
0 0 0

300.344 -661.648 0
-661.648 1227.04 0
0 0 0

1800.8 -604.952 0
-604.952 1584.26 0
0 0 0

-3801.29 79.1719 0
79.1719 502.435 0
0 0 0

1294.22 -1936.55 0
-1936.55 2389.18 0
0 0 0

-3603.57 -493.821 0
-493.821 -3327.42 0
0 0 0

1743.21 -983.9 0
-983.9 286.017 0
0 0 0

-1545.04 -471.952 0
-471.952 -446.252 0
0 0 0

777.438 -1846.35 0
-1846.35 2485.85 0
0 0 0

262.736 -2410.16 0
-2410.16 820.942 0
0 0 0

97.0471 535.728 0
535.728 352.073 0
0 0 0

-142.709 -1106.87 0
-1106.87 460.946 0
0 0 0

-650.021 -584.215 0
-584.215 -2803.41 0
0 0 0

197.893 1134.63 0
1134.63 3136.44 0
0 0 0

373.773 1092.69 0
1092.69 486.684 0
0 0 0

-423.592 575.439 0
575.439 -3199.5 0
0 0 0

4059.06 211.201 0
211.201 -618.509 0
0 0 0

-1156.91 -1420.25 0
-1420.25 973.082 0
0 0 0

-3134.59 920.762 0
920.762 -833.822 0
0 0 0

3198.59 1022.8 0
1022.8 4039.49 0
0 0 0

2125.79 -3631.41 0
-3631.41 2550.11 0
0 0 0

-1654.42 2307.09 0
2307.09 -1715.71 0
0 0 0

-1537.64 -581.616 0
-581.616 -4892.65 0
0 0 0

1315.21 2131.25 0
2131.25 1083.96 0
0 0 0

-2098.36 -1704.32 0
-1704.32 713.534 0
0 0 0

1198.55 333.695 0
333.695 -696.083 0
0 0 0

1930.05 1334.75 0
1334.75 3036.28 0
0 0 0

-1372.9 -1250.72 0
-1250.72 571.416 0
0 0 0

2091.94 3062.17 0
3062.17 -102.531 0
0 0 0

-2494.08 -264.136 0
-264.136 928.73 0
0 0 0

-220.929 1037.31 0
1037.31 477.309 0
0 0 0

-3377.07 -2349.68 0
-2349.68 2601.98 0
0 0 0

-2293.97 -2012.05 0
-2012.05 -4931.39 0
0 0 0

3030.17 684.799 0
684.799 1472.85 0
0 0 0

-6077.48 -1546.66 0
-1546.66 -3059.1 0
0 0 0

7438 -4288.73 0
-4288.73 2002.79 0
0 0 0

1068.15 807.584 0
807.584 1320.8 0
0 0 0

-10845.5 -1927.42 0
-1927.42 -2418.09 0
0 0 0

799.163 2568.29 0
2568.29 4941.37 0
0 0 0

313.754 -3252.61 0
-3252.61 1486.48 0
0 0 0

-1881.64 1433.12 0
1433.12 -1540.31 0
0 0 0

-834.283 52.2808 0
52.2808 -1133.58 0
0 0 0

-3893.87 -760.478 0
-760.478 -604.383 0
0 0 0

3613.84 -1134.13 0
-1134.13 1980.42 0
0 0 0

-1723.29 2481.18 0
2481.18 -229.768 0
0 0 0

1774.68 -1098.81 0
-1098.81 -1241.48 0
0 0 0

-508.362 2994.57 0
2994.57 -1416.68 0
0 0 0

-1635.2 -1361.02 0
-1361.02 -8747.39 0
0 0 0

-484.866 -1659.19 0
-1659.19 225.093 0
0 0 0

10959.4 3357.53 0
3357.53 5470.18 0
0 0 0

-2230.41 -1270.21 0
-1270.21 -2693.13 0
0 0 0

5633.22 360.313 0
360.313 8641.41 0
0 0 0

-8462.89 -2219.71 0
-2219.71 -6353.95 0
0 0 0

4399.21 748.575 0
748.575 1383.45 0
0 0 0

-5706.73 2483.4 0
2483.4 1104.74 0
0 0 0

6782.88 394.056 0
394.056 3325.65 0
0 0 0

1308.59 1177.83 0
1177.83 -707.914 0
0 0 0

-354.846 -1030.01 0
-1030.01 1424.74 0
0 0 0

4679.33 -47.3072 0
-47.3072 2083.19 0
0 0 0

-3499.31 -696.832 0
-696.832 64.4185 0
0 0 0

3694.45 874.401 0
874.401 -175.586 0
0 0 0

-2143.41 -968.678 0
-968.678 -290.346 0
0 0 0

TENSORS velocity_gradient double
-0.151207 -1.04115 0
1.87716 1.41948 0
0 0 0

0.151265 -0.496608 0
1.76381 0.244768 0
0 0 0

-0.820829 -1.14902 0
3.34276 1.65556 0
0 0 0

-0.539285 -0.534061 0
2.99899 0.319466 0
0 0 0

0.568804 -0.30995 0
1.4066 -0.041501 0
0 0 0

-0.392443 -0.324587 0
1.7037 -0.0829102 0
0 0 0

0.438932 -0.321438 0
1.54538 -0.0292244 0
0 0 0

0.0442303 -1.27435 0
1.49232 0.10706 0
0 0 0

-1.25817 -1.24672 0
1.90521 0.478064 0
0 0 0

-1.11453 -2.30131 0
2.21106 0.95267 0
0 0 0

-0.328959 -2.19012 0
1.31979 0.403153 0
0 0 0

-0.368122 -2.50913 0
2.16338 0.343434 0
0 0 0

-1.07347 -3.15443 0
2.61145 0.39219 0
0 0 0

-0.175285 -3.64046 0
3.66584 -0.0785302 0
0 0 0

-0.438115 -2.78162 0
3.16891 0.0442417 0
0 0 0

0.0214889 -3.30096 0
3.99532 -0.480743 0
0 0 0

-1.05166 -3.64695 0
4.58179 2.4406 0
0 0 0

-0.990561 -3.92974 0
4.8743 1.08673 0
0 0 0

-0.77847 -3.59125 0
5.88969 2.7073 0
0 0 0

-0.728124 -3.88941 0
6.13073 1.27982 0
0 0 0

-0.0959566 -3.53346 0
1.7127 0.610668 0
0 0 0

-0.202845 -2.87978 0
1.74071 0.439395 0
0 0 0

-0.747849 -3.88852 0
1.89165 0.706797 0
0 0 0

-0.865585 -4.47765 0
1.96826 0.656559 0
0 0 0

-0.37414 -2.61122 0
1.28095 0.388782 0
0 0 0

-0.389704 -2.48734 0
1.30761 0.380173 0
0 0 0

-0.547874 -4.95556 0
1.27794 0.563556 0
0 0 0

-0.612436 -5.61677 0
1.27159 0.698173 0
0 0 0

-0.110991 -2.71596 0
3.50433 0.111573 0
0 0 0

0.221953 -3.08883 0
3.92179 -0.268994 0
0 0 0

-0.0637871 -5.21705 0
3.78013 0.615806 0
0 0 0

-0.131615 -4.84989 0
3.8111 0.448187 0
0 0 0

-1.06219 -9.45508 0
6.72614 2.26356 0
0 0 0

-1.32405 -8.33856 0
6.76114 2.11434 0
0 0 0

-2.1577 -9.60935 0
6.83555 2.27842 0
0 0 0

-2.45827 -8.52634 0
6.91272 2.13944 0
0 0 0

-1.45039 -7.42181 0
2.48719 1.75301 0
0 0 0

-1.59965 -6.70009 0
2.63778 1.02481 0
0 0 0

-2.13717 -6.22008 0
3.25987 2.18075 0
0 0 0

-2.1665 -4.19012 0
3.40547 1.72255 0
0 0 0

-0.982248 -6.10176 0
1.22423 0.636065 0
0 0 0

-1.04222 -5.67347 0
1.21655 0.690912 0
0 0 0

-1.08859 -2.59198 0
1.29999 1.27469 0
0 0 0

-1.01228 -3.27371 0
1.34253 0.812606 0
0 0 0

-0.449298 -5.28033 0
3.95613 0.644695 0
0 0 0

-0.514962 -4.91231 0
3.9861 0.476684 0
0 0 0

-0.878056 -3.91301 0
3.82586 0.535037 0
0 0 0

-0.961939 -3.4453 0
3.7498 0.959107 0
0 0 0

-1.87647 -1.623 0
1.39655 -0.386367 0
0 0 0

-2.94253 -1.56073 0
5.38952 1.45553 0
0 0 0

0.0626559 -1.52788 0
-0.656209 -0.360839 0
0 0 0

-3.14196 -1.59617 0
3.077 1.04464 0
0 0 0

-2.36421 -1.42401 0
4.54171 3.44614 0
0 0 0

-1.96236 -1.70704 0
4.57215 2.53265 0
0 0 0

-2.5481 -1.09077 0
3.48408 3.06718 0
0 0 0

-1.31286 -2.34272 0
5.53279 0.413977 0
0 0 0

-0.693724 -2.13696 0
2.78512 1.4783 0
0 0 0

0.0140831 -3.0899 0
1.86708 0.906543 0
0 0 0

-0.710491 -4.30934 0
4.79421 0.346936 0
0 0 0

0.422821 -4.05211 0
2.31777 0.276296 0
0 0 0

-1.13583 -3.89906 0
3.18616 0.533284 0
0 0 0

-1.4333 -3.48072 0
3.32242 0.926988 0
0 0 0

-0.272226 -3.46516 0
2.71241 0.0539908 0
0 0 0

-1.04927 -4.10334 0
3.25564 -0.0824243 0
0 0 0

SCALARS active double 1
LOOKUP_TABLE default
1
1
1
1
1
1
1
1
1
1
1
1
1
1
1
1
1
1
1
1
1
1
1
1
1
1
1
1
1
1
1
1
1
1
1
1
1
1
1
1
1
1
1
1
1
1
1
1
1
1
1
1
1
1
1
1
1
1
1
1
1
1
1
1
SCALARS extent double 1
LOOKUP_TABLE default
0.0125
0.0125
0.0125
0.0125
0.0125
0.0125
0.0125
0.0125
0.0125
0.0125
0.0125
0.0125
0.0125
0.0125
0.0125
0.0125
0.0125
0.0125
0.0125
0.0125
0.0125
0.0125
0.0125
0.0125
0.0125
0.0125
0.0125
0.0125
0.0125
0.0125
0.0125
0.0125
0.0125
0.0125
0.0125
0.0125
0.0125
0.0125
0.0125
0.0125
0.0125
0.0125
0.0125
0.0125
0.0125
0.0125
0.0125
0.0125
0.0125
0.0125
0.0125
0.0125
0.0125
0.0125
0.0125
0.0125
0.0125
0.0125
0.0125
0.0125
0.0125
0.0125
0.0125
0.0125
SCALARS pressure double 1
LOOKUP_TABLE default
-127.369
2484.95
-335.65
-763.694
-1692.53
1649.43
-1841.7
3465.49
-1014.62
995.644
-1631.64
-541.839
-224.56
-159.119
1726.71
-1667.17
-430.228
1811.55
-1720.27
91.9137
1984.21
-3619.04
-2337.95
1685.07
3215.15
-1199.59
692.413
-251.231
-2483.17
400.742
-994.705
782.674
-128.19
387.543
3612.68
-2251.51
4568.29
-4720.4
-1194.48
6631.77
-2870.27
-900.118
1710.97
983.93
2249.13
-2797.13
976.53
-266.598
962.521
5191.3
129.886
-8214.8
2461.77
-7137.31
7408.42
-2891.33
2300.99
-5054.26
-300.34
-534.947
-3381.26
1717.44
-1759.43
1216.88
SCALARS density double 1
LOOKUP_TABLE default
998.676
1026.18
996.515
992.089
982.552
1017.3
981.029
1036.7
989.503
1010.41
983.174
994.381
997.667
998.347
1018.12
982.811
995.536
1019.02
982.268
1000.96
1020.85
963.061
975.979
1017.68
1034
987.602
1007.23
997.391
974.506
1004.18
989.708
1008.17
998.668
1004.04
1038.29
976.856
1048.66
952.093
987.654
1071.4
970.59
990.682
1017.95
1010.29
1023.67
971.329
1010.21
997.231
1010.06
1055.47
1001.35
918.114
1025.93
928.46
1080.09
970.378
1024.22
948.793
996.881
994.452
965.446
1018.02
981.868
1012.74
