# vtk DataFile Version 3.0
Frame: 55, Time: 0.934
ASCII
DATASET UNSTRUCTURED_GRID
POINTS 64 double
0.383697 0.356046 0 
0.408197 0.348347 0 
0.375583 0.328509 0 
0.401441 0.321176 0 
0.432133 0.340368 0 
0.456362 0.333001 0 
0.425786 0.315168 0 
0.451239 0.30692 0 
0.48164 0.326603 0 
0.506923 0.318218 0 
0.475973 0.300234 0 
0.501597 0.293885 0 
0.531754 0.311357 0 
0.557273 0.305592 0 
0.526506 0.287017 0 
0.55206 0.279546 0 
0.36914 0.304797 0 
0.393744 0.29644 0 
0.360501 0.279865 0 
0.387083 0.272387 0 
0.418033 0.289807 0 
0.442837 0.283057 0 
0.410297 0.265256 0 
0.435753 0.258496 0 
0.468336 0.275773 0 
0.492482 0.269463 0 
0.461421 0.252445 0 
0.485411 0.244352 0 
0.518112 0.263075 0 
0.542666 0.255022 0 
0.510568 0.237976 0 
0.534929 0.230213 0 
0.354524 0.254541 0 
0.379261 0.246183 0 
0.347973 0.228752 0 
0.372105 0.220448 0 
0.403487 0.240512 0 
0.429085 0.232977 0 
0.397834 0.214814 0 
0.42351 0.208916 0 
0.454663 0.226331 0 
0.479365 0.219412 0 
0.447099 0.201572 0 
0.471583 0.195416 0 
0.503429 0.212004 0 
0.527692 0.204783 0 
0.495743 0.187018 0 
0.519509 0.179818 0 
0.340604 0.202474 0 
0.365551 0.196111 0 
0.335521 0.176163 0 
0.361924 0.171881 0 
0.39157 0.19092 0 
0.417118 0.183926 0 
0.386204 0.166515 0 
0.408885 0.156923 0 
0.440966 0.177235 0 
0.464504 0.171147 0 
0.432989 0.149746 0 
0.457455 0.144471 0 
0.490437 0.161991 0 
0.514785 0.155161 0 
0.48135 0.136369 0 
0.508236 0.130266 0 
CELLS 64 128
1 0
1 1
1 2
1 3
1 4
1 5
1 6
1 7
1 8
1 9
1 10
1 11
1 12
1 13
1 14
1 15
1 16
1 17
1 18
1 19
1 20
1 21
1 22
1 23
1 24
1 25
1 26
1 27
1 28
1 29
1 30
1 31
1 32
1 33
1 34
1 35
1 36
1 37
1 38
1 39
1 40
1 41
1 42
1 43
1 44
1 45
1 46
1 47
1 48
1 49
1 50
1 51
1 52
1 53
1 54
1 55
1 56
1 57
1 58
1 59
1 60
1 61
1 62
1 63
CELL_TYPES 64
1
1
1
1
1
1
1
1
1
1
1
1
1
1
1
1
1
1
1
1
1
1
1
1
1
1
1
1
1
1
1
1
1
1
1
1
1
1
1
1
1
1
1
1
1
1
1
1
1
1
1
1
1
1
1
1
1
1
1
1
1
1
1
1
POINT_DATA 64
VECTORS displacement double
-0.128803 -0.256454 0 
-0.104303 -0.289153 0 
-0.161917 -0.283991 0 
-0.136059 -0.316324 0 
-0.0803675 -0.322132 0 
-0.0561378 -0.354499 0 
-0.111714 -0.347332 0 
-0.0862613 -0.38058 0 
-0.0308598 -0.385897 0 
-0.00557727 -0.419282 0 
-0.0615274 -0.412266 0 
-0.0359035 -0.443615 0 
0.0192536 -0.451143 0 
0.0447733 -0.481908 0 
-0.0109936 -0.475483 0 
0.0145597 -0.507954 0 
-0.19336 -0.307703 0 
-0.168756 -0.34106 0 
-0.226999 -0.332635 0 
-0.200417 -0.365113 0 
-0.144467 -0.372693 0 
-0.119663 -0.404443 0 
-0.177203 -0.397244 0 
-0.151747 -0.429004 0 
-0.0941639 -0.436727 0 
-0.0700183 -0.468037 0 
-0.126079 -0.460055 0 
-0.102089 -0.493148 0 
-0.0443882 -0.499425 0 
-0.0198336 -0.532478 0 
-0.0769318 -0.524524 0 
-0.0525708 -0.557287 0 
-0.257976 -0.357959 0 
-0.233239 -0.391317 0 
-0.289527 -0.383748 0 
-0.265395 -0.417052 0 
-0.209013 -0.421988 0 
-0.183415 -0.454523 0 
-0.239666 -0.447686 0 
-0.21399 -0.478584 0 
-0.157837 -0.486169 0 
-0.133135 -0.518088 0 
-0.190401 -0.510928 0 
-0.165917 -0.542084 0 
-0.109071 -0.550496 0 
-0.084808 -0.582717 0 
-0.141757 -0.575482 0 
-0.117991 -0.607682 0 
-0.321896 -0.410026 0 
-0.296949 -0.441389 0 
-0.351979 -0.436337 0 
-0.325576 -0.465619 0 
-0.27093 -0.47158 0 
-0.245382 -0.503574 0 
-0.301296 -0.495985 0 
-0.278615 -0.530577 0 
-0.221534 -0.535265 0 
-0.197996 -0.566353 0 
-0.254511 -0.562754 0 
-0.230045 -0.593029 0 
-0.172063 -0.600509 0 
-0.147715 -0.632339 0 
-0.20615 -0.626131 0 
-0.179264 -0.657234 0 
VECTORS velocity double
-0.419887 -0.539338 0 
-0.215663 -0.24117 0 
-0.169071 -0.607828 0 
-0.122543 -0.245896 0 
-0.199298 -0.258076 0 
-0.37269 0.214551 0 
-0.0462304 -0.362668 0 
0.124555 -0.269622 0 
-0.450574 0.120759 0 
0.126696 0.317451 0 
-0.187256 0.523653 0 
0.107438 0.211151 0 
-0.337663 0.514378 0 
-0.0499303 0.61099 0 
0.218257 0.0941083 0 
0.367812 0.724644 0 
-0.114279 -0.420743 0 
0.286302 -0.594658 0 
0.037659 -0.273035 0 
0.113016 0.0262393 0 
-0.0151168 -0.195857 0 
0.431257 -0.457033 0 
-0.119377 -0.299277 0 
0.211709 -0.0749753 0 
0.145854 0.0720051 0 
0.220965 0.317104 0 
-0.0487925 0.0732348 0 
0.343216 0.143576 0 
0.223018 0.126177 0 
0.163376 0.461544 0 
0.398618 0.377884 0 
0.0424408 0.56347 0 
0.167548 -0.487951 0 
0.417322 0.15813 0 
0.31731 -0.349895 0 
0.200639 0.0282151 0 
0.300935 -0.880172 0 
0.438603 -0.539643 0 
0.0403844 -0.489064 0 
-0.125917 -0.143361 0 
0.517302 0.106527 0 
0.544949 0.242791 0 
0.0198138 -0.133141 0 
0.435468 0.496827 0 
0.0578641 -0.0629358 0 
0.512793 0.333848 0 
0.0463602 0.217508 0 
0.180945 0.486367 0 
-0.269308 -0.437434 0 
-0.381228 0.201829 0 
0.408832 -0.710448 0 
0.190183 -0.189132 0 
0.110101 -0.320872 0 
-0.315304 -0.566693 0 
1.06857 0.237043 0 
0.0886079 -0.473531 0 
0.0820605 -0.0649995 0 
0.460251 0.753334 0 
0.262506 -0.258429 0 
0.668891 0.274548 0 
0.308123 -0.025457 0 
0.570091 0.508702 0 
0.328699 0.30882 0 
0.637058 0.374478 0 
SCALARS mass double 1
LOOKUP_TABLE default
0.625
0.625
0.625
0.625
0.625
0.625
0.625
0.625
0.625
0.625
0.625
0.625
0.625
0.625
0.625
0.625
0.625
0.625
0.625
0.625
0.625
0.625
0.625
0.625
0.625
0.625
0.625
0.625
0.625
0.625
0.625
0.625
0.625
0.625
0.625
0.625
0.625
0.625
0.625
0.625
0.625
0.625
0.625
0.625
0.625
0.625
0.625
0.625
0.625
0.625
0.625
0.625
0.625
0.625
0.625
0.625
0.625
0.625
0.625
0.625
0.625
0.625
0.625
0.625
SCALARS volume double 1
LOOKUP_TABLE default
0.000629915
0.000618359
0.00063702
0.000635723
0.000636428
0.000617263
0.000636404
0.000602875
0.000641219
0.000619638
0.000643072
0.0006336
0.000630121
0.000625292
0.000612135
0.000634374
0.00062455
0.000608411
0.000638673
0.000631175
0.000614314
0.000645609
0.000651526
0.000616935
0.000603392
0.000633031
0.000610051
0.000626731
0.000637409
0.000609551
0.000632988
0.000609026
0.000655234
0.000634192
0.000629178
0.000650647
0.000599517
0.000661712
0.000635434
0.000589309
0.000635012
0.000631804
0.00061136
0.000614088
0.000609731
0.000630565
0.000614654
0.000631061
0.000638996
0.000597322
0.000637994
0.000670575
0.00059744
0.000669581
0.00055051
0.000633691
0.000596988
0.000638369
0.000610597
0.000609033
0.000638172
0.000630382
0.000618899
0.000630754
VECTORS momentum double
-0.26243 -0.337086 0 
-0.134789 -0.150731 0 
-0.105669 -0.379892 0 
-0.0765892 -0.153685 0 
-0.124561 -0.161297 0 
-0.232931 0.134094 0 
-0.028894 -0.226668 0 
0.0778466 -0.168514 0 
-0.281609 0.0754742 0 
0.0791847 0.198407 0 
-0.117035 0.327283 0 
0.0671488 0.131969 0 
-0.211039 0.321486 0 
-0.0312065 0.381869 0 
0.136411 0.0588177 0 
0.229883 0.452903 0 
-0.0714245 -0.262964 0 
0.178939 -0.371661 0 
0.0235369 -0.170647 0 
0.070635 0.0163995 0 
-0.00944801 -0.12241 0 
0.269536 -0.285646 0 
-0.0746106 -0.187048 0 
0.132318 -0.0468596 0 
0.091159 0.0450032 0 
0.138103 0.19819 0 
-0.0304953 0.0457717 0 
0.21451 0.0897351 0 
0.139386 0.0788609 0 
0.10211 0.288465 0 
0.249136 0.236177 0 
0.0265255 0.352169 0 
0.104718 -0.30497 0 
0.260826 0.0988311 0 
0.198319 -0.218684 0 
0.125399 0.0176345 0 
0.188084 -0.550107 0 
0.274127 -0.337277 0 
0.0252403 -0.305665 0 
-0.0786982 -0.0896006 0 
0.323314 0.0665794 0 
0.340593 0.151744 0 
0.0123836 -0.083213 0 
0.272167 0.310517 0 
0.0361651 -0.0393349 0 
0.320496 0.208655 0 
0.0289751 0.135942 0 
0.11309 0.30398 0 
-0.168317 -0.273396 0 
-0.238267 0.126143 0 
0.25552 -0.44403 0 
0.118864 -0.118208 0 
0.0688131 -0.200545 0 
-0.197065 -0.354183 0 
0.667858 0.148152 0 
0.0553799 -0.295957 0 
0.0512878 -0.0406247 0 
0.287657 0.470834 0 
0.164066 -0.161518 0 
0.418057 0.171592 0 
0.192577 -0.0159106 0 
0.356307 0.317939 0 
0.205437 0.193012 0 
0.398161 0.234049 0 
VECTORS body_force double
0 -9.81 0 
0 -9.81 0 
0 -9.81 0 
0 -9.81 0 
0 -9.81 0 
0 -9.81 0 
0 -9.81 0 
0 -9.81 0 
0 -9.81 0 
0 -9.81 0 
0 -9.81 0 
0 -9.81 0 
0 -9.81 0 
0 -9.81 0 
0 -9.81 0 
0 -9.81 0 
0 -9.81 0 
0 -9.81 0 
0 -9.81 0 
0 -9.81 0 
0 -9.81 0 
0 -9.81 0 
0 -9.81 0 
0 -9.81 0 
0 -9.81 0 
0 -9.81 0 
0 -9.81 0 
0 -9.81 0 
0 -9.81 0 
0 -9.81 0 
0 -9.81 0 
0 -9.81 0 
0 -9.81 0 
0 -9.81 0 
0 -9.81 0 
0 -9.81 0 
0 -9.81 0 
0 -9.81 0 
0 -9.81 0 
0 -9.81 0 
0 -9.81 0 
0 -9.81 0 
0 -9.81 0 
0 -9.81 0 
0 -9.81 0 
0 -9.81 0 
0 -9.81 0 
0 -9.81 0 
0 -9.81 0 
0 -9.81 0 
0 -9.81 0 
0 -9.81 0 
0 -9.81 0 
0 -9.81 0 
0 -9.81 0 
0 -9.81 0 
0 -9.81 0 
0 -9.81 0 
0 -9.81 0 
0 -9.81 0 
0 -9.81 0 
0 -9.81 0 
0 -9.81 0 
0 -9.81 0 
TENSORS cauchy_stress double
1005.29 -81.6877 0
-81.6877 500.964 0
0 0 0

-639.945 2125.85 0
2125.85 -1414.39 0
0 0 0

1850.71 -739.607 0
-739.607 1812.77 0
0 0 0

463.679 756.652 0
756.652 2807.85 0
0 0 0

1882.37 489.83 0
489.83 1602.12 0
0 0 0

-2098.4 2384.32 0
2384.32 -297.107 0
0 0 0

702.905 -169.894 0
-169.894 2774.41 0
0 0 0

-2631.07 1410.61 0
1410.61 -4299.9 0
0 0 0

4671.39 732.835 0
732.835 255.483 0
0 0 0

-320.368 431.852 0
431.852 -1336.6 0
0 0 0

2879.49 -394.293 0
-394.293 2602.33 0
0 0 0

1106.58 -2322.66 0
-2322.66 1521.56 0
0 0 0

1806.15 1109.1 0
1109.1 -236.811 0
0 0 0

-17.671 -641.624 0
-641.624 107.491 0
0 0 0

-490.712 -1557.5 0
-1557.5 -3508.9 0
0 0 0

1175.66 1136.6 0
1136.6 1687.33 0
0 0 0

-1042.6 2754.37 0
2754.37 904.172 0
0 0 0

-2148.53 1148.56 0
1148.56 -3024.89 0
0 0 0

3781.24 1266.67 0
1266.67 380.506 0
0 0 0

-885.853 -173.77 0
-173.77 2776.39 0
0 0 0

-2387.23 1286.83 0
1286.83 -929.257 0
0 0 0

3535.72 851.374 0
851.374 2703.29 0
0 0 0

3570.4 -2897.08 0
-2897.08 4422.96 0
0 0 0

511.696 2925.13 0
2925.13 -3009.52 0
0 0 0

-1195.63 -1052.35 0
-1052.35 -5570.7 0
0 0 0

2251.39 2458.92 0
2458.92 203.868 0
0 0 0

-3730.3 -1339.16 0
-1339.16 -925.394 0
0 0 0

881.975 -99.8581 0
-99.8581 -350.066 0
0 0 0

2059.91 1102.53 0
1102.53 1720.91 0
0 0 0

-3326.15 -1159.29 0
-1159.29 -1487.02 0
0 0 0

2633.7 2085.75 0
2085.75 -191.446 0
0 0 0

-4042.63 -22.8007 0
-22.8007 -936.308 0
0 0 0

3929.54 4143.62 0
4143.62 5155.34 0
0 0 0

-1427.26 -420.623 0
-420.623 4235 0
0 0 0

402.311 1065.71 0
1065.71 878.818 0
0 0 0

4635.28 2563.38 0
2563.38 3098.44 0
0 0 0

-3818.89 128.428 0
128.428 -4186.42 0
0 0 0

9058.18 -4056.09 0
-4056.09 1918.37 0
0 0 0

3237.48 3265.08 0
3265.08 -53.5928 0
0 0 0

-8400.03 -1609.15 0
-1609.15 -2907.77 0
0 0 0

534.036 2191.62 0
2191.62 2522.21 0
0 0 0

-603.181 -3956.4 0
-3956.4 2685.5 0
0 0 0

-1829.28 -203.709 0
-203.709 -2414.21 0
0 0 0

-2069.24 -1433.57 0
-1433.57 -1317.8 0
0 0 0

-5006.38 -487.549 0
-487.549 249.853 0
0 0 0

1100.49 -865.971 0
-865.971 604.326 0
0 0 0

-2056.02 2398.48 0
2398.48 -1153.88 0
0 0 0

1773.52 -1173.41 0
-1173.41 82.3632 0
0 0 0

-651.916 5769.04 0
5769.04 4910.99 0
0 0 0

-2031.09 -3257.94 0
-3257.94 -6679.65 0
0 0 0

682.417 718.83 0
718.83 3274.7 0
0 0 0

6999.44 2562.79 0
2562.79 6535.82 0
0 0 0

-4535.67 -1280.68 0
-1280.68 -4137.06 0
0 0 0

5101.69 -1519.51 0
-1519.51 8148.51 0
0 0 0

-15040.4 -1761 0
-1761 -9364.61 0
0 0 0

233.843 -867.839 0
-867.839 2421.8 0
0 0 0

-8223.32 2224.93 0
2224.93 -594.915 0
0 0 0

2301.89 -1343.38 0
-1343.38 1768.34 0
0 0 0

-3412.29 3529.12 0
3529.12 -1071.13 0
0 0 0

-5457.91 857.896 0
857.896 481.227 0
0 0 0

2538.51 -962.146 0
-962.146 1472.44 0
0 0 0

-564.055 -300.038 0
-300.038 2213.08 0
0 0 0

-35.3749 486.836 0
486.836 -1851.17 0
0 0 0

172.245 -43.7251 0
-43.7251 1589.98 0
0 0 0

TENSORS velocity_gradient double
-0.19701 -3.56446 0
4.0162 -0.690943 0
0 0 0

-0.737601 -5.16096 0
6.11558 -0.703096 0
0 0 0

0.875624 -4.73138 0
2.49178 -2.29649 0
0 0 0

0.197249 -5.52682 0
4.26325 -0.639241 0
0 0 0

-0.678745 -6.07248 0
6.15 0.256927 0
0 0 0

0.202986 -6.22843 0
6.22145 0.545465 0
0 0 0

-0.266056 -5.96584 0
5.50622 0.0905674 0
0 0 0

-0.249856 -6.24438 0
6.23959 0.551055 0
0 0 0

0.0684955 -5.71075 0
6.38578 -0.0870693 0
0 0 0

0.8024 -5.24792 0
4.91822 -0.472325 0
0 0 0

-0.335623 -4.96418 0
6.92652 0.152528 0
0 0 0

0.136473 -4.48041 0
5.52601 0.599 0
0 0 0

0.713805 -4.93364 0
4.84637 -0.217456 0
0 0 0

-0.279443 -3.82463 0
2.75936 0.170065 0
0 0 0

0.235757 -3.9651 0
4.57845 0.89371 0
0 0 0

-0.355974 -3.49594 0
3.54179 1.06853 0
0 0 0

1.62476 -4.49489 0
0.819458 -2.66658 0
0 0 0

1.56189 -3.65528 0
0.35263 -0.757229 0
0 0 0

0.882909 -4.72724 0
-0.362641 -2.01352 0
0 0 0

0.521204 -3.44341 0
-0.663731 -0.94484 0
0 0 0

0.110002 -3.03633 0
5.05134 -0.309173 0
0 0 0

0.195593 -3.34478 0
5.00893 -0.156355 0
0 0 0

0.415231 -2.93915 0
4.90011 -0.357322 0
0 0 0

0.500947 -3.25561 0
4.85765 -0.20053 0
0 0 0

0.108089 -3.87237 0
6.71052 0.142632 0
0 0 0

0.263433 -4.45143 0
6.62019 0.47932 0
0 0 0

0.644452 -2.50557 0
6.3473 -0.557942 0
0 0 0

0.79307 -0.199041 0
6.14928 -1.06985 0
0 0 0

-0.370731 -4.18074 0
4.30074 0.794965 0
0 0 0

-0.526644 -3.32426 0
4.19075 1.02517 0
0 0 0

-0.242927 -0.601537 0
3.78122 -0.30853 0
0 0 0

0.0453201 -1.49567 0
3.54436 0.426199 0
0 0 0

-0.0167366 -3.94591 0
-1.07623 -2.05583 0
0 0 0

-0.376751 1.1991 0
-1.40741 -0.568096 0
0 0 0

0.507518 3.07269 0
-0.212816 0.391457 0
0 0 0

0.231345 2.79537 0
-0.882302 -0.205833 0
0 0 0

0.620919 1.90461 0
3.5606 -0.975817 0
0 0 0

1.16282 1.07162 0
5.2935 -1.71024 0
0 0 0

0.821134 2.07393 0
1.33449 -0.828073 0
0 0 0

1.95366 1.2536 0
5.99162 -1.54959 0
0 0 0

1.06473 0.343527 0
5.53746 -2.11399 0
0 0 0

1.09562 0.0280801 0
5.30476 -1.33042 0
0 0 0

1.87679 -0.825774 0
5.81662 -1.94631 0
0 0 0

1.3263 -2.61535 0
4.61842 -1.50857 0
0 0 0

0.827453 -0.377172 0
3.50406 -0.530173 0
0 0 0

0.924923 -1.40382 0
2.82143 -0.0673121 0
0 0 0

1.27985 -3.01251 0
4.29163 -1.27346 0
0 0 0

0.692167 -2.62004 0
3.00953 -1.54433 0
0 0 0

-0.952131 0.404964 0
1.07794 0.653866 0
0 0 0

0.65429 -3.1282 0
-0.321609 -0.275668 0
0 0 0

-2.61556 -6.03162 0
3.12217 1.26492 0
0 0 0

0.164135 -4.8378 0
0.17027 -0.260505 0
0 0 0

0.601615 -4.15526 0
-0.21253 -0.857737 0
0 0 0

1.93491 -3.62219 0
6.47278 -1.26162 0
0 0 0

0.0406968 -4.28082 0
0.27828 -0.747866 0
0 0 0

1.39834 -3.78765 0
6.84263 -1.14758 0
0 0 0

1.79856 -3.14924 0
6.56676 -1.58762 0
0 0 0

1.37049 -2.98577 0
4.35176 -1.56952 0
0 0 0

1.1879 -4.16757 0
6.94215 -0.868839 0
0 0 0

1.23393 -4.02335 0
4.13781 -0.586498 0
0 0 0

1.38431 -3.02429 0
4.25676 -1.30471 0
0 0 0

0.179058 -2.76553 0
3.41978 -1.31283 0
0 0 0

1.01208 -3.40446 0
4.13239 -0.528442 0
0 0 0

0.336032 -2.98001 0
3.08944 -0.350671 0
0 0 0

SCALARS active double 1
LOOKUP_TABLE default
1
1
1
1
1
1
1
1
1
1
1
1
1
1
1
1
1
1
1
1
1
1
1
1
1
1
1
1
1
1
1
1
1
1
1
1
1
1
1
1
1
1
1
1
1
1
1
1
1
1
1
1
1
1
1
1
1
1
1
1
1
1
1
1
SCALARS extent double 1
LOOKUP_TABLE default
0.0125
0.0125
0.0125
0.0125
0.0125
0.0125
0.0125
0.0125
0.0125
0.0125
0.0125
0.0125
0.0125
0.0125
0.0125
0.0125
0.0125
0.0125
0.0125
0.0125
0.0125
0.0125
0.0125
0.0125
0.0125
0.0125
0.0125
0.0125
0.0125
0.0125
0.0125
0.0125
0.0125
0.0125
0.0125
0.0125
0.0125
0.0125
0.0125
0.0125
0.0125
0.0125
0.0125
0.0125
0.0125
0.0125
0.0125
0.0125
0.0125
0.0125
0.0125
0.0125
0.0125
0.0125
0.0125
0.0125
0.0125
0.0125
0.0125
0.0125
0.0125
0.0125
0.0125
0.0125
SCALARS pressure double 1
LOOKUP_TABLE default
-753.127
1027.17
-1831.74
-1635.76
-1742.24
1197.75
-1738.66
3465.49
-2463.44
828.486
-2740.91
-1314.07
-784.667
-44.9102
1999.81
-1431.5
69.2144
2586.71
-2080.87
-945.271
1658.24
-3119.5
-3996.68
1248.91
3383.17
-1227.63
2327.85
-265.955
-1890.41
2406.59
-1221.13
2489.47
-4542.44
-1403.87
-640.564
-3866.86
4002.65
-5488.28
-1591.94
5653.9
-1528.12
-1041.16
2121.75
1693.52
2378.26
-852.407
1604.95
-927.943
-2129.54
4355.37
-1978.56
-6767.63
4336.36
-6625.1
12202.5
-1327.82
4409.12
-2035.11
2241.71
2488.34
-2005.48
-824.511
943.274
-881.111
SCALARS density double 1
LOOKUP_TABLE default
992.198
1010.74
981.13
983.132
982.044
1012.53
982.08
1036.7
974.706
1008.65
971.897
986.427
991.873
999.533
1021.02
985.223
1000.72
1027.27
978.591
990.217
1017.4
968.078
959.287
1013.07
1035.81
987.314
1024.51
997.238
980.532
1025.34
987.381
1026.23
953.857
985.506
993.36
960.583
1042.51
944.52
983.58
1060.56
984.233
989.23
1022.31
1017.77
1025.04
991.174
1016.83
990.396
978.096
1046.34
979.633
932.036
1046.13
933.419
1135.31
986.286
1046.92
979.057
1023.59
1026.22
979.359
991.462
1009.86
990.878
