# vtk DataFile Version 3.0
Frame: 46, Time: 0.784
ASCII
DATASET UNSTRUCTURED_GRID
POINTS 64 double
0.579538 0.291011 0 
0.586136 0.266235 0 
0.551668 0.28279 0 
0.559083 0.257195 0 
0.592024 0.243364 0 
0.599662 0.21975 0 
0.567156 0.234716 0 
0.574796 0.209957 0 
0.608815 0.1959 0 
0.615435 0.171398 0 
0.583015 0.186439 0 
0.59096 0.163086 0 
0.62327 0.146968 0 
0.630318 0.122814 0 
0.598308 0.139531 0 
0.605549 0.114798 0 
0.527699 0.275318 0 
0.533458 0.250074 0 
0.50171 0.268773 0 
0.508595 0.242382 0 
0.541319 0.226999 0 
0.549194 0.203544 0 
0.51584 0.219575 0 
0.523876 0.195444 0 
0.556899 0.179655 0 
0.564534 0.156939 0 
0.531912 0.171507 0 
0.538664 0.14812 0 
0.573119 0.133235 0 
0.580031 0.108541 0 
0.547252 0.125053 0 
0.555478 0.101027 0 
0.476654 0.259643 0 
0.481817 0.234564 0 
0.450926 0.250474 0 
0.456966 0.226388 0 
0.49107 0.211213 0 
0.498401 0.18637 0 
0.465771 0.201851 0 
0.47413 0.177729 0 
0.505776 0.162425 0 
0.513535 0.138871 0 
0.48053 0.154054 0 
0.488988 0.131218 0 
0.52101 0.115714 0 
0.529096 0.0923262 0 
0.495556 0.107159 0 
0.503205 0.0830257 0 
0.425684 0.241253 0 
0.43247 0.21781 0 
0.400096 0.233103 0 
0.407205 0.208794 0 
0.441558 0.194029 0 
0.448816 0.170034 0 
0.41638 0.185337 0 
0.421854 0.162196 0 
0.456129 0.146461 0 
0.464075 0.122974 0 
0.428868 0.139136 0 
0.437186 0.114961 0 
0.471517 0.0979231 0 
0.479811 0.0740572 0 
0.444621 0.0907651 0 
0.455291 0.0666231 0 
CELLS 64 128
1 0
1 1
1 2
1 3
1 4
1 5
1 6
1 7
1 8
1 9
1 10
1 11
1 12
1 13
1 14
1 15
1 16
1 17
1 18
1 19
1 20
1 21
1 22
1 23
1 24
1 25
1 26
1 27
1 28
1 29
1 30
1 31
1 32
1 33
1 34
1 35
1 36
1 37
1 38
1 39
1 40
1 41
1 42
1 43
1 44
1 45
1 46
1 47
1 48
1 49
1 50
1 51
1 52
1 53
1 54
1 55
1 56
1 57
1 58
1 59
1 60
1 61
1 62
1 63
CELL_TYPES 64
1
1
1
1
1
1
1
1
1
1
1
1
1
1
1
1
1
1
1
1
1
1
1
1
1
1
1
1
1
1
1
1
1
1
1
1
1
1
1
1
1
1
1
1
1
1
1
1
1
1
1
1
1
1
1
1
1
1
1
1
1
1
1
1
POINT_DATA 64
VECTORS displacement double
0.0670384 -0.321489 0 
0.0736358 -0.371265 0 
0.0141677 -0.32971 0 
0.0215833 -0.380305 0 
0.0795236 -0.419136 0 
0.0871619 -0.46775 0 
0.0296563 -0.427784 0 
0.0372964 -0.477543 0 
0.0963149 -0.5166 0 
0.102935 -0.566102 0 
0.0455152 -0.526061 0 
0.0534598 -0.574414 0 
0.11077 -0.615532 0 
0.117818 -0.664686 0 
0.0608076 -0.622969 0 
0.0680489 -0.672702 0 
-0.0348007 -0.337182 0 
-0.0290422 -0.387426 0 
-0.0857898 -0.343727 0 
-0.0789049 -0.395118 0 
-0.0211805 -0.435501 0 
-0.0133061 -0.483956 0 
-0.0716604 -0.442925 0 
-0.0636238 -0.492056 0 
-0.00560092 -0.532845 0 
0.00203365 -0.580561 0 
-0.0555881 -0.540993 0 
-0.0488362 -0.58938 0 
0.0106186 -0.629265 0 
0.0175308 -0.678959 0 
-0.0402478 -0.637447 0 
-0.0320216 -0.686473 0 
-0.135846 -0.352857 0 
-0.130683 -0.402936 0 
-0.186574 -0.362026 0 
-0.180534 -0.411112 0 
-0.12143 -0.451287 0 
-0.114099 -0.50113 0 
-0.171729 -0.460649 0 
-0.16337 -0.509771 0 
-0.106724 -0.550075 0 
-0.098965 -0.598629 0 
-0.15697 -0.558446 0 
-0.148512 -0.606282 0 
-0.0914897 -0.646786 0 
-0.0834039 -0.695174 0 
-0.141944 -0.655341 0 
-0.134295 -0.704474 0 
-0.236816 -0.371247 0 
-0.23003 -0.41969 0 
-0.287404 -0.379397 0 
-0.280295 -0.428706 0 
-0.220942 -0.468471 0 
-0.213684 -0.517466 0 
-0.27112 -0.477163 0 
-0.265646 -0.525304 0 
-0.206371 -0.566039 0 
-0.198425 -0.614526 0 
-0.258632 -0.573364 0 
-0.250314 -0.622539 0 
-0.190983 -0.664577 0 
-0.182689 -0.713443 0 
-0.242879 -0.671735 0 
-0.232209 -0.720877 0 
VECTORS velocity double
-2.97991 1.86089 0 
-1.87684 2.10387 0 
-2.80067 1.19274 0 
-1.9641 1.48306 0 
-1.84819 1.72199 0 
-1.97307 2.18101 0 
-1.76444 0.857276 0 
-1.48177 0.818747 0 
-1.57429 2.44728 0 
-1.04787 2.04813 0 
-1.41011 1.75925 0 
-1.20541 1.15527 0 
-1.54935 2.78827 0 
-0.670986 2.47196 0 
-0.894335 1.63423 0 
-0.230448 1.68631 0 
-2.56786 0.815167 0 
-1.53532 1.06497 0 
-2.77472 0.789051 0 
-1.89709 1.27287 0 
-1.98057 1.23033 0 
-1.48147 0.917564 0 
-2.17271 1.13293 0 
-1.76307 1.3744 0 
-1.41314 1.39434 0 
-1.24661 1.32131 0 
-1.60314 1.27834 0 
-1.3861 0.885686 0 
-0.993865 1.5311 0 
-0.441605 1.64915 0 
-1.01862 1.62488 0 
-0.282918 1.80373 0 
-2.51968 -0.16108 0 
-1.49071 0.266201 0 
-2.31591 0.00746776 0 
-1.55064 0.055386 0 
-1.60407 -0.251445 0 
-1.33012 0.152472 0 
-1.85467 0.161947 0 
-1.92949 0.335878 0 
-0.908082 0.394789 0 
-0.977064 0.204112 0 
-1.58696 0.0144013 0 
-1.13859 0.408668 0 
-0.813464 0.297279 0 
0.508439 0.930032 0 
-0.889567 0.459535 0 
0.101043 0.787311 0 
-2.16321 0.544602 0 
-1.51756 0.453206 0 
-2.20741 -0.254311 0 
-1.51794 0.0401071 0 
-1.40737 0.453035 0 
-1.44382 0.527512 0 
-1.58477 -0.162686 0 
-1.56977 -0.113505 0 
-0.873728 0.483643 0 
-0.840558 0.581285 0 
-1.14638 -0.0913219 0 
-1.2722 -0.18641 0 
-0.824842 0.387099 0 
-0.318024 1.02508 0 
-0.768557 0.107692 0 
-0.151689 0.126496 0 
SCALARS mass double 1
LOOKUP_TABLE default
0.625
0.625
0.625
0.625
0.625
0.625
0.625
0.625
0.625
0.625
0.625
0.625
0.625
0.625
0.625
0.625
0.625
0.625
0.625
0.625
0.625
0.625
0.625
0.625
0.625
0.625
0.625
0.625
0.625
0.625
0.625
0.625
0.625
0.625
0.625
0.625
0.625
0.625
0.625
0.625
0.625
0.625
0.625
0.625
0.625
0.625
0.625
0.625
0.625
0.625
0.625
0.625
0.625
0.625
0.625
0.625
0.625
0.625
0.625
0.625
0.625
0.625
0.625
0.625
SCALARS volume double 1
LOOKUP_TABLE default
0.000640929
0.000623718
0.000644118
0.000642414
0.000607076
0.000611747
0.000607899
0.000617018
0.000635031
0.00062493
0.000637131
0.000631008
0.000632775
0.000620946
0.00061817
0.000625734
0.000634415
0.000632424
0.000659347
0.00064862
0.000618208
0.000647855
0.000641738
0.000622266
0.000612215
0.000643294
0.00063042
0.000637264
0.000629891
0.000619218
0.000630654
0.000637696
0.000636237
0.000629911
0.00063475
0.000632577
0.000624211
0.000648561
0.000634775
0.000624048
0.000628696
0.000618654
0.000632929
0.000605168
0.000627993
0.000645017
0.000624225
0.000629284
0.000624486
0.000617188
0.000623564
0.000634218
0.000599324
0.000627101
0.000613287
0.000631276
0.000621741
0.000638342
0.000610029
0.000637746
0.000626748
0.000629406
0.000626779
0.000636444
VECTORS momentum double
-1.86244 1.16306 0 
-1.17302 1.31492 0 
-1.75042 0.745459 0 
-1.22756 0.926914 0 
-1.15512 1.07624 0 
-1.23317 1.36313 0 
-1.10277 0.535798 0 
-0.926104 0.511717 0 
-0.983931 1.52955 0 
-0.65492 1.28008 0 
-0.881319 1.09953 0 
-0.753378 0.722042 0 
-0.968342 1.74267 0 
-0.419366 1.54497 0 
-0.558959 1.02139 0 
-0.14403 1.05394 0 
-1.60491 0.509479 0 
-0.959578 0.665608 0 
-1.7342 0.493157 0 
-1.18568 0.795543 0 
-1.23786 0.768959 0 
-0.925916 0.573477 0 
-1.35795 0.708079 0 
-1.10192 0.859001 0 
-0.883209 0.87146 0 
-0.779133 0.82582 0 
-1.00196 0.798961 0 
-0.866311 0.553554 0 
-0.621165 0.956939 0 
-0.276003 1.03072 0 
-0.636636 1.01555 0 
-0.176823 1.12733 0 
-1.5748 -0.100675 0 
-0.931693 0.166376 0 
-1.44744 0.00466735 0 
-0.969152 0.0346162 0 
-1.00255 -0.157153 0 
-0.831327 0.0952949 0 
-1.15917 0.101217 0 
-1.20593 0.209924 0 
-0.567551 0.246743 0 
-0.610665 0.12757 0 
-0.99185 0.00900081 0 
-0.711617 0.255418 0 
-0.508415 0.185799 0 
0.317775 0.58127 0 
-0.55598 0.287209 0 
0.0631516 0.492069 0 
-1.35201 0.340377 0 
-0.948474 0.283254 0 
-1.37963 -0.158944 0 
-0.948715 0.0250669 0 
-0.879607 0.283147 0 
-0.902388 0.329695 0 
-0.990482 -0.101679 0 
-0.981107 -0.0709407 0 
-0.54608 0.302277 0 
-0.525349 0.363303 0 
-0.716485 -0.0570762 0 
-0.795127 -0.116506 0 
-0.515526 0.241937 0 
-0.198765 0.640677 0 
-0.480348 0.0673072 0 
-0.0948053 0.0790603 0 
VECTORS body_force double
0 -9.81 0 
0 -9.81 0 
0 -9.81 0 
0 -9.81 0 
0 -9.81 0 
0 -9.81 0 
0 -9.81 0 
0 -9.81 0 
0 -9.81 0 
0 -9.81 0 
0 -9.81 0 
0 -9.81 0 
0 -9.81 0 
0 -9.81 0 
0 -9.81 0 
0 -9.81 0 
0 -9.81 0 
0 -9.81 0 
0 -9.81 0 
0 -9.81 0 
0 -9.81 0 
0 -9.81 0 
0 -9.81 0 
0 -9.81 0 
0 -9.81 0 
0 -9.81 0 
0 -9.81 0 
0 -9.81 0 
0 -9.81 0 
0 -9.81 0 
0 -9.81 0 
0 -9.81 0 
0 -9.81 0 
0 -9.81 0 
0 -9.81 0 
0 -9.81 0 
0 -9.81 0 
0 -9.81 0 
0 -9.81 0 
0 -9.81 0 
0 -9.81 0 
0 -9.81 0 
0 -9.81 0 
0 -9.81 0 
0 -9.81 0 
0 -9.81 0 
0 -9.81 0 
0 -9.81 0 
0 -9.81 0 
0 -9.81 0 
0 -9.81 0 
0 -9.81 0 
0 -9.81 0 
0 -9.81 0 
0 -9.81 0 
0 -9.81 0 
0 -9.81 0 
0 -9.81 0 
0 -9.81 0 
0 -9.81 0 
0 -9.81 0 
0 -9.81 0 
0 -9.81 0 
0 -9.81 0 
TENSORS cauchy_stress double
4211.31 -104.79 0
-104.79 628.467 0
0 0 0

3684.88 -68.2911 0
-68.2911 -4079.73 0
0 0 0

2773.21 835.201 0
835.201 3021.12 0
0 0 0

4848.98 2189.85 0
2189.85 435.82 0
0 0 0

-298.428 2189.74 0
2189.74 -5297.15 0
0 0 0

928.392 -1494.35 0
-1494.35 -5049.96 0
0 0 0

155.264 1190.44 0
1190.44 -5490.45 0
0 0 0

815.876 -1163.36 0
-1163.36 -3287.65 0
0 0 0

2718.72 -457.352 0
-457.352 343.115 0
0 0 0

902.295 1340.43 0
1340.43 -923.77 0
0 0 0

5839.03 206.08 0
206.08 -2142.16 0
0 0 0

3203.02 1450.27 0
1450.27 -1363.21 0
0 0 0

3315.35 -1083.13 0
-1083.13 -937.807 0
0 0 0

-3005.87 2201.64 0
2201.64 1754.48 0
0 0 0

1347.61 -265.953 0
-265.953 -3460.8 0
0 0 0

1769.1 -534.83 0
-534.83 -1543.38 0
0 0 0

4806.27 1690.17 0
1690.17 -1930.97 0
0 0 0

3303.76 -140.264 0
-140.264 -1032.87 0
0 0 0

5020.43 634.849 0
634.849 5267.76 0
0 0 0

6970.24 2712.27 0
2712.27 163.373 0
0 0 0

3181.61 858.408 0
858.408 -5282.8 0
0 0 0

7342.69 1461.92 0
1461.92 -436.004 0
0 0 0

2009.77 2325.99 0
2325.99 3072.5 0
0 0 0

1854.75 1265.14 0
1265.14 -2697.94 0
0 0 0

34.14 1117.55 0
1117.55 -4008.93 0
0 0 0

5774.13 1871.67 0
1871.67 -225.972 0
0 0 0

4341.29 3439.29 0
3439.29 -2680.71 0
0 0 0

4929.81 1038.92 0
1038.92 -1192.85 0
0 0 0

2142.18 807.748 0
807.748 -643.088 0
0 0 0

-1781.26 2035.64 0
2035.64 -5.98999 0
0 0 0

5852.34 -1181.84 0
-1181.84 -4120.33 0
0 0 0

3195.13 194.795 0
194.795 672.236 0
0 0 0

5876.9 3105.04 0
3105.04 -2450.2 0
0 0 0

311.582 1399.96 0
1399.96 1193.48 0
0 0 0

2004.47 2249.09 0
2249.09 972.317 0
0 0 0

2437.71 -653.681 0
-653.681 -120.251 0
0 0 0

2242.1 -398.168 0
-398.168 -2485 0
0 0 0

637.876 2220.22 0
2220.22 6478.49 0
0 0 0

3284.18 -1084.04 0
-1084.04 -299.729 0
0 0 0

2704.33 3806.05 0
3806.05 -2997.37 0
0 0 0

2340.36 3500.96 0
3500.96 -1206.39 0
0 0 0

-2657.92 4121.35 0
4121.35 695.205 0
0 0 0

2408.05 1092.01 0
1092.01 16.1476 0
0 0 0

-1829.54 3484.79 0
3484.79 -4371.44 0
0 0 0

2513.66 5325.37 0
5325.37 -1594.91 0
0 0 0

5408.82 2757.27 0
2757.27 653.676 0
0 0 0

1569.9 588.864 0
588.864 -1808.37 0
0 0 0

-70.0969 1256.86 0
1256.86 1383.72 0
0 0 0

3233.41 2166.3 0
2166.3 -3391.75 0
0 0 0

2072.91 2034.45 0
2034.45 -4491.82 0
0 0 0

1088.03 1869.28 0
1869.28 -1530.47 0
0 0 0

2108.96 -419.319 0
-419.319 706.594 0
0 0 0

-3024.77 1534.81 0
1534.81 -5042.54 0
0 0 0

2532.22 2136.39 0
2136.39 -1886.76 0
0 0 0

1701.5 3325.99 0
3325.99 -5339.84 0
0 0 0

4181.3 3217.42 0
3217.42 -2260 0
0 0 0

2835.87 558.571 0
558.571 -3841.34 0
0 0 0

3181.88 -71.7088 0
-71.7088 880.067 0
0 0 0

-736.797 3406.85 0
3406.85 -3925.65 0
0 0 0

3261.47 1257.26 0
1257.26 620.878 0
0 0 0

3268.45 -1748.81 0
-1748.81 -2731.21 0
0 0 0

564.703 -485.229 0
-485.229 786.284 0
0 0 0

2644.63 188.92 0
188.92 -2098.09 0
0 0 0

3468.15 1063.93 0
1063.93 21.2159 0
0 0 0

TENSORS velocity_gradient double
-1.16407 -14.2434 0
11.7535 1.70575 0
0 0 0

0.453214 -14.6504 0
10.5332 2.01287 0
0 0 0

-0.390694 -12.4782 0
11.6988 0.3475 0
0 0 0

1.01 -12.71 0
10.1223 0.721316 0
0 0 0

1.39378 -7.88147 0
10.2731 0.581726 0
0 0 0

0.50254 -7.82352 0
13.2062 0.91815 0
0 0 0

1.4124 -7.86978 0
10.5417 1.64962 0
0 0 0

1.42537 -7.87366 0
11.6196 1.32654 0
0 0 0

-0.581263 -8.96174 0
12.2909 -1.41243 0
0 0 0

-1.41003 -8.7744 0
13.0185 -1.68022 0
0 0 0

1.72364 -9.03677 0
12.1594 -0.994923 0
0 0 0

2.1798 -9.18671 0
12.4239 -1.08188 0
0 0 0

-2.08978 -10.6989 0
13.3866 1.04211 0
0 0 0

-2.28692 -10.8594 0
12.5433 1.57637 0
0 0 0

-0.131198 -11.3396 0
12.4052 0.331022 0
0 0 0

-2.34254 -11.0479 0
12.2609 0.670353 0
0 0 0

0.901875 -11.9624 0
13.0507 -0.497823 0
0 0 0

1.09077 -9.64712 0
12.4294 1.4321 0
0 0 0

0.564567 -11.7241 0
12.3325 -1.27838 0
0 0 0

1.09326 -8.0467 0
12.4232 3.10892 0
0 0 0

1.01861 -7.89231 0
12.6761 2.58585 0
0 0 0

1.21542 -8.05936 0
12.3643 1.4578 0
0 0 0

0.985041 -8.01325 0
12.7898 2.99562 0
0 0 0

0.817038 -8.65722 0
13.232 0.216136 0
0 0 0

1.8494 -8.52904 0
12.2323 -0.700467 0
0 0 0

2.26115 -8.9411 0
12.4655 -0.83001 0
0 0 0

0.486165 -8.60001 0
13.8368 -0.183607 0
0 0 0

0.340682 -13 0
14.3094 -2.01331 0
0 0 0

1.01167 -13.0728 0
11.4391 -1.141 0
0 0 0

-0.876262 -12.5706 0
9.92666 -0.738686 0
0 0 0

0.713489 -14.6326 0
13.1596 -2.48085 0
0 0 0

-2.4547 -13.5944 0
10.1372 -0.639486 0
0 0 0

-1.21277 -11.6443 0
9.96426 -1.44484 0
0 0 0

-1.09089 -7.98681 0
8.32037 1.59963 0
0 0 0

-0.705143 -9.69163 0
7.21289 -1.34359 0
0 0 0

-1.03689 -7.81797 0
7.49652 -0.976385 0
0 0 0

-0.932694 -8.04825 0
5.90687 2.53693 0
0 0 0

0.2128 -8.88737 0
9.06047 0.573207 0
0 0 0

-0.786701 -7.80524 0
5.1932 0.164256 0
0 0 0

0.0951751 -8.03302 0
4.74001 0.59773 0
0 0 0

0.36477 -8.96499 0
14.0575 0.479899 0
0 0 0

0.503919 -13.9893 0
14.3415 -2.65666 0
0 0 0

1.1704 -9.00868 0
4.74174 0.11002 0
0 0 0

3.18521 -12.6044 0
5.5489 -2.21893 0
0 0 0

1.10517 -14.1734 0
14.3087 -2.6466 0
0 0 0

2.79209 -12.3475 0
13.0486 -1.42951 0
0 0 0

4.77235 -13.1397 0
8.15349 -2.44596 0
0 0 0

4.39896 -8.73224 0
11.0435 -4.82543 0
0 0 0

0.975061 -7.86948 0
0.915875 -0.393871 0
0 0 0

0.858435 -7.83671 0
2.4816 -0.833882 0
0 0 0

1.84349 -7.80407 0
1.90338 1.25008 0
0 0 0

0.813978 -7.96251 0
3.07843 0.854981 0
0 0 0

0.883515 -6.83359 0
3.84108 0.72414 0
0 0 0

0.849678 -7.03457 0
4.64131 0.630562 0
0 0 0

1.03819 -6.37121 0
4.09737 1.48556 0
0 0 0

1.45734 -6.46758 0
4.78455 1.32757 0
0 0 0

1.70446 -8.91756 0
4.90312 -0.476613 0
0 0 0

4.00149 -10.0979 0
5.91962 -1.08056 0
0 0 0

1.37621 -9.12894 0
5.1387 -0.402771 0
0 0 0

0.71293 -8.90743 0
5.1265 -0.398696 0
0 0 0

5.85828 -9.83486 0
7.22301 -2.78254 0
0 0 0

4.86479 -8.98035 0
9.10605 -4.02978 0
0 0 0

0.848628 -10.6625 0
5.52528 -1.59413 0
0 0 0

4.28539 -10.2811 0
9.5222 -2.06041 0
0 0 0

SCALARS active double 1
LOOKUP_TABLE default
1
1
1
1
1
1
1
1
1
1
1
1
1
1
1
1
1
1
1
1
1
1
1
1
1
1
1
1
1
1
1
1
1
1
1
1
1
1
1
1
1
1
1
1
1
1
1
1
1
1
1
1
1
1
1
1
1
1
1
1
1
1
1
1
SCALARS extent double 1
LOOKUP_TABLE default
0.0125
0.0125
0.0125
0.0125
0.0125
0.0125
0.0125
0.0125
0.0125
0.0125
0.0125
0.0125
0.0125
0.0125
0.0125
0.0125
0.0125
0.0125
0.0125
0.0125
0.0125
0.0125
0.0125
0.0125
0.0125
0.0125
0.0125
0.0125
0.0125
0.0125
0.0125
0.0125
0.0125
0.0125
0.0125
0.0125
0.0125
0.0125
0.0125
0.0125
0.0125
0.0125
0.0125
0.0125
0.0125
0.0125
0.0125
0.0125
0.0125
0.0125
0.0125
0.0125
0.0125
0.0125
0.0125
0.0125
0.0125
0.0125
0.0125
0.0125
0.0125
0.0125
0.0125
0.0125
SCALARS pressure double 1
LOOKUP_TABLE default
-2419.89
197.425
-2897.16
-2642.4
2797.79
2060.78
2667.59
1235.89
-1530.92
10.7376
-1848.43
-919.908
-1188.77
625.696
1056.59
-112.86
-1437.65
-1135.44
-5144.09
-3566.8
1050.6
-3453.34
-2541.13
421.593
1987.4
-2774.08
-830.291
-1868.48
-749.547
893.623
-866.003
-1933.68
-1713.35
-752.533
-1488.39
-1158.73
121.445
-3558.18
-1492.23
146.523
-566.982
981.356
-1212.1
3100.49
-459.372
-3031.25
119.236
-656.813
79.1701
1209.45
221.218
-1407.78
4033.66
-322.727
1819.17
-960.653
502.734
-2030.97
2331.23
-1941.17
-268.623
-675.494
-273.272
-1744.68
SCALARS density double 1
LOOKUP_TABLE default
975.147
1002.06
970.319
972.893
1029.52
1021.66
1028.13
1012.94
984.205
1000.11
980.96
990.479
987.713
1006.53
1011.05
998.827
985.16
988.261
947.907
963.585
1010.99
964.723
973.918
1004.39
1020.88
971.562
991.402
980.755
992.235
1009.34
991.034
980.091
982.339
992.204
984.64
988.022
1001.26
963.671
984.601
1001.53
994.121
1010.26
987.473
1032.77
995.234
968.967
1001.24
993.192
1000.82
1012.66
1002.3
985.466
1042.84
996.649
1019.1
990.059
1005.24
979.099
1024.54
980.014
997.21
992.999
997.162
982.019
