# vtk DataFile Version 3.0
Frame: 14, Time: 0.25
ASCII
DATASET UNSTRUCTURED_GRID
POINTS 64 double
0.4125 0.102249 0 
0.4125 0.127249 0 
0.4375 0.102249 0 
0.4375 0.127249 0 
0.4125 0.152249 0 
0.4125 0.177249 0 
0.4375 0.152249 0 
0.4375 0.177249 0 
0.4125 0.202249 0 
0.4125 0.227249 0 
0.4375 0.202249 0 
0.4375 0.227249 0 
0.4125 0.252249 0 
0.4125 0.277249 0 
0.4375 0.252249 0 
0.4375 0.277249 0 
0.4625 0.102249 0 
0.4625 0.127249 0 
0.4875 0.102249 0 
0.4875 0.127249 0 
0.4625 0.152249 0 
0.4625 0.177249 0 
0.4875 0.152249 0 
0.4875 0.177249 0 
0.4625 0.202249 0 
0.4625 0.227249 0 
0.4875 0.202249 0 
0.4875 0.227249 0 
0.4625 0.252249 0 
0.4625 0.277249 0 
0.4875 0.252249 0 
0.4875 0.277249 0 
0.5125 0.102249 0 
0.5125 0.127249 0 
0.5375 0.102249 0 
0.5375 0.127249 0 
0.5125 0.152249 0 
0.5125 0.177249 0 
0.5375 0.152249 0 
0.5375 0.177249 0 
0.5125 0.202249 0 
0.5125 0.227249 0 
0.5375 0.202249 0 
0.5375 0.227249 0 
0.5125 0.252249 0 
0.5125 0.277249 0 
0.5375 0.252249 0 
0.5375 0.277249 0 
0.5625 0.102249 0 
0.5625 0.127249 0 
0.5875 0.102249 0 
0.5875 0.127249 0 
0.5625 0.152249 0 
0.5625 0.177249 0 
0.5875 0.152249 0 
0.5875 0.177249 0 
0.5625 0.202249 0 
0.5625 0.227249 0 
0.5875 0.202249 0 
0.5875 0.227249 0 
0.5625 0.252249 0 
0.5625 0.277249 0 
0.5875 0.252249 0 
0.5875 0.277249 0 
CELLS 64 128
1 0
1 1
1 2
1 3
1 4
1 5
1 6
1 7
1 8
1 9
1 10
1 11
1 12
1 13
1 14
1 15
1 16
1 17
1 18
1 19
1 20
1 21
1 22
1 23
1 24
1 25
1 26
1 27
1 28
1 29
1 30
1 31
1 32
1 33
1 34
1 35
1 36
1 37
1 38
1 39
1 40
1 41
1 42
1 43
1 44
1 45
1 46
1 47
1 48
1 49
1 50
1 51
1 52
1 53
1 54
1 55
1 56
1 57
1 58
1 59
1 60
1 61
1 62
1 63
CELL_TYPES 64
1
1
1
1
1
1
1
1
1
1
1
1
1
1
1
1
1
1
1
1
1
1
1
1
1
1
1
1
1
1
1
1
1
1
1
1
1
1
1
1
1
1
1
1
1
1
1
1
1
1
1
1
1
1
1
1
1
1
1
1
1
1
1
1
POINT_DATA 64
VECTORS displacement double
-8.57608e-17 -0.310251 0 
-9.80617e-17 -0.310251 0 
-9.93278e-17 -0.310251 0 
-1.00506e-16 -0.310251 0 
-1.04144e-16 -0.310251 0 
-9.75766e-17 -0.310251 0 
-9.73634e-17 -0.310251 0 
-8.90316e-17 -0.310251 0 
-7.03703e-17 -0.310251 0 
-5.32197e-17 -0.310251 0 
-6.97584e-17 -0.310251 0 
-5.70581e-17 -0.310251 0 
-5.32952e-17 -0.310251 0 
-6.3505e-17 -0.310251 0 
-5.48643e-17 -0.310251 0 
-5.86824e-17 -0.310251 0 
-1.07803e-16 -0.310251 0 
-1.02718e-16 -0.310251 0 
-1.11185e-16 -0.310251 0 
-1.04696e-16 -0.310251 0 
-9.49861e-17 -0.310251 0 
-8.59729e-17 -0.310251 0 
-9.70128e-17 -0.310251 0 
-8.84004e-17 -0.310251 0 
-7.18851e-17 -0.310251 0 
-6.17108e-17 -0.310251 0 
-7.67503e-17 -0.310251 0 
-6.71779e-17 -0.310251 0 
-5.69714e-17 -0.310251 0 
-5.48139e-17 -0.310251 0 
-5.96165e-17 -0.310251 0 
-5.18994e-17 -0.310251 0 
-1.14132e-16 -0.310251 0 
-1.05331e-16 -0.310251 0 
-1.16643e-16 -0.310251 0 
-1.04621e-16 -0.310251 0 
-9.70146e-17 -0.310251 0 
-8.88432e-17 -0.310251 0 
-9.49916e-17 -0.310251 0 
-8.73011e-17 -0.310251 0 
-8.14285e-17 -0.310251 0 
-7.33247e-17 -0.310251 0 
-8.59196e-17 -0.310251 0 
-8.0151e-17 -0.310251 0 
-6.27714e-17 -0.310251 0 
-5.01979e-17 -0.310251 0 
-6.64361e-17 -0.310251 0 
-4.97093e-17 -0.310251 0 
-1.2548e-16 -0.310251 0 
-1.05924e-16 -0.310251 0 
-1.40645e-16 -0.310251 0 
-1.09242e-16 -0.310251 0 
-8.97973e-17 -0.310251 0 
-8.11987e-17 -0.310251 0 
-8.14317e-17 -0.310251 0 
-7.0536e-17 -0.310251 0 
-8.75241e-17 -0.310251 0 
-8.52906e-17 -0.310251 0 
-8.62421e-17 -0.310251 0 
-8.87435e-17 -0.310251 0 
-6.88611e-17 -0.310251 0 
-4.77975e-17 -0.310251 0 
-7.00464e-17 -0.310251 0 
-4.44627e-17 -0.310251 0 
VECTORS velocity double
7.57977e-15 -2.46231 0 
1.50826e-15 -2.46231 0 
3.79501e-15 -2.46231 0 
2.09457e-16 -2.46231 0 
-7.47616e-15 -2.46231 0 
-8.41639e-15 -2.46231 0 
-4.7219e-15 -2.46231 0 
-5.35131e-15 -2.46231 0 
-2.03364e-15 -2.46231 0 
9.36267e-16 -2.46231 0 
-3.05948e-15 -2.46231 0 
-1.3541e-15 -2.46231 0 
-9.66826e-16 -2.46231 0 
-2.21692e-15 -2.46231 0 
-1.90082e-15 -2.46231 0 
-1.5503e-15 -2.46231 0 
1.06427e-15 -2.46231 0 
-2.763e-16 -2.46231 0 
-6.12464e-16 -2.46231 0 
5.0986e-17 -2.46231 0 
-2.56465e-15 -2.46231 0 
-3.02308e-15 -2.46231 0 
-1.00443e-15 -2.46231 0 
-1.43172e-15 -2.46231 0 
-2.69921e-15 -2.46231 0 
-2.0711e-15 -2.46231 0 
-9.52819e-16 -2.46231 0 
-1.21471e-15 -2.46231 0 
-1.86878e-15 -2.46231 0 
-9.31068e-16 -2.46231 0 
-8.70718e-16 -2.46231 0 
-3.59216e-16 -2.46231 0 
-1.92092e-15 -2.46231 0 
-1.15828e-16 -2.46231 0 
-2.8611e-15 -2.46231 0 
-7.76741e-16 -2.46231 0 
2.13847e-16 -2.46231 0 
2.7519e-16 -2.46231 0 
1.09017e-15 -2.46231 0 
2.09766e-15 -2.46231 0 
5.52679e-16 -2.46231 0 
-3.10657e-16 -2.46231 0 
1.81729e-15 -2.46231 0 
6.41072e-16 -2.46231 0 
2.75782e-16 -2.46231 0 
1.09488e-16 -2.46231 0 
1.57072e-15 -2.46231 0 
4.75046e-16 -2.46231 0 
-5.06099e-15 -2.46231 0 
-2.04334e-15 -2.46231 0 
-8.52058e-15 -2.46231 0 
-3.91564e-15 -2.46231 0 
2.69076e-15 -2.46231 0 
4.57579e-15 -2.46231 0 
5.01563e-15 -2.46231 0 
7.7096e-15 -2.46231 0 
2.22043e-15 -2.46231 0 
5.40239e-16 -2.46231 0 
1.76212e-15 -2.46231 0 
-6.13156e-16 -2.46231 0 
1.82432e-15 -2.46231 0 
1.58087e-15 -2.46231 0 
1.0366e-15 -2.46231 0 
3.42697e-15 -2.46231 0 
SCALARS mass double 1
LOOKUP_TABLE default
0.625
0.625
0.625
0.625
0.625
0.625
0.625
0.625
0.625
0.625
0.625
0.625
0.625
0.625
0.625
0.625
0.625
0.625
0.625
0.625
0.625
0.625
0.625
0.625
0.625
0.625
0.625
0.625
0.625
0.625
0.625
0.625
0.625
0.625
0.625
0.625
0.625
0.625
0.625
0.625
0.625
0.625
0.625
0.625
0.625
0.625
0.625
0.625
0.625
0.625
0.625
0.625
0.625
0.625
0.625
0.625
0.625
0.625
0.625
0.625
0.625
0.625
0.625
0.625
SCALARS volume double 1
LOOKUP_TABLE default
0.000625
0.000625
0.000625
0.000625
0.000625
0.000625
0.000625
0.000625
0.000625
0.000625
0.000625
0.000625
0.000625
0.000625
0.000625
0.000625
0.000625
0.000625
0.000625
0.000625
0.000625
0.000625
0.000625
0.000625
0.000625
0.000625
0.000625
0.000625
0.000625
0.000625
0.000625
0.000625
0.000625
0.000625
0.000625
0.000625
0.000625
0.000625
0.000625
0.000625
0.000625
0.000625
0.000625
0.000625
0.000625
0.000625
0.000625
0.000625
0.000625
0.000625
0.000625
0.000625
0.000625
0.000625
0.000625
0.000625
0.000625
0.000625
0.000625
0.000625
0.000625
0.000625
0.000625
0.000625
VECTORS momentum double
4.73735e-15 -1.53894 0 
9.4266e-16 -1.53894 0 
2.37188e-15 -1.53894 0 
1.3091e-16 -1.53894 0 
-4.6726e-15 -1.53894 0 
-5.26025e-15 -1.53894 0 
-2.95119e-15 -1.53894 0 
-3.34457e-15 -1.53894 0 
-1.27102e-15 -1.53894 0 
5.85167e-16 -1.53894 0 
-1.91218e-15 -1.53894 0 
-8.46315e-16 -1.53894 0 
-6.04266e-16 -1.53894 0 
-1.38557e-15 -1.53894 0 
-1.18801e-15 -1.53894 0 
-9.68938e-16 -1.53894 0 
6.65166e-16 -1.53894 0 
-1.72688e-16 -1.53894 0 
-3.8279e-16 -1.53894 0 
3.18662e-17 -1.53894 0 
-1.60291e-15 -1.53894 0 
-1.88943e-15 -1.53894 0 
-6.27767e-16 -1.53894 0 
-8.94827e-16 -1.53894 0 
-1.687e-15 -1.53894 0 
-1.29444e-15 -1.53894 0 
-5.95512e-16 -1.53894 0 
-7.59196e-16 -1.53894 0 
-1.16799e-15 -1.53894 0 
-5.81918e-16 -1.53894 0 
-5.44198e-16 -1.53894 0 
-2.2451e-16 -1.53894 0 
-1.20058e-15 -1.53894 0 
-7.23922e-17 -1.53894 0 
-1.78819e-15 -1.53894 0 
-4.85463e-16 -1.53894 0 
1.33654e-16 -1.53894 0 
1.71994e-16 -1.53894 0 
6.81354e-16 -1.53894 0 
1.31104e-15 -1.53894 0 
3.45425e-16 -1.53894 0 
-1.94161e-16 -1.53894 0 
1.1358e-15 -1.53894 0 
4.0067e-16 -1.53894 0 
1.72364e-16 -1.53894 0 
6.84301e-17 -1.53894 0 
9.81698e-16 -1.53894 0 
2.96904e-16 -1.53894 0 
-3.16312e-15 -1.53894 0 
-1.27709e-15 -1.53894 0 
-5.32536e-15 -1.53894 0 
-2.44727e-15 -1.53894 0 
1.68173e-15 -1.53894 0 
2.85987e-15 -1.53894 0 
3.13477e-15 -1.53894 0 
4.8185e-15 -1.53894 0 
1.38777e-15 -1.53894 0 
3.37649e-16 -1.53894 0 
1.10133e-15 -1.53894 0 
-3.83223e-16 -1.53894 0 
1.1402e-15 -1.53894 0 
9.88046e-16 -1.53894 0 
6.47874e-16 -1.53894 0 
2.14186e-15 -1.53894 0 
VECTORS body_force double
0 -9.81 0 
0 -9.81 0 
0 -9.81 0 
0 -9.81 0 
0 -9.81 0 
0 -9.81 0 
0 -9.81 0 
0 -9.81 0 
0 -9.81 0 
0 -9.81 0 
0 -9.81 0 
0 -9.81 0 
0 -9.81 0 
0 -9.81 0 
0 -9.81 0 
0 -9.81 0 
0 -9.81 0 
0 -9.81 0 
0 -9.81 0 
0 -9.81 0 
0 -9.81 0 
0 -9.81 0 
0 -9.81 0 
0 -9.81 0 
0 -9.81 0 
0 -9.81 0 
0 -9.81 0 
0 -9.81 0 
0 -9.81 0 
0 -9.81 0 
0 -9.81 0 
0 -9.81 0 
0 -9.81 0 
0 -9.81 0 
0 -9.81 0 
0 -9.81 0 
0 -9.81 0 
0 -9.81 0 
0 -9.81 0 
0 -9.81 0 
0 -9.81 0 
0 -9.81 0 
0 -9.81 0 
0 -9.81 0 
0 -9.81 0 
0 -9.81 0 
0 -9.81 0 
0 -9.81 0 
0 -9.81 0 
0 -9.81 0 
0 -9.81 0 
0 -9.81 0 
0 -9.81 0 
0 -9.81 0 
0 -9.81 0 
0 -9.81 0 
0 -9.81 0 
0 -9.81 0 
0 -9.81 0 
0 -9.81 0 
0 -9.81 0 
0 -9.81 0 
0 -9.81 0 
0 -9.81 0 
TENSORS cauchy_stress double
-4.56822e-12 -2.81505e-11 0
-2.81505e-11 1.2849e-10 0
0 0 0

-2.65289e-11 -2.86605e-11 0
-2.86605e-11 -3.68284e-11 0
0 0 0

-3.3935e-11 -9.08815e-12 0
-9.08815e-12 5.9968e-11 0
0 0 0

-1.63335e-11 -2.27872e-11 0
-2.27872e-11 -1.30392e-11 0
0 0 0

5.74281e-11 -2.89512e-11 0
-2.89512e-11 6.44497e-11 0
0 0 0

-4.2384e-12 6.82913e-12 0
6.82913e-12 -9.75305e-11 0
0 0 0

4.41675e-11 -1.6045e-11 0
-1.6045e-11 3.35082e-11 0
0 0 0

-8.67702e-13 -3.77703e-12 0
-3.77703e-12 -8.96655e-11 0
0 0 0

-5.66328e-11 2.9767e-11 0
2.9767e-11 -1.38419e-10 0
0 0 0

-2.68872e-12 5.48393e-12 0
5.48393e-12 3.30938e-11 0
0 0 0

-6.93193e-11 2.71623e-11 0
2.71623e-11 -1.68021e-10 0
0 0 0

1.75931e-11 1.6346e-11 0
1.6346e-11 8.04181e-11 0
0 0 0

1.26801e-11 -1.23212e-11 0
-1.23212e-11 4.56807e-11 0
0 0 0

7.02924e-12 -7.58714e-12 0
-7.58714e-12 -3.30606e-11 0
0 0 0

1.70304e-11 -1.10498e-11 0
-1.10498e-11 5.58314e-11 0
0 0 0

1.67506e-11 2.49801e-12 0
2.49801e-12 -1.03773e-11 0
0 0 0

1.84402e-11 -1.96331e-11 0
-1.96331e-11 7.77196e-11 0
0 0 0

-2.98398e-11 -9.25721e-12 0
-9.25721e-12 -4.93343e-11 0
0 0 0

1.95775e-11 -5.58808e-12 0
-5.58808e-12 8.03734e-11 0
0 0 0

-1.48934e-11 -1.94846e-11 0
-1.94846e-11 -1.44594e-11 0
0 0 0

7.93963e-12 -1.3458e-11 0
-1.3458e-11 3.93119e-11 0
0 0 0

-2.95679e-11 7.77078e-12 0
7.77078e-12 -4.40937e-11 0
0 0 0

-2.09215e-11 -7.15176e-12 0
-7.15176e-12 -2.80308e-11 0
0 0 0

-5.08874e-11 6.61689e-12 0
6.61689e-12 -9.38392e-11 0
0 0 0

-6.79437e-11 -7.85841e-12 0
-7.85841e-12 -1.08635e-10 0
0 0 0

-1.2428e-11 -1.25375e-11 0
-1.25375e-11 2.70745e-11 0
0 0 0

-9.32472e-11 8.50018e-12 0
8.50018e-12 -1.67677e-10 0
0 0 0

1.7098e-11 -1.36576e-11 0
-1.36576e-11 9.59687e-11 0
0 0 0

4.39858e-11 -1.50217e-11 0
-1.50217e-11 1.29763e-10 0
0 0 0

-2.34469e-11 -2.89605e-11 0
-2.89605e-11 -8.46014e-11 0
0 0 0

1.40582e-11 9.04855e-13 0
9.04855e-13 5.99318e-11 0
0 0 0

-4.52779e-12 3.2481e-12 0
3.2481e-12 -4.04567e-11 0
0 0 0

2.57047e-11 -4.85651e-12 0
-4.85651e-12 8.57291e-11 0
0 0 0

-2.20721e-11 4.85163e-12 0
4.85163e-12 -5.8782e-11 0
0 0 0

1.73308e-11 -1.94972e-13 0
-1.94972e-13 6.619e-11 0
0 0 0

-2.68647e-11 1.30432e-11 0
1.30432e-11 -6.99649e-11 0
0 0 0

2.9793e-11 1.64907e-12 0
1.64907e-12 4.87683e-11 0
0 0 0

-2.42537e-11 -1.09761e-11 0
-1.09761e-11 -7.24083e-11 0
0 0 0

9.58321e-12 5.99945e-12 0
5.99945e-12 1.61214e-12 0
0 0 0

-4.56821e-11 -9.89513e-12 0
-9.89513e-12 -1.22408e-10 0
0 0 0

-7.31352e-11 -8.99473e-12 0
-8.99473e-12 -1.24586e-10 0
0 0 0

-2.49749e-11 6.19575e-12 0
6.19575e-12 1.17388e-11 0
0 0 0

-8.15776e-11 -1.36367e-11 0
-1.36367e-11 -1.44285e-10 0
0 0 0

1.22421e-11 -1.11746e-12 0
-1.11746e-12 9.85786e-11 0
0 0 0

3.31919e-11 -9.06315e-12 0
-9.06315e-12 1.15034e-10 0
0 0 0

-1.79758e-11 -1.17889e-13 0
-1.17889e-13 -4.69552e-11 0
0 0 0

3.32472e-11 4.50458e-12 0
4.50458e-12 1.15163e-10 0
0 0 0

-2.16219e-11 9.08894e-12 0
9.08894e-12 -5.54628e-11 0
0 0 0

-1.55987e-11 9.08466e-12 0
9.08466e-12 1.19138e-10 0
0 0 0

-2.39791e-11 5.68398e-12 0
5.68398e-12 -2.1928e-11 0
0 0 0

-1.48733e-11 2.63414e-11 0
2.63414e-11 1.2083e-10 0
0 0 0

-1.71064e-11 3.806e-11 0
3.806e-11 -5.89166e-12 0
0 0 0

4.71345e-11 8.26299e-12 0
8.26299e-12 2.41793e-11 0
0 0 0

2.55776e-11 2.22098e-12 0
2.22098e-12 -4.96795e-11 0
0 0 0

6.42338e-11 1.62417e-11 0
1.62417e-11 6.40777e-11 0
0 0 0

1.82085e-11 -1.05605e-11 0
-1.05605e-11 -6.68741e-11 0
0 0 0

-5.99325e-11 -2.55174e-11 0
-2.55174e-11 -1.52991e-10 0
0 0 0

-7.78559e-12 -1.21296e-12 0
-1.21296e-12 1.72482e-11 0
0 0 0

-7.94221e-11 -2.43112e-11 0
-2.43112e-11 -1.98467e-10 0
0 0 0

7.69722e-12 -1.25215e-11 0
-1.25215e-11 5.33747e-11 0
0 0 0

1.45017e-11 1.19147e-11 0
1.19147e-11 4.59947e-11 0
0 0 0

-9.41082e-12 7.49589e-12 0
7.49589e-12 -5.61618e-11 0
0 0 0

3.55926e-11 2.01631e-11 0
2.01631e-11 9.52068e-11 0
0 0 0

-5.72627e-12 1.4344e-11 0
1.4344e-11 -4.75645e-11 0
0 0 0

TENSORS velocity_gradient double
-3.19775e-14 -1.08342e-13 0
1.63425e-13 2.13163e-14 0
0 0 0

-1.18966e-14 -1.26772e-13 0
9.59233e-14 1.06581e-14 0
0 0 0

-3.19775e-14 -9.05452e-14 0
1.59872e-13 -1.06581e-14 0
0 0 0

-1.18966e-14 -1.0593e-13 0
9.23706e-14 -2.13163e-14 0
0 0 0

5.73675e-15 -2.86782e-14 0
7.63833e-14 -3.73035e-14 0
0 0 0

1.23917e-14 -1.49077e-14 0
4.61853e-14 6.03961e-14 0
0 0 0

5.73675e-15 -2.06718e-14 0
4.61853e-14 -3.90799e-14 0
0 0 0

1.23917e-14 -8.70322e-15 0
2.84217e-14 4.26326e-14 0
0 0 0

1.41538e-14 3.96695e-14 0
0 -2.84217e-14 0
0 0 0

7.18174e-16 4.73311e-14 0
3.90799e-14 -7.4607e-14 0
0 0 0

1.41538e-14 2.81047e-14 0
4.61853e-14 -3.90799e-14 0
0 0 0

7.18174e-16 3.32719e-14 0
4.9738e-14 7.10543e-15 0
0 0 0

-8.98628e-15 7.30779e-15 0
5.86198e-14 2.57572e-13 0
0 0 0

-3.7923e-15 1.68928e-15 0
7.10543e-15 6.39488e-14 0
0 0 0

-8.98628e-15 1.06678e-14 0
2.84217e-14 2.41585e-13 0
0 0 0

-3.7923e-15 7.49458e-15 0
4.26326e-14 1.42109e-14 0
0 0 0

-4.91115e-14 -5.70751e-14 0
3.19744e-14 -2.4869e-14 0
0 0 0

4.87829e-15 -6.77063e-14 0
6.03961e-14 -5.32907e-14 0
0 0 0

-4.91115e-14 -7.93145e-15 0
2.13163e-14 2.13163e-14 0
0 0 0

4.87829e-15 -1.21011e-14 0
4.9738e-14 -7.10543e-15 0
0 0 0

4.83285e-14 -1.31761e-14 0
6.75016e-14 -4.61853e-14 0
0 0 0

5.01946e-14 -5.52112e-15 0
5.32907e-14 3.90799e-14 0
0 0 0

4.83285e-14 -6.19101e-15 0
4.26326e-14 -1.27898e-13 0
0 0 0

5.01946e-14 -5.36135e-15 0
4.9738e-14 2.13163e-14 0
0 0 0

4.73917e-14 1.6477e-14 0
-3.55271e-15 -6.03961e-14 0
0 0 0

3.44534e-14 1.95651e-14 0
-3.19744e-14 -3.19744e-14 0
0 0 0

4.73917e-14 4.78638e-15 0
-3.55271e-15 -8.88178e-14 0
0 0 0

3.44534e-14 6.21092e-15 0
-2.84217e-14 -1.13687e-13 0
0 0 0

2.34998e-14 1.04719e-14 0
-5.50671e-14 2.43361e-13 0
0 0 0

2.07592e-14 9.19544e-15 0
-7.10543e-14 -1.42109e-14 0
0 0 0

2.34998e-14 6.72033e-15 0
-5.68434e-14 2.41585e-13 0
0 0 0

2.07592e-14 6.79184e-15 0
-2.13163e-14 7.10543e-15 0
0 0 0

-4.42969e-14 3.39577e-14 0
-4.08562e-14 7.28306e-14 0
0 0 0

-5.2602e-15 3.59536e-14 0
-5.68434e-14 -2.84217e-14 0
0 0 0

-4.42969e-14 6.85924e-14 0
-3.55271e-14 4.9738e-14 0
0 0 0

-5.2602e-15 7.64576e-14 0
-4.9738e-14 -6.39488e-14 0
0 0 0

2.88847e-14 4.83533e-15 0
-7.81597e-14 -1.06581e-13 0
0 0 0

4.12742e-14 4.6693e-16 0
-7.10543e-14 -1.42109e-14 0
0 0 0

2.88847e-14 1.99029e-14 0
-6.03961e-14 -8.88178e-14 0
0 0 0

4.12742e-14 1.19637e-14 0
-4.26326e-14 -1.42109e-14 0
0 0 0

4.85075e-14 -3.83748e-15 0
-1.77636e-14 -8.88178e-14 0
0 0 0

4.1155e-14 -4.44173e-15 0
7.10543e-15 -4.9738e-14 0
0 0 0

4.85075e-14 -9.39454e-15 0
-7.10543e-15 -9.23706e-14 0
0 0 0

4.1155e-14 -1.23928e-14 0
-2.13163e-14 -7.81597e-14 0
0 0 0

3.38916e-14 2.24449e-15 0
-7.10543e-15 2.62901e-13 0
0 0 0

2.89812e-14 3.18311e-15 0
2.4869e-14 8.17124e-14 0
0 0 0

3.38916e-14 -2.95558e-15 0
2.13163e-14 2.77112e-13 0
0 0 0

2.89812e-14 -1.63077e-15 0
2.13163e-14 1.06581e-13 0
0 0 0

-2.84802e-14 8.99902e-14 0
-1.38556e-13 3.19744e-14 0
0 0 0

-1.76663e-14 1.02559e-13 0
-1.03029e-13 3.90799e-14 0
0 0 0

-2.84802e-14 9.81511e-14 0
-1.38556e-13 4.61853e-14 0
0 0 0

-1.76663e-14 1.14257e-13 0
-1.35003e-13 7.10543e-15 0
0 0 0

-4.86699e-15 3.54881e-14 0
-9.9476e-14 -9.9476e-14 0
0 0 0

1.16996e-14 2.60727e-14 0
-3.90799e-14 7.4607e-14 0
0 0 0

-4.86699e-15 5.1591e-14 0
-1.13687e-13 -2.84217e-14 0
0 0 0

1.16996e-14 4.27939e-14 0
-2.13163e-14 1.06581e-13 0
0 0 0

2.21456e-14 -1.63629e-14 0
2.66454e-14 -5.86198e-14 0
0 0 0

1.11231e-14 -2.23201e-14 0
1.77636e-14 -6.75016e-14 0
0 0 0

2.21456e-14 -2.47427e-14 0
2.84217e-14 -1.13687e-13 0
0 0 0

1.11231e-14 -3.42235e-14 0
0 -8.52651e-14 0
0 0 0

4.08222e-15 -1.78231e-15 0
0 2.55795e-13 0
0 0 0

1.36766e-14 1.10081e-15 0
-1.77636e-14 3.90799e-14 0
0 0 0

4.08222e-15 5.76431e-15 0
7.10543e-15 2.62901e-13 0
0 0 0

1.36766e-14 1.13778e-14 0
-2.13163e-14 3.55271e-14 0
0 0 0

SCALARS active double 1
LOOKUP_TABLE default
1
1
1
1
1
1
1
1
1
1
1
1
1
1
1
1
1
1
1
1
1
1
1
1
1
1
1
1
1
1
1
1
1
1
1
1
1
1
1
1
1
1
1
1
1
1
1
1
1
1
1
1
1
1
1
1
1
1
1
1
1
1
1
1
SCALARS extent double 1
LOOKUP_TABLE default
0.0125
0.0125
0.0125
0.0125
0.0125
0.0125
0.0125
0.0125
0.0125
0.0125
0.0125
0.0125
0.0125
0.0125
0.0125
0.0125
0.0125
0.0125
0.0125
0.0125
0.0125
0.0125
0.0125
0.0125
0.0125
0.0125
0.0125
0.0125
0.0125
0.0125
0.0125
0.0125
0.0125
0.0125
0.0125
0.0125
0.0125
0.0125
0.0125
0.0125
0.0125
0.0125
0.0125
0.0125
0.0125
0.0125
0.0125
0.0125
0.0125
0.0125
0.0125
0.0125
0.0125
0.0125
0.0125
0.0125
0.0125
0.0125
0.0125
0.0125
0.0125
0.0125
0.0125
0.0125
SCALARS pressure double 1
LOOKUP_TABLE default
-6.19611e-11
3.16786e-11
-1.30165e-11
1.46863e-11
-6.09389e-11
5.08844e-11
-3.88379e-11
4.52666e-11
9.75259e-11
-1.52025e-11
1.1867e-10
-4.90056e-11
-2.91804e-11
1.30157e-11
-3.64309e-11
-3.18665e-12
-4.80799e-11
3.9587e-11
-4.99754e-11
1.46764e-11
-2.36257e-11
3.68308e-11
2.44761e-11
7.23633e-11
8.82896e-11
-7.32325e-12
1.30462e-10
-5.65334e-11
-8.68743e-11
5.40242e-11
-3.6995e-11
2.24922e-11
-5.57169e-11
4.04271e-11
-4.17604e-11
4.84148e-11
-3.92807e-11
4.8331e-11
-5.59767e-12
8.4045e-11
9.88608e-11
6.61801e-12
1.12931e-10
-5.54104e-11
-7.41131e-11
3.24655e-11
-7.42052e-11
3.85423e-11
-5.17695e-11
2.29535e-11
-5.29784e-11
1.1499e-11
-3.56569e-11
1.20509e-11
-6.41558e-11
2.43328e-11
1.06462e-10
-4.7313e-12
1.38945e-10
-3.0536e-11
-3.02482e-11
3.27863e-11
-6.53997e-11
2.66454e-11
SCALARS density double 1
LOOKUP_TABLE default
1000
1000
1000
1000
1000
1000
1000
1000
1000
1000
1000
1000
1000
1000
1000
1000
1000
1000
1000
1000
1000
1000
1000
1000
1000
1000
1000
1000
1000
1000
1000
1000
1000
1000
1000
1000
1000
1000
1000
1000
1000
1000
1000
1000
1000
1000
1000
1000
1000
1000
1000
1000
1000
1000
1000
1000
1000
1000
1000
1000
1000
1000
1000
1000
