# vtk DataFile Version 3.0
Frame: 5, Time: 0.1
ASCII
DATASET UNSTRUCTURED_GRID
POINTS 64 double
0.5125 0.561969 0 
0.5125 0.586969 0 
0.5375 0.561969 0 
0.5375 0.586969 0 
0.5125 0.611969 0 
0.5125 0.636969 0 
0.5375 0.611969 0 
0.5375 0.636969 0 
0.5125 0.661969 0 
0.5125 0.686969 0 
0.5375 0.661969 0 
0.5375 0.686969 0 
0.5125 0.711969 0 
0.5125 0.736969 0 
0.5375 0.711969 0 
0.5375 0.736969 0 
0.5625 0.561969 0 
0.5625 0.586969 0 
0.5875 0.561969 0 
0.5875 0.586969 0 
0.5625 0.611969 0 
0.5625 0.636969 0 
0.5875 0.611969 0 
0.5875 0.636969 0 
0.5625 0.661969 0 
0.5625 0.686969 0 
0.5875 0.661969 0 
0.5875 0.686969 0 
0.5625 0.711969 0 
0.5625 0.736969 0 
0.5875 0.711969 0 
0.5875 0.736969 0 
0.6125 0.561969 0 
0.6125 0.586969 0 
0.6375 0.561969 0 
0.6375 0.586969 0 
0.6125 0.611969 0 
0.6125 0.636969 0 
0.6375 0.611969 0 
0.6375 0.636969 0 
0.6125 0.661969 0 
0.6125 0.686969 0 
0.6375 0.661969 0 
0.6375 0.686969 0 
0.6125 0.711969 0 
0.6125 0.736969 0 
0.6375 0.711969 0 
0.6375 0.736969 0 
0.6625 0.561969 0 
0.6625 0.586969 0 
0.6875 0.561969 0 
0.6875 0.586969 0 
0.6625 0.611969 0 
0.6625 0.636969 0 
0.6875 0.611969 0 
0.6875 0.636969 0 
0.6625 0.661969 0 
0.6625 0.686969 0 
0.6875 0.661969 0 
0.6875 0.686969 0 
0.6625 0.711969 0 
0.6625 0.736969 0 
0.6875 0.711969 0 
0.6875 0.736969 0 
CELLS 64 128
1 0
1 1
1 2
1 3
1 4
1 5
1 6
1 7
1 8
1 9
1 10
1 11
1 12
1 13
1 14
1 15
1 16
1 17
1 18
1 19
1 20
1 21
1 22
1 23
1 24
1 25
1 26
1 27
1 28
1 29
1 30
1 31
1 32
1 33
1 34
1 35
1 36
1 37
1 38
1 39
1 40
1 41
1 42
1 43
1 44
1 45
1 46
1 47
1 48
1 49
1 50
1 51
1 52
1 53
1 54
1 55
1 56
1 57
1 58
1 59
1 60
1 61
1 62
1 63
CELL_TYPES 64
1
1
1
1
1
1
1
1
1
1
1
1
1
1
1
1
1
1
1
1
1
1
1
1
1
1
1
1
1
1
1
1
1
1
1
1
1
1
1
1
1
1
1
1
1
1
1
1
1
1
1
1
1
1
1
1
1
1
1
1
1
1
1
1
POINT_DATA 64
VECTORS displacement double
-1.53917e-17 -0.0505313 0 
-2.61736e-17 -0.0505313 0 
-1.80715e-17 -0.0505313 0 
-1.22575e-17 -0.0505313 0 
1.73871e-17 -0.0505313 0 
4.2162e-17 -0.0505313 0 
1.29993e-17 -0.0505313 0 
2.74792e-17 -0.0505313 0 
2.45785e-17 -0.0505313 0 
2.26856e-17 -0.0505313 0 
2.41147e-17 -0.0505313 0 
2.72879e-17 -0.0505313 0 
4.6708e-17 -0.0505313 0 
5.85826e-17 -0.0505313 0 
4.38871e-17 -0.0505313 0 
5.80637e-17 -0.0505313 0 
-1.6977e-17 -0.0505313 0 
-4.4978e-18 -0.0505313 0 
-1.21082e-17 -0.0505313 0 
-2.89449e-18 -0.0505313 0 
9.59224e-18 -0.0505313 0 
1.82935e-17 -0.0505313 0 
7.16599e-18 -0.0505313 0 
1.46051e-17 -0.0505313 0 
2.31913e-17 -0.0505313 0 
2.96358e-17 -0.0505313 0 
2.1808e-17 -0.0505313 0 
2.97293e-17 -0.0505313 0 
4.14803e-17 -0.0505313 0 
5.54757e-17 -0.0505313 0 
3.94873e-17 -0.0505313 0 
5.08184e-17 -0.0505313 0 
-8.22983e-18 -0.0505313 0 
-1.44169e-18 -0.0505313 0 
-5.34186e-18 -0.0505313 0 
-1.39405e-19 -0.0505313 0 
4.52711e-18 -0.0505313 0 
1.05326e-17 -0.0505313 0 
1.6756e-18 -0.0505313 0 
6.07614e-18 -0.0505313 0 
2.01504e-17 -0.0505313 0 
2.96075e-17 -0.0505313 0 
1.82185e-17 -0.0505313 0 
2.92703e-17 -0.0505313 0 
3.7436e-17 -0.0505313 0 
4.57922e-17 -0.0505313 0 
3.53263e-17 -0.0505313 0 
4.03972e-17 -0.0505313 0 
-7.29138e-18 -0.0505313 0 
6.71001e-18 -0.0505313 0 
-1.40784e-17 -0.0505313 0 
1.91066e-17 -0.0505313 0 
-2.35704e-18 -0.0505313 0 
-3.92296e-18 -0.0505313 0 
-7.57082e-18 -0.0505313 0 
-1.94647e-17 -0.0505313 0 
1.66721e-17 -0.0505313 0 
3.13359e-17 -0.0505313 0 
1.55112e-17 -0.0505313 0 
3.58044e-17 -0.0505313 0 
3.27613e-17 -0.0505313 0 
3.692e-17 -0.0505313 0 
2.97412e-17 -0.0505313 0 
3.53606e-17 -0.0505313 0 
VECTORS velocity double
1.19396e-14 -0.99081 0 
-1.11512e-14 -0.99081 0 
2.52105e-15 -0.99081 0 
-3.13479e-15 -0.99081 0 
-3.19075e-15 -0.99081 0 
6.86316e-15 -0.99081 0 
-1.10848e-15 -0.99081 0 
2.45408e-15 -0.99081 0 
2.73155e-15 -0.99081 0 
-1.52666e-15 -0.99081 0 
1.72599e-15 -0.99081 0 
-6.90087e-16 -0.99081 0 
-2.50992e-15 -0.99081 0 
-2.36445e-15 -0.99081 0 
-1.85784e-15 -0.99081 0 
-1.34406e-16 -0.99081 0 
-2.05126e-15 -0.99081 0 
5.226e-16 -0.99081 0 
-1.77729e-15 -0.99081 0 
-1.7901e-16 -0.99081 0 
-2.53529e-17 -0.99081 0 
3.03589e-16 -0.99081 0 
5.86217e-17 -0.99081 0 
4.11688e-16 -0.99081 0 
1.20635e-15 -0.99081 0 
1.63169e-16 -0.99081 0 
1.17264e-15 -0.99081 0 
1.0331e-15 -0.99081 0 
-9.20326e-16 -0.99081 0 
1.04152e-15 -0.99081 0 
3.02621e-16 -0.99081 0 
1.16334e-15 -0.99081 0 
-1.08605e-15 -0.99081 0 
-4.35006e-16 -0.99081 0 
2.24475e-17 -0.99081 0 
-2.4539e-16 -0.99081 0 
3.32471e-16 -0.99081 0 
5.31127e-16 -0.99081 0 
7.96194e-16 -0.99081 0 
6.61907e-16 -0.99081 0 
9.51989e-16 -0.99081 0 
1.57212e-15 -0.99081 0 
5.44394e-16 -0.99081 0 
1.78022e-15 -0.99081 0 
1.52942e-15 -0.99081 0 
1.36321e-15 -0.99081 0 
2.76009e-15 -0.99081 0 
1.64114e-15 -0.99081 0 
-3.88436e-15 -0.99081 0 
3.97501e-15 -0.99081 0 
-1.28065e-14 -0.99081 0 
1.22262e-14 -0.99081 0 
1.9432e-15 -0.99081 0 
-1.77978e-15 -0.99081 0 
3.7735e-15 -0.99081 0 
-6.79392e-15 -0.99081 0 
-4.99417e-16 -0.99081 0 
2.0726e-15 -0.99081 0 
-2.17944e-15 -0.99081 0 
2.44926e-15 -0.99081 0 
3.5569e-15 -0.99081 0 
2.78321e-15 -0.99081 0 
3.91986e-15 -0.99081 0 
4.78942e-15 -0.99081 0 
SCALARS mass double 1
LOOKUP_TABLE default
0.625
0.625
0.625
0.625
0.625
0.625
0.625
0.625
0.625
0.625
0.625
0.625
0.625
0.625
0.625
0.625
0.625
0.625
0.625
0.625
0.625
0.625
0.625
0.625
0.625
0.625
0.625
0.625
0.625
0.625
0.625
0.625
0.625
0.625
0.625
0.625
0.625
0.625
0.625
0.625
0.625
0.625
0.625
0.625
0.625
0.625
0.625
0.625
0.625
0.625
0.625
0.625
0.625
0.625
0.625
0.625
0.625
0.625
0.625
0.625
0.625
0.625
0.625
0.625
SCALARS volume double 1
LOOKUP_TABLE default
0.000625
0.000625
0.000625
0.000625
0.000625
0.000625
0.000625
0.000625
0.000625
0.000625
0.000625
0.000625
0.000625
0.000625
0.000625
0.000625
0.000625
0.000625
0.000625
0.000625
0.000625
0.000625
0.000625
0.000625
0.000625
0.000625
0.000625
0.000625
0.000625
0.000625
0.000625
0.000625
0.000625
0.000625
0.000625
0.000625
0.000625
0.000625
0.000625
0.000625
0.000625
0.000625
0.000625
0.000625
0.000625
0.000625
0.000625
0.000625
0.000625
0.000625
0.000625
0.000625
0.000625
0.000625
0.000625
0.000625
0.000625
0.000625
0.000625
0.000625
0.000625
0.000625
0.000625
0.000625
VECTORS momentum double
7.46227e-15 -0.619256 0 
-6.96949e-15 -0.619256 0 
1.57566e-15 -0.619256 0 
-1.95925e-15 -0.619256 0 
-1.99422e-15 -0.619256 0 
4.28947e-15 -0.619256 0 
-6.92798e-16 -0.619256 0 
1.5338e-15 -0.619256 0 
1.70722e-15 -0.619256 0 
-9.54166e-16 -0.619256 0 
1.07874e-15 -0.619256 0 
-4.31304e-16 -0.619256 0 
-1.5687e-15 -0.619256 0 
-1.47778e-15 -0.619256 0 
-1.16115e-15 -0.619256 0 
-8.40038e-17 -0.619256 0 
-1.28204e-15 -0.619256 0 
3.26625e-16 -0.619256 0 
-1.1108e-15 -0.619256 0 
-1.11881e-16 -0.619256 0 
-1.58455e-17 -0.619256 0 
1.89743e-16 -0.619256 0 
3.66386e-17 -0.619256 0 
2.57305e-16 -0.619256 0 
7.53971e-16 -0.619256 0 
1.0198e-16 -0.619256 0 
7.32901e-16 -0.619256 0 
6.45688e-16 -0.619256 0 
-5.75204e-16 -0.619256 0 
6.50953e-16 -0.619256 0 
1.89138e-16 -0.619256 0 
7.27087e-16 -0.619256 0 
-6.78781e-16 -0.619256 0 
-2.71879e-16 -0.619256 0 
1.40297e-17 -0.619256 0 
-1.53369e-16 -0.619256 0 
2.07794e-16 -0.619256 0 
3.31954e-16 -0.619256 0 
4.97621e-16 -0.619256 0 
4.13692e-16 -0.619256 0 
5.94993e-16 -0.619256 0 
9.82575e-16 -0.619256 0 
3.40246e-16 -0.619256 0 
1.11264e-15 -0.619256 0 
9.55891e-16 -0.619256 0 
8.52008e-16 -0.619256 0 
1.72505e-15 -0.619256 0 
1.02572e-15 -0.619256 0 
-2.42773e-15 -0.619256 0 
2.48438e-15 -0.619256 0 
-8.00405e-15 -0.619256 0 
7.64137e-15 -0.619256 0 
1.2145e-15 -0.619256 0 
-1.11236e-15 -0.619256 0 
2.35844e-15 -0.619256 0 
-4.2462e-15 -0.619256 0 
-3.12135e-16 -0.619256 0 
1.29538e-15 -0.619256 0 
-1.36215e-15 -0.619256 0 
1.53079e-15 -0.619256 0 
2.22306e-15 -0.619256 0 
1.73951e-15 -0.619256 0 
2.44991e-15 -0.619256 0 
2.99338e-15 -0.619256 0 
VECTORS body_force double
0 -9.81 0 
0 -9.81 0 
0 -9.81 0 
0 -9.81 0 
0 -9.81 0 
0 -9.81 0 
0 -9.81 0 
0 -9.81 0 
0 -9.81 0 
0 -9.81 0 
0 -9.81 0 
0 -9.81 0 
0 -9.81 0 
0 -9.81 0 
0 -9.81 0 
0 -9.81 0 
0 -9.81 0 
0 -9.81 0 
0 -9.81 0 
0 -9.81 0 
0 -9.81 0 
0 -9.81 0 
0 -9.81 0 
0 -9.81 0 
0 -9.81 0 
0 -9.81 0 
0 -9.81 0 
0 -9.81 0 
0 -9.81 0 
0 -9.81 0 
0 -9.81 0 
0 -9.81 0 
0 -9.81 0 
0 -9.81 0 
0 -9.81 0 
0 -9.81 0 
0 -9.81 0 
0 -9.81 0 
0 -9.81 0 
0 -9.81 0 
0 -9.81 0 
0 -9.81 0 
0 -9.81 0 
0 -9.81 0 
0 -9.81 0 
0 -9.81 0 
0 -9.81 0 
0 -9.81 0 
0 -9.81 0 
0 -9.81 0 
0 -9.81 0 
0 -9.81 0 
0 -9.81 0 
0 -9.81 0 
0 -9.81 0 
0 -9.81 0 
0 -9.81 0 
0 -9.81 0 
0 -9.81 0 
0 -9.81 0 
0 -9.81 0 
0 -9.81 0 
0 -9.81 0 
0 -9.81 0 
TENSORS cauchy_stress double
1.42938e-10 -6.53386e-11 0
-6.53386e-11 3.61008e-10 0
0 0 0

-4.39289e-11 -2.08493e-11 0
-2.08493e-11 -2.4523e-10 0
0 0 0

1.17012e-10 -1.46633e-11 0
-1.46633e-11 3.00514e-10 0
0 0 0

-3.79289e-11 -1.08134e-11 0
-1.08134e-11 -2.3123e-10 0
0 0 0

-1.66529e-10 6.90024e-11 0
6.90024e-11 -3.43565e-10 0
0 0 0

-2.71813e-11 1.10309e-11 0
1.10309e-11 8.71699e-11 0
0 0 0

-1.60707e-10 3.15114e-11 0
3.15114e-11 -3.2998e-10 0
0 0 0

-2.94536e-11 1.01818e-11 0
1.01818e-11 8.1868e-11 0
0 0 0

1.35239e-10 -5.20499e-11 0
-5.20499e-11 3.20315e-10 0
0 0 0

4.66927e-12 -8.04347e-12 0
-8.04347e-12 -3.63077e-11 0
0 0 0

1.29431e-10 -2.45867e-11 0
-2.45867e-11 3.06762e-10 0
0 0 0

-4.83915e-12 -1.18449e-11 0
-1.18449e-11 -5.8494e-11 0
0 0 0

-4.31959e-11 1.43439e-11 0
1.43439e-11 -7.18589e-11 0
0 0 0

-9.26797e-12 -8.57696e-12 0
-8.57696e-12 -1.63034e-11 0
0 0 0

-4.14605e-11 6.59513e-12 0
6.59513e-12 -6.78097e-11 0
0 0 0

-9.32402e-12 2.10522e-12 0
2.10522e-12 -1.64342e-11 0
0 0 0

1.53007e-10 3.41643e-12 0
3.41643e-12 3.0708e-10 0
0 0 0

-1.05634e-10 4.14477e-12 0
4.14477e-12 -2.62924e-10 0
0 0 0

1.72498e-10 -6.38569e-13 0
-6.38569e-13 3.52559e-10 0
0 0 0

-1.14742e-10 2.58604e-12 0
2.58604e-12 -2.84177e-10 0
0 0 0

-1.48898e-10 6.50256e-12 0
6.50256e-12 -3.22545e-10 0
0 0 0

2.35146e-11 -4.84839e-12 0
-4.84839e-12 9.26978e-11 0
0 0 0

-1.53169e-10 4.6444e-13 0
4.6444e-13 -3.32511e-10 0
0 0 0

2.96283e-11 -8.06004e-12 0
-8.06004e-12 1.06963e-10 0
0 0 0

1.24e-10 -1.07412e-11 0
-1.07412e-11 3.0352e-10 0
0 0 0

-3.18601e-11 -6.00841e-12 0
-6.00841e-12 -7.52992e-11 0
0 0 0

1.27661e-10 -7.72403e-12 0
-7.72403e-12 3.12064e-10 0
0 0 0

-2.38329e-11 -3.87916e-12 0
-3.87916e-12 -5.65689e-11 0
0 0 0

-4.42112e-11 4.13238e-12 0
4.13238e-12 -8.27191e-11 0
0 0 0

-3.10746e-11 7.83148e-12 0
7.83148e-12 -2.47402e-11 0
0 0 0

-3.79449e-11 3.79843e-12 0
3.79843e-12 -6.80979e-11 0
0 0 0

-3.02307e-11 1.03309e-12 0
1.03309e-12 -2.27711e-11 0
0 0 0

1.71318e-10 -3.65883e-12 0
-3.65883e-12 3.70121e-10 0
0 0 0

-1.12632e-10 -3.24324e-12 0
-3.24324e-12 -2.76166e-10 0
0 0 0

1.46598e-10 -4.32223e-12 0
-4.32223e-12 3.12442e-10 0
0 0 0

-1.07258e-10 -2.59526e-12 0
-2.59526e-12 -2.63627e-10 0
0 0 0

-1.56882e-10 -6.30416e-14 0
-6.30416e-14 -3.36812e-10 0
0 0 0

2.73568e-11 4.58346e-12 0
4.58346e-12 1.0954e-10 0
0 0 0

-1.48479e-10 -6.46902e-12 0
-6.46902e-12 -3.17206e-10 0
0 0 0

2.53584e-11 2.11541e-12 0
2.11541e-12 1.04877e-10 0
0 0 0

1.27579e-10 9.87855e-12 0
9.87855e-12 3.17498e-10 0
0 0 0

-3.02831e-11 7.49648e-12 0
7.49648e-12 -6.72025e-11 0
0 0 0

1.18178e-10 1.8153e-11 0
1.8153e-11 2.95561e-10 0
0 0 0

-2.79228e-11 1.08492e-11 0
1.08492e-11 -6.16951e-11 0
0 0 0

-4.21083e-11 3.99197e-12 0
3.99197e-12 -7.66145e-11 0
0 0 0

-3.80798e-11 3.28854e-12 0
3.28854e-12 -3.35192e-11 0
0 0 0

-4.24538e-11 2.0166e-13 0
2.0166e-13 -7.74206e-11 0
0 0 0

-3.38252e-11 -3.64553e-13 0
-3.64553e-13 -2.35918e-11 0
0 0 0

1.0161e-10 1.34315e-11 0
1.34315e-11 3.06701e-10 0
0 0 0

-4.50125e-11 1.15877e-11 0
1.15877e-11 -2.32173e-10 0
0 0 0

1.22456e-10 5.51482e-11 0
5.51482e-11 3.55342e-10 0
0 0 0

-4.8135e-11 2.0323e-11 0
2.0323e-11 -2.39459e-10 0
0 0 0

-1.55787e-10 -3.65228e-11 0
-3.65228e-11 -3.10027e-10 0
0 0 0

-3.73788e-11 -9.79155e-12 0
-9.79155e-12 7.21853e-11 0
0 0 0

-1.60318e-10 -7.1121e-11 0
-7.1121e-11 -3.206e-10 0
0 0 0

-2.8093e-11 -1.30675e-11 0
-1.30675e-11 9.38523e-11 0
0 0 0

1.30386e-10 3.2555e-11 0
3.2555e-11 3.16142e-10 0
0 0 0

-1.91519e-12 1.49534e-11 0
1.49534e-11 -5.02989e-11 0
0 0 0

1.2863e-10 5.84502e-11 0
5.84502e-11 3.12045e-10 0
0 0 0

2.48193e-12 1.48323e-11 0
1.48323e-11 -4.0039e-11 0
0 0 0

-4.65151e-11 -1.89345e-12 0
-1.89345e-12 -7.75591e-11 0
0 0 0

-1.05615e-11 3.49902e-12 0
3.49902e-12 -8.65002e-12 0
0 0 0

-4.19198e-11 -6.99954e-12 0
-6.99954e-12 -6.68368e-11 0
0 0 0

-1.08465e-11 1.07682e-11 0
1.07682e-11 -9.31509e-12 0
0 0 0

TENSORS velocity_gradient double
-8.50006e-14 -1.61167e-13 0
1.06581e-14 3.55271e-15 0
0 0 0

1.33777e-14 -1.61167e-13 0
-2.13163e-14 2.13163e-14 0
0 0 0

-8.50006e-14 -6.27886e-14 0
1.59872e-14 -1.24345e-14 0
0 0 0

1.33777e-14 -6.27886e-14 0
-3.55271e-15 -3.55271e-15 0
0 0 0

3.80392e-14 9.89439e-14 0
-2.22045e-14 6.21725e-15 0
0 0 0

-5.78844e-15 9.89439e-14 0
-4.26326e-14 0 0
0 0 0

3.80392e-14 5.51162e-14 0
-1.59872e-14 -1.77636e-15 0
0 0 0

-5.78844e-15 5.51162e-14 0
-2.4869e-14 -1.06581e-14 0
0 0 0

-1.75419e-14 -5.43643e-14 0
-2.84217e-14 -3.55271e-14 0
0 0 0

5.04413e-16 -5.43643e-14 0
0 -2.84217e-14 0
0 0 0

-1.75419e-14 -3.6318e-14 0
-2.84217e-14 -7.10543e-15 0
0 0 0

5.04413e-16 -3.6318e-14 0
-3.55271e-15 -3.55271e-15 0
0 0 0

1.82955e-14 -2.93433e-14 0
-2.22045e-14 -7.99361e-15 0
0 0 0

3.58496e-14 -2.93433e-14 0
-5.32907e-15 8.88178e-15 0
0 0 0

1.82955e-14 -1.17892e-14 0
-3.55271e-15 2.4869e-14 0
0 0 0

3.58496e-14 -1.17892e-14 0
-3.55271e-15 1.77636e-14 0
0 0 0

-1.58655e-14 -5.2091e-15 0
-1.24345e-14 -4.08562e-14 0
0 0 0

9.15224e-16 -5.2091e-15 0
-1.42109e-14 -2.84217e-14 0
0 0 0

-1.58655e-14 1.15716e-14 0
-1.77636e-14 -1.77636e-14 0
0 0 0

9.15224e-16 1.15716e-14 0
-1.77636e-14 -1.77636e-14 0
0 0 0

4.79606e-15 2.91503e-14 0
-1.15463e-14 9.76996e-15 0
0 0 0

-3.30822e-15 2.91503e-14 0
-1.42109e-14 7.10543e-15 0
0 0 0

4.79606e-15 2.1046e-14 0
-1.77636e-14 -3.55271e-15 0
0 0 0

-3.30822e-15 2.1046e-14 0
-1.77636e-14 2.4869e-14 0
0 0 0

1.748e-15 -1.86531e-14 0
-7.10543e-15 1.42109e-14 0
0 0 0

1.90315e-14 -1.86531e-14 0
-5.32907e-15 -1.24345e-14 0
0 0 0

1.748e-15 -1.36968e-15 0
-1.95399e-14 -5.32907e-15 0
0 0 0

1.90315e-14 -1.36968e-15 0
-1.42109e-14 -7.10543e-15 0
0 0 0

2.80168e-14 -2.37436e-15 0
-1.86517e-14 -4.44089e-15 0
0 0 0

2.92926e-14 -2.37436e-15 0
-1.77636e-15 1.24345e-14 0
0 0 0

2.80168e-14 -1.09863e-15 0
-1.24345e-14 1.59872e-14 0
0 0 0

2.92926e-14 -1.09863e-15 0
-1.77636e-14 1.06581e-14 0
0 0 0

-1.83451e-15 2.6822e-14 0
8.88178e-15 -4.08562e-14 0
0 0 0

1.18854e-14 2.6822e-14 0
7.10543e-15 -4.26326e-14 0
0 0 0

-1.83451e-15 4.05419e-14 0
1.06581e-14 -1.77636e-14 0
0 0 0

1.18854e-14 4.05419e-14 0
1.06581e-14 -1.77636e-14 0
0 0 0

1.00327e-14 8.83335e-15 0
1.77636e-15 1.59872e-14 0
0 0 0

-6.28825e-15 8.83335e-15 0
0 -1.42109e-14 0
0 0 0

1.00327e-14 -7.48764e-15 0
5.32907e-15 1.24345e-14 0
0 0 0

-6.28825e-15 -7.48764e-15 0
1.42109e-14 2.84217e-14 0
0 0 0

-5.56947e-15 1.55472e-14 0
2.66454e-15 -2.57572e-14 0
0 0 0

1.09807e-14 1.55472e-14 0
5.32907e-15 -8.88178e-15 0
0 0 0

-5.56947e-15 3.20974e-14 0
3.55271e-15 -1.77636e-14 0
0 0 0

1.09807e-14 3.20974e-14 0
7.10543e-15 -2.13163e-14 0
0 0 0

2.2599e-14 3.05727e-15 0
0 7.10543e-15 0
0 0 0

2.96351e-14 3.05727e-15 0
0 -7.10543e-15 0
0 0 0

2.2599e-14 1.00933e-14 0
-5.32907e-15 1.77636e-15 0
0 0 0

2.96351e-14 1.00933e-14 0
-2.13163e-14 -2.13163e-14 0
0 0 0

-6.47814e-14 9.17665e-14 0
-4.35207e-14 -2.93099e-14 0
0 0 0

2.39479e-14 9.17665e-14 0
-1.06581e-14 -1.77636e-14 0
0 0 0

-6.47814e-14 1.80496e-13 0
-5.32907e-14 -3.55271e-15 0
0 0 0

2.39479e-14 1.80496e-13 0
-1.77636e-14 1.06581e-14 0
0 0 0

3.97439e-14 -4.16309e-14 0
-1.68754e-14 4.44089e-15 0
0 0 0

-1.22216e-14 -4.16309e-14 0
-5.32907e-15 -5.32907e-15 0
0 0 0

3.97439e-14 -9.35964e-14 0
-1.77636e-14 3.55271e-15 0
0 0 0

-1.22216e-14 -9.35964e-14 0
0 1.42109e-14 0
0 0 0

-2.78508e-14 4.94377e-14 0
-2.13163e-14 -2.13163e-14 0
0 0 0

-9.72048e-15 4.94377e-14 0
-1.95399e-14 -5.32907e-15 0
0 0 0

-2.78508e-14 6.7568e-14 0
-1.42109e-14 -2.13163e-14 0
0 0 0

-9.72048e-15 6.7568e-14 0
-2.13163e-14 -2.13163e-14 0
0 0 0

9.90702e-15 2.41206e-14 0
-1.86517e-14 2.66454e-15 0
0 0 0

3.09255e-14 2.41206e-14 0
-1.77636e-15 -8.88178e-15 0
0 0 0

9.90702e-15 4.51391e-14 0
-1.77636e-14 3.55271e-15 0
0 0 0

3.09255e-14 4.51391e-14 0
0 4.26326e-14 0
0 0 0

SCALARS active double 1
LOOKUP_TABLE default
1
1
1
1
1
1
1
1
1
1
1
1
1
1
1
1
1
1
1
1
1
1
1
1
1
1
1
1
1
1
1
1
1
1
1
1
1
1
1
1
1
1
1
1
1
1
1
1
1
1
1
1
1
1
1
1
1
1
1
1
1
1
1
1
SCALARS extent double 1
LOOKUP_TABLE default
0.0125
0.0125
0.0125
0.0125
0.0125
0.0125
0.0125
0.0125
0.0125
0.0125
0.0125
0.0125
0.0125
0.0125
0.0125
0.0125
0.0125
0.0125
0.0125
0.0125
0.0125
0.0125
0.0125
0.0125
0.0125
0.0125
0.0125
0.0125
0.0125
0.0125
0.0125
0.0125
0.0125
0.0125
0.0125
0.0125
0.0125
0.0125
0.0125
0.0125
0.0125
0.0125
0.0125
0.0125
0.0125
0.0125
0.0125
0.0125
0.0125
0.0125
0.0125
0.0125
0.0125
0.0125
0.0125
0.0125
0.0125
0.0125
0.0125
0.0125
0.0125
0.0125
0.0125
0.0125
SCALARS pressure double 1
LOOKUP_TABLE default
-2.51973e-10
1.44579e-10
-2.08763e-10
1.34579e-10
2.55047e-10
-2.99943e-11
2.45343e-10
-2.62072e-11
-2.27777e-10
1.58192e-11
-2.18097e-10
3.16666e-11
5.75274e-11
1.27857e-11
5.46351e-11
1.28791e-11
-2.30043e-10
1.84279e-10
-2.62528e-10
1.9946e-10
2.35722e-10
-5.81062e-11
2.4284e-10
-6.82957e-11
-2.1376e-10
5.35796e-11
-2.19863e-10
4.02009e-11
6.34652e-11
2.79074e-11
5.30214e-11
2.65009e-11
-2.7072e-10
1.94399e-10
-2.2952e-10
1.85442e-10
2.46847e-10
-6.84484e-11
2.32842e-10
-6.51177e-11
-2.22539e-10
4.87428e-11
-2.0687e-10
4.4809e-11
5.93614e-11
3.57995e-11
5.99372e-11
2.87085e-11
-2.04155e-10
1.38593e-10
-2.38899e-10
1.43797e-10
2.32907e-10
-1.74032e-11
2.40459e-10
-3.28796e-11
-2.23264e-10
2.61071e-11
-2.20338e-10
1.87785e-11
6.20371e-11
9.60574e-12
5.43783e-11
1.00808e-11
SCALARS density double 1
LOOKUP_TABLE default
1000
1000
1000
1000
1000
1000
1000
1000
1000
1000
1000
1000
1000
1000
1000
1000
1000
1000
1000
1000
1000
1000
1000
1000
1000
1000
1000
1000
1000
1000
1000
1000
1000
1000
1000
1000
1000
1000
1000
1000
1000
1000
1000
1000
1000
1000
1000
1000
1000
1000
1000
1000
1000
1000
1000
1000
1000
1000
1000
1000
1000
1000
1000
1000
