# vtk DataFile Version 3.0
Frame: 7, Time: 0.134
ASCII
DATASET UNSTRUCTURED_GRID
POINTS 64 double
0.5125 0.522444 0 
0.5125 0.547444 0 
0.5375 0.522444 0 
0.5375 0.547444 0 
0.5125 0.572444 0 
0.5125 0.597444 0 
0.5375 0.572444 0 
0.5375 0.597444 0 
0.5125 0.622444 0 
0.5125 0.647444 0 
0.5375 0.622444 0 
0.5375 0.647444 0 
0.5125 0.672444 0 
0.5125 0.697444 0 
0.5375 0.672444 0 
0.5375 0.697444 0 
0.5625 0.522444 0 
0.5625 0.547444 0 
0.5875 0.522444 0 
0.5875 0.547444 0 
0.5625 0.572444 0 
0.5625 0.597444 0 
0.5875 0.572444 0 
0.5875 0.597444 0 
0.5625 0.622444 0 
0.5625 0.647444 0 
0.5875 0.622444 0 
0.5875 0.647444 0 
0.5625 0.672444 0 
0.5625 0.697444 0 
0.5875 0.672444 0 
0.5875 0.697444 0 
0.6125 0.522444 0 
0.6125 0.547444 0 
0.6375 0.522444 0 
0.6375 0.547444 0 
0.6125 0.572444 0 
0.6125 0.597444 0 
0.6375 0.572444 0 
0.6375 0.597444 0 
0.6125 0.622444 0 
0.6125 0.647444 0 
0.6375 0.622444 0 
0.6375 0.647444 0 
0.6125 0.672444 0 
0.6125 0.697444 0 
0.6375 0.672444 0 
0.6375 0.697444 0 
0.6625 0.522444 0 
0.6625 0.547444 0 
0.6875 0.522444 0 
0.6875 0.547444 0 
0.6625 0.572444 0 
0.6625 0.597444 0 
0.6875 0.572444 0 
0.6875 0.597444 0 
0.6625 0.622444 0 
0.6625 0.647444 0 
0.6875 0.622444 0 
0.6875 0.647444 0 
0.6625 0.672444 0 
0.6625 0.697444 0 
0.6875 0.672444 0 
0.6875 0.697444 0 
CELLS 64 128
1 0
1 1
1 2
1 3
1 4
1 5
1 6
1 7
1 8
1 9
1 10
1 11
1 12
1 13
1 14
1 15
1 16
1 17
1 18
1 19
1 20
1 21
1 22
1 23
1 24
1 25
1 26
1 27
1 28
1 29
1 30
1 31
1 32
1 33
1 34
1 35
1 36
1 37
1 38
1 39
1 40
1 41
1 42
1 43
1 44
1 45
1 46
1 47
1 48
1 49
1 50
1 51
1 52
1 53
1 54
1 55
1 56
1 57
1 58
1 59
1 60
1 61
1 62
1 63
CELL_TYPES 64
1
1
1
1
1
1
1
1
1
1
1
1
1
1
1
1
1
1
1
1
1
1
1
1
1
1
1
1
1
1
1
1
1
1
1
1
1
1
1
1
1
1
1
1
1
1
1
1
1
1
1
1
1
1
1
1
1
1
1
1
1
1
1
1
POINT_DATA 64
VECTORS displacement double
5.37278e-17 -0.0900558 0 
-1.37494e-18 -0.0900558 0 
2.16124e-17 -0.0900558 0 
7.25322e-19 -0.0900558 0 
-1.26498e-17 -0.0900558 0 
2.80268e-17 -0.0900558 0 
3.11134e-19 -0.0900558 0 
2.57458e-17 -0.0900558 0 
6.01956e-17 -0.0900558 0 
7.35644e-17 -0.0900558 0 
5.31093e-17 -0.0900558 0 
6.94739e-17 -0.0900558 0 
9.45224e-17 -0.0900558 0 
1.12758e-16 -0.0900558 0 
9.01383e-17 -0.0900558 0 
1.07683e-16 -0.0900558 0 
-4.47357e-18 -0.0900558 0 
-2.12302e-18 -0.0900558 0 
-2.453e-17 -0.0900558 0 
-9.91996e-18 -0.0900558 0 
7.03918e-18 -0.0900558 0 
2.51843e-17 -0.0900558 0 
7.53436e-18 -0.0900558 0 
2.63423e-17 -0.0900558 0 
4.82269e-17 -0.0900558 0 
6.55022e-17 -0.0900558 0 
4.55482e-17 -0.0900558 0 
6.16493e-17 -0.0900558 0 
8.50334e-17 -0.0900558 0 
1.02365e-16 -0.0900558 0 
7.92076e-17 -0.0900558 0 
9.68024e-17 -0.0900558 0 
-4.42478e-17 -0.0900558 0 
-1.67022e-17 -0.0900558 0 
-6.36269e-17 -0.0900558 0 
-2.24698e-17 -0.0900558 0 
8.0092e-18 -0.0900558 0 
2.64897e-17 -0.0900558 0 
8.46371e-18 -0.0900558 0 
2.56267e-17 -0.0900558 0 
4.23539e-17 -0.0900558 0 
5.7415e-17 -0.0900558 0 
3.86438e-17 -0.0900558 0 
5.27993e-17 -0.0900558 0 
7.30276e-17 -0.0900558 0 
9.04119e-17 -0.0900558 0 
6.64933e-17 -0.0900558 0 
8.31932e-17 -0.0900558 0 
-8.98777e-17 -0.0900558 0 
-2.37834e-17 -0.0900558 0 
-1.23e-16 -0.0900558 0 
-2.06428e-17 -0.0900558 0 
1.46756e-17 -0.0900558 0 
2.26605e-17 -0.0900558 0 
2.6645e-17 -0.0900558 0 
1.75912e-17 -0.0900558 0 
3.21641e-17 -0.0900558 0 
4.77591e-17 -0.0900558 0 
2.29145e-17 -0.0900558 0 
4.22946e-17 -0.0900558 0 
6.05541e-17 -0.0900558 0 
7.65771e-17 -0.0900558 0 
5.52101e-17 -0.0900558 0 
7.05636e-17 -0.0900558 0 
VECTORS velocity double
6.78109e-16 -1.32435 0 
4.05753e-15 -1.32435 0 
1.29985e-15 -1.32435 0 
2.92991e-15 -1.32435 0 
-3.38106e-15 -1.32435 0 
4.02188e-16 -1.32435 0 
-6.65184e-16 -1.32435 0 
4.46146e-16 -1.32435 0 
5.07187e-15 -1.32435 0 
8.35588e-15 -1.32435 0 
2.86777e-15 -1.32435 0 
5.13159e-15 -1.32435 0 
3.74011e-15 -1.32435 0 
-1.97868e-16 -1.32435 0 
4.87373e-15 -1.32435 0 
3.20047e-15 -1.32435 0 
6.25563e-16 -1.32435 0 
1.53971e-15 -1.32435 0 
-1.34475e-15 -1.32435 0 
-1.13066e-16 -1.32435 0 
5.22397e-16 -1.32435 0 
4.03863e-16 -1.32435 0 
1.81686e-16 -1.32435 0 
2.75339e-16 -1.32435 0 
1.40958e-15 -1.32435 0 
2.89151e-15 -1.32435 0 
6.973e-16 -1.32435 0 
1.63564e-15 -1.32435 0 
4.35128e-15 -1.32435 0 
4.43054e-15 -1.32435 0 
2.17275e-15 -1.32435 0 
3.49235e-15 -1.32435 0 
-2.8754e-15 -1.32435 0 
-1.45224e-15 -1.32435 0 
-3.96637e-15 -1.32435 0 
-2.47782e-15 -1.32435 0 
-3.39834e-16 -1.32435 0 
5.08205e-17 -1.32435 0 
-1.04216e-15 -1.32435 0 
-2.69692e-16 -1.32435 0 
1.23769e-16 -1.32435 0 
3.23588e-16 -1.32435 0 
-3.11011e-16 -1.32435 0 
-1.04464e-15 -1.32435 0 
7.78188e-17 -1.32435 0 
2.1919e-15 -1.32435 0 
-1.93353e-15 -1.32435 0 
5.29198e-16 -1.32435 0 
-3.6997e-15 -1.32435 0 
-2.96759e-15 -1.32435 0 
-2.0754e-15 -1.32435 0 
-2.92157e-15 -1.32435 0 
1.07163e-16 -1.32435 0 
-3.21581e-16 -1.32435 0 
3.10815e-15 -1.32435 0 
-1.04844e-16 -1.32435 0 
-1.55277e-15 -1.32435 0 
-3.44262e-15 -1.32435 0 
-3.60151e-15 -1.32435 0 
-6.87037e-15 -1.32435 0 
-2.50256e-15 -1.32435 0 
1.26621e-15 -1.32435 0 
-1.62927e-15 -1.32435 0 
4.40292e-15 -1.32435 0 
SCALARS mass double 1
LOOKUP_TABLE default
0.625
0.625
0.625
0.625
0.625
0.625
0.625
0.625
0.625
0.625
0.625
0.625
0.625
0.625
0.625
0.625
0.625
0.625
0.625
0.625
0.625
0.625
0.625
0.625
0.625
0.625
0.625
0.625
0.625
0.625
0.625
0.625
0.625
0.625
0.625
0.625
0.625
0.625
0.625
0.625
0.625
0.625
0.625
0.625
0.625
0.625
0.625
0.625
0.625
0.625
0.625
0.625
0.625
0.625
0.625
0.625
0.625
0.625
0.625
0.625
0.625
0.625
0.625
0.625
SCALARS volume double 1
LOOKUP_TABLE default
0.000625
0.000625
0.000625
0.000625
0.000625
0.000625
0.000625
0.000625
0.000625
0.000625
0.000625
0.000625
0.000625
0.000625
0.000625
0.000625
0.000625
0.000625
0.000625
0.000625
0.000625
0.000625
0.000625
0.000625
0.000625
0.000625
0.000625
0.000625
0.000625
0.000625
0.000625
0.000625
0.000625
0.000625
0.000625
0.000625
0.000625
0.000625
0.000625
0.000625
0.000625
0.000625
0.000625
0.000625
0.000625
0.000625
0.000625
0.000625
0.000625
0.000625
0.000625
0.000625
0.000625
0.000625
0.000625
0.000625
0.000625
0.000625
0.000625
0.000625
0.000625
0.000625
0.000625
0.000625
VECTORS momentum double
4.23818e-16 -0.827719 0 
2.53596e-15 -0.827719 0 
8.12406e-16 -0.827719 0 
1.83119e-15 -0.827719 0 
-2.11316e-15 -0.827719 0 
2.51368e-16 -0.827719 0 
-4.1574e-16 -0.827719 0 
2.78842e-16 -0.827719 0 
3.16992e-15 -0.827719 0 
5.22243e-15 -0.827719 0 
1.79236e-15 -0.827719 0 
3.20725e-15 -0.827719 0 
2.33757e-15 -0.827719 0 
-1.23667e-16 -0.827719 0 
3.04608e-15 -0.827719 0 
2.00029e-15 -0.827719 0 
3.90977e-16 -0.827719 0 
9.62319e-16 -0.827719 0 
-8.4047e-16 -0.827719 0 
-7.0666e-17 -0.827719 0 
3.26498e-16 -0.827719 0 
2.52415e-16 -0.827719 0 
1.13554e-16 -0.827719 0 
1.72087e-16 -0.827719 0 
8.80989e-16 -0.827719 0 
1.8072e-15 -0.827719 0 
4.35812e-16 -0.827719 0 
1.02227e-15 -0.827719 0 
2.71955e-15 -0.827719 0 
2.76909e-15 -0.827719 0 
1.35797e-15 -0.827719 0 
2.18272e-15 -0.827719 0 
-1.79712e-15 -0.827719 0 
-9.07651e-16 -0.827719 0 
-2.47898e-15 -0.827719 0 
-1.54864e-15 -0.827719 0 
-2.12396e-16 -0.827719 0 
3.17628e-17 -0.827719 0 
-6.51353e-16 -0.827719 0 
-1.68558e-16 -0.827719 0 
7.73554e-17 -0.827719 0 
2.02242e-16 -0.827719 0 
-1.94382e-16 -0.827719 0 
-6.52898e-16 -0.827719 0 
4.86368e-17 -0.827719 0 
1.36994e-15 -0.827719 0 
-1.20846e-15 -0.827719 0 
3.30749e-16 -0.827719 0 
-2.31232e-15 -0.827719 0 
-1.85475e-15 -0.827719 0 
-1.29713e-15 -0.827719 0 
-1.82598e-15 -0.827719 0 
6.69771e-17 -0.827719 0 
-2.00988e-16 -0.827719 0 
1.94259e-15 -0.827719 0 
-6.55277e-17 -0.827719 0 
-9.70483e-16 -0.827719 0 
-2.15164e-15 -0.827719 0 
-2.25095e-15 -0.827719 0 
-4.29398e-15 -0.827719 0 
-1.5641e-15 -0.827719 0 
7.91378e-16 -0.827719 0 
-1.01829e-15 -0.827719 0 
2.75183e-15 -0.827719 0 
VECTORS body_force double
0 -9.81 0 
0 -9.81 0 
0 -9.81 0 
0 -9.81 0 
0 -9.81 0 
0 -9.81 0 
0 -9.81 0 
0 -9.81 0 
0 -9.81 0 
0 -9.81 0 
0 -9.81 0 
0 -9.81 0 
0 -9.81 0 
0 -9.81 0 
0 -9.81 0 
0 -9.81 0 
0 -9.81 0 
0 -9.81 0 
0 -9.81 0 
0 -9.81 0 
0 -9.81 0 
0 -9.81 0 
0 -9.81 0 
0 -9.81 0 
0 -9.81 0 
0 -9.81 0 
0 -9.81 0 
0 -9.81 0 
0 -9.81 0 
0 -9.81 0 
0 -9.81 0 
0 -9.81 0 
0 -9.81 0 
0 -9.81 0 
0 -9.81 0 
0 -9.81 0 
0 -9.81 0 
0 -9.81 0 
0 -9.81 0 
0 -9.81 0 
0 -9.81 0 
0 -9.81 0 
0 -9.81 0 
0 -9.81 0 
0 -9.81 0 
0 -9.81 0 
0 -9.81 0 
0 -9.81 0 
0 -9.81 0 
0 -9.81 0 
0 -9.81 0 
0 -9.81 0 
0 -9.81 0 
0 -9.81 0 
0 -9.81 0 
0 -9.81 0 
0 -9.81 0 
0 -9.81 0 
0 -9.81 0 
0 -9.81 0 
0 -9.81 0 
0 -9.81 0 
0 -9.81 0 
0 -9.81 0 
TENSORS cauchy_stress double
-1.44215e-10 -2.92435e-11 0
-2.92435e-11 -7.11181e-12 0
0 0 0

1.04598e-10 -8.72147e-11 0
-8.72147e-11 2.22521e-10 0
0 0 0

-1.79806e-10 2.35087e-11 0
2.35087e-11 -9.01582e-11 0
0 0 0

5.37079e-11 -2.40117e-11 0
-2.40117e-11 1.03777e-10 0
0 0 0

2.19745e-11 3.23378e-11 0
3.23378e-11 -8.16588e-11 0
0 0 0

-9.99572e-11 8.18204e-11 0
8.18204e-11 -2.09839e-10 0
0 0 0

-1.87462e-11 1.39014e-11 0
1.39014e-11 -1.76674e-10 0
0 0 0

-9.94368e-11 4.98332e-11 0
4.98332e-11 -2.08625e-10 0
0 0 0

6.17446e-11 -7.82234e-12 0
-7.82234e-12 2.1675e-10 0
0 0 0

7.74203e-11 -8.94725e-12 0
-8.94725e-12 2.22601e-10 0
0 0 0

7.91998e-11 8.05089e-12 0
8.05089e-12 2.57479e-10 0
0 0 0

7.8096e-11 2.03496e-13 0
2.03496e-13 2.24178e-10 0
0 0 0

-6.14067e-11 1.61164e-11 0
1.61164e-11 -9.83177e-11 0
0 0 0

-9.26384e-11 -8.29915e-12 0
-8.29915e-12 -1.64105e-10 0
0 0 0

-5.57642e-11 1.08923e-11 0
1.08923e-11 -8.51518e-11 0
0 0 0

-9.37065e-11 -4.4184e-12 0
-4.4184e-12 -1.66597e-10 0
0 0 0

-1.22189e-10 -2.97491e-11 0
-2.97491e-11 -7.94011e-11 0
0 0 0

-2.30372e-11 -1.67027e-11 0
-1.67027e-11 2.62153e-11 0
0 0 0

-1.21824e-10 -1.05494e-11 0
-1.05494e-11 -7.85492e-11 0
0 0 0

-1.18284e-12 3.54269e-12 0
3.54269e-12 7.72087e-11 0
0 0 0

-9.72029e-11 1.25228e-11 0
1.25228e-11 -2.31885e-10 0
0 0 0

-8.47433e-11 3.32132e-11 0
3.32132e-11 -2.09611e-10 0
0 0 0

-7.30351e-11 1.86243e-11 0
1.86243e-11 -1.75494e-10 0
0 0 0

-1.03072e-10 2.00927e-11 0
2.00927e-11 -2.52377e-10 0
0 0 0

8.87492e-11 5.29395e-12 0
5.29395e-12 2.34555e-10 0
0 0 0

6.79343e-11 -6.15969e-12 0
-6.15969e-12 1.9803e-10 0
0 0 0

8.07312e-11 1.48573e-12 0
1.48573e-12 2.15846e-10 0
0 0 0

7.65636e-11 -5.92308e-12 0
-5.92308e-12 2.18165e-10 0
0 0 0

-8.00233e-11 -2.83134e-13 0
-2.83134e-13 -1.2697e-10 0
0 0 0

-1.09196e-10 -5.19355e-12 0
-5.19355e-12 -1.97743e-10 0
0 0 0

-6.4111e-11 -2.42775e-12 0
-2.42775e-12 -8.98408e-11 0
0 0 0

-9.71561e-11 -5.5624e-12 0
-5.5624e-12 -1.69649e-10 0
0 0 0

-1.07346e-10 1.64315e-11 0
1.64315e-11 -5.17135e-11 0
0 0 0

8.62029e-12 3.97185e-13 0
3.97185e-13 7.92689e-11 0
0 0 0

-1.27633e-10 3.87405e-11 0
3.87405e-11 -9.90509e-11 0
0 0 0

-1.27664e-11 2.17583e-11 0
2.17583e-11 2.93665e-11 0
0 0 0

-8.06913e-11 -2.06424e-11 0
-2.06424e-11 -1.92941e-10 0
0 0 0

-1.07299e-10 -2.49608e-11 0
-2.49608e-11 -2.41513e-10 0
0 0 0

-9.15936e-11 -1.78396e-11 0
-1.78396e-11 -2.1838e-10 0
0 0 0

-8.60595e-11 -3.62562e-11 0
-3.62562e-11 -1.91954e-10 0
0 0 0

7.8318e-11 -1.17882e-11 0
-1.17882e-11 2.20794e-10 0
0 0 0

7.43585e-11 -2.21056e-12 0
-2.21056e-12 2.20844e-10 0
0 0 0

7.89661e-11 -1.37016e-11 0
-1.37016e-11 2.22306e-10 0
0 0 0

7.29397e-11 -1.41126e-12 0
-1.41126e-12 2.17533e-10 0
0 0 0

-6.92508e-11 -6.82546e-12 0
-6.82546e-12 -9.45667e-11 0
0 0 0

-1.17767e-10 -4.16593e-12 0
-4.16593e-12 -2.00751e-10 0
0 0 0

-7.09029e-11 -7.44906e-12 0
-7.44906e-12 -9.84217e-11 0
0 0 0

-1.09234e-10 3.1293e-12 0
3.1293e-12 -1.8084e-10 0
0 0 0

-1.76965e-10 -1.61441e-11 0
-1.61441e-11 -7.32007e-11 0
0 0 0

5.12486e-11 3.15666e-11 0
3.15666e-11 8.73692e-11 0
0 0 0

-1.47619e-10 2.80884e-11 0
2.80884e-11 -4.72688e-12 0
0 0 0

1.20517e-10 9.20735e-11 0
9.20735e-11 2.48995e-10 0
0 0 0

-2.38928e-11 -1.60318e-11 0
-1.60318e-11 -1.78513e-10 0
0 0 0

-1.12281e-10 -4.62946e-11 0
-4.62946e-11 -2.09997e-10 0
0 0 0

1.95921e-11 -3.96639e-11 0
-3.96639e-11 -7.70479e-11 0
0 0 0

-1.1236e-10 -8.30801e-11 0
-8.30801e-11 -2.1018e-10 0
0 0 0

7.26418e-11 -5.65331e-12 0
-5.65331e-12 2.64364e-10 0
0 0 0

7.19464e-11 1.3733e-12 0
1.3733e-12 2.23921e-10 0
0 0 0

6.44648e-11 7.74525e-12 0
7.74525e-12 2.45285e-10 0
0 0 0

8.55541e-11 1.27639e-11 0
1.27639e-11 2.55673e-10 0
0 0 0

-6.39376e-11 -6.60209e-12 0
-6.60209e-12 -9.43774e-11 0
0 0 0

-1.01709e-10 4.86795e-12 0
4.86795e-12 -1.75645e-10 0
0 0 0

-5.94416e-11 -5.99527e-12 0
-5.99527e-12 -8.38867e-11 0
0 0 0

-9.80102e-11 7.28115e-12 0
7.28115e-12 -1.67014e-10 0
0 0 0

TENSORS velocity_gradient double
4.27041e-14 9.91172e-14 0
2.84217e-14 -1.63425e-13 0
0 0 0

-1.93028e-14 4.58153e-14 0
5.39568e-14 -2.88658e-15 0
0 0 0

4.27041e-14 2.80548e-14 0
1.42109e-14 -1.49214e-13 0
0 0 0

-1.93028e-14 1.09748e-14 0
4.44089e-14 2.30926e-14 0
0 0 0

-1.36446e-14 -3.3645e-14 0
1.42109e-14 2.4869e-13 0
0 0 0

1.79686e-16 2.33137e-14 0
-2.26485e-14 -1.07914e-13 0
0 0 0

-1.36446e-14 -1.44873e-14 0
1.42109e-14 2.13163e-13 0
0 0 0

1.79686e-16 2.11381e-14 0
-1.77636e-14 -1.3145e-13 0
0 0 0

-2.5848e-14 1.08225e-13 0
-1.42109e-14 -4.26326e-14 0
0 0 0

-4.94997e-14 2.59589e-14 0
-3.93019e-14 1.73861e-13 0
0 0 0

-2.5848e-14 7.42471e-14 0
-2.13163e-14 -4.9738e-14 0
0 0 0

-4.94997e-14 3.32872e-14 0
-2.57572e-14 1.73195e-13 0
0 0 0

4.01217e-15 -9.66806e-14 0
-4.08562e-14 -5.50671e-14 0
0 0 0

6.7302e-14 -6.24269e-14 0
-5.04041e-14 -1.42775e-13 0
0 0 0

4.01217e-15 -2.77742e-14 0
-4.61853e-14 -6.03961e-14 0
0 0 0

6.7302e-14 -1.59869e-14 0
-6.21725e-14 -1.40332e-13 0
0 0 0

-4.95695e-14 -1.11055e-15 0
1.77636e-14 -1.3145e-13 0
0 0 0

-3.69561e-14 -3.15942e-16 0
-2.88658e-15 -9.99201e-15 0
0 0 0

-4.95695e-14 1.1621e-14 0
2.84217e-14 -1.56319e-13 0
0 0 0

-3.69561e-14 1.19429e-14 0
-1.42109e-14 -4.26326e-14 0
0 0 0

-2.52257e-14 8.68623e-16 0
-2.13163e-14 1.7053e-13 0
0 0 0

-1.68954e-14 1.93796e-14 0
-3.86358e-14 -1.38112e-13 0
0 0 0

-2.52257e-14 1.24229e-14 0
-2.13163e-14 1.63425e-13 0
0 0 0

-1.68954e-14 1.80381e-14 0
-3.01981e-14 -1.65201e-13 0
0 0 0

-3.26551e-14 4.69749e-14 0
-5.50671e-14 -5.50671e-14 0
0 0 0

-5.0281e-14 3.25483e-14 0
-4.95159e-14 1.49436e-13 0
0 0 0

-3.26551e-14 2.64091e-14 0
-5.32907e-14 -5.32907e-14 0
0 0 0

-5.0281e-14 2.37424e-14 0
-6.30607e-14 1.64313e-13 0
0 0 0

-4.59385e-14 1.10417e-14 0
-4.44089e-14 -5.86198e-14 0
0 0 0

-3.74448e-14 1.11324e-14 0
-5.81757e-14 -1.2923e-13 0
0 0 0

-4.59385e-14 1.9767e-14 0
-6.03961e-14 -7.4607e-14 0
0 0 0

-3.74448e-14 1.89311e-14 0
-3.73035e-14 -1.01252e-13 0
0 0 0

-3.50165e-14 2.16442e-14 0
-2.13163e-14 -1.63425e-13 0
0 0 0

-2.76924e-14 2.17483e-14 0
-1.17684e-14 -4.01901e-14 0
0 0 0

-3.50165e-14 2.8959e-14 0
-1.06581e-14 -1.81188e-13 0
0 0 0

-2.76924e-14 2.91001e-14 0
-9.76996e-15 -3.81917e-14 0
0 0 0

-2.02993e-14 2.19034e-14 0
-1.42109e-14 1.49214e-13 0
0 0 0

-1.57046e-14 1.54463e-14 0
8.88178e-16 -1.76748e-13 0
0 0 0

-2.02993e-14 2.93103e-14 0
0 1.42109e-13 0
0 0 0

-1.57046e-14 1.16042e-14 0
-3.55271e-15 -1.74083e-13 0
0 0 0

-3.21239e-14 5.82033e-15 0
1.59872e-14 -4.08562e-14 0
0 0 0

-5.02283e-14 1.40483e-14 0
2.42029e-14 1.66311e-13 0
0 0 0

-3.21239e-14 -1.47913e-14 0
1.42109e-14 -2.84217e-14 0
0 0 0

-5.02283e-14 3.46587e-15 0
2.93099e-14 1.92735e-13 0
0 0 0

-4.95972e-14 2.63141e-14 0
8.88178e-15 -6.21725e-14 0
0 0 0

-4.6002e-14 2.34676e-14 0
1.77636e-15 -1.1191e-13 0
0 0 0

-4.95972e-14 3.0683e-14 0
1.06581e-14 -7.4607e-14 0
0 0 0

-4.6002e-14 2.47418e-14 0
2.66454e-15 -1.39444e-13 0
0 0 0

6.41735e-14 -4.08074e-15 0
-1.59872e-14 -1.65201e-13 0
0 0 0

-4.20348e-16 1.36798e-14 0
-4.41869e-14 -4.41869e-14 0
0 0 0

6.41735e-14 -7.74751e-14 0
-2.4869e-14 -2.0961e-13 0
0 0 0

-4.20348e-16 -2.45125e-14 0
-4.26326e-14 -2.84217e-14 0
0 0 0

7.45764e-16 4.01566e-14 0
-1.24345e-14 1.65201e-13 0
0 0 0

9.62452e-15 6.01231e-15 0
2.9976e-14 -1.68976e-13 0
0 0 0

7.45764e-16 5.44422e-14 0
0 2.55795e-13 0
0 0 0

9.62452e-15 -1.32942e-15 0
3.9968e-14 -1.30562e-13 0
0 0 0

-2.18981e-14 -4.48886e-14 0
4.08562e-14 -3.01981e-14 0
0 0 0

-5.09361e-14 -5.2712e-16 0
4.21885e-15 1.8896e-13 0
0 0 0

-2.18981e-14 -8.44714e-14 0
2.84217e-14 -5.68434e-14 0
0 0 0

-5.09361e-14 2.0693e-15 0
2.30926e-14 1.5099e-13 0
0 0 0

-1.18032e-15 6.56051e-14 0
3.55271e-15 -8.17124e-14 0
0 0 0

5.89594e-14 4.74451e-14 0
-8.21565e-15 -1.50324e-13 0
0 0 0

-1.18032e-15 1.31081e-13 0
1.77636e-14 -9.59233e-14 0
0 0 0

5.89594e-14 9.15774e-14 0
1.77636e-14 -1.52767e-13 0
0 0 0

SCALARS active double 1
LOOKUP_TABLE default
1
1
1
1
1
1
1
1
1
1
1
1
1
1
1
1
1
1
1
1
1
1
1
1
1
1
1
1
1
1
1
1
1
1
1
1
1
1
1
1
1
1
1
1
1
1
1
1
1
1
1
1
1
1
1
1
1
1
1
1
1
1
1
1
SCALARS extent double 1
LOOKUP_TABLE default
0.0125
0.0125
0.0125
0.0125
0.0125
0.0125
0.0125
0.0125
0.0125
0.0125
0.0125
0.0125
0.0125
0.0125
0.0125
0.0125
0.0125
0.0125
0.0125
0.0125
0.0125
0.0125
0.0125
0.0125
0.0125
0.0125
0.0125
0.0125
0.0125
0.0125
0.0125
0.0125
0.0125
0.0125
0.0125
0.0125
0.0125
0.0125
0.0125
0.0125
0.0125
0.0125
0.0125
0.0125
0.0125
0.0125
0.0125
0.0125
0.0125
0.0125
0.0125
0.0125
0.0125
0.0125
0.0125
0.0125
0.0125
0.0125
0.0125
0.0125
0.0125
0.0125
0.0125
0.0125
SCALARS pressure double 1
LOOKUP_TABLE default
7.56633e-11
-1.6356e-10
1.34982e-10
-7.87425e-11
2.98422e-11
1.54898e-10
9.77099e-11
1.54031e-10
-1.39247e-10
-1.50011e-10
-1.68339e-10
-1.51137e-10
7.98622e-11
1.28372e-10
7.0458e-11
1.30152e-10
1.00795e-10
-1.58906e-12
1.00187e-10
-3.80129e-11
1.64544e-10
1.47177e-10
1.24265e-10
1.77724e-10
-1.61652e-10
-1.32982e-10
-1.48289e-10
-1.47364e-10
1.03496e-10
1.5347e-10
7.69759e-11
1.33403e-10
7.95296e-11
-4.39446e-11
1.13342e-10
-8.30002e-12
1.36816e-10
1.74406e-10
1.54987e-10
1.39007e-10
-1.49556e-10
-1.47601e-10
-1.50636e-10
-1.45237e-10
8.19088e-11
1.59259e-10
8.46623e-11
1.45037e-10
1.25083e-10
-6.93089e-11
7.61729e-11
-1.84756e-10
1.01203e-10
1.61139e-10
2.87279e-11
1.6127e-10
-1.68503e-10
-1.47934e-10
-1.54875e-10
-1.70613e-10
7.91575e-11
1.38677e-10
7.16642e-11
1.32512e-10
SCALARS density double 1
LOOKUP_TABLE default
1000
1000
1000
1000
1000
1000
1000
1000
1000
1000
1000
1000
1000
1000
1000
1000
1000
1000
1000
1000
1000
1000
1000
1000
1000
1000
1000
1000
1000
1000
1000
1000
1000
1000
1000
1000
1000
1000
1000
1000
1000
1000
1000
1000
1000
1000
1000
1000
1000
1000
1000
1000
1000
1000
1000
1000
1000
1000
1000
1000
1000
1000
1000
1000
