# vtk DataFile Version 3.0
Frame: 29, Time: 0.5
ASCII
DATASET UNSTRUCTURED_GRID
POINTS 64 double
0.21757 0.115779 0 
0.218679 0.140228 0 
0.241995 0.114337 0 
0.243166 0.139003 0 
0.217788 0.164597 0 
0.219862 0.190092 0 
0.2429 0.162908 0 
0.244736 0.187765 0 
0.219222 0.215041 0 
0.219062 0.240405 0 
0.245325 0.213932 0 
0.244228 0.239053 0 
0.222373 0.266789 0 
0.223034 0.290735 0 
0.248357 0.265678 0 
0.249178 0.289465 0 
0.268183 0.113939 0 
0.26825 0.138878 0 
0.292663 0.111342 0 
0.292095 0.135836 0 
0.267318 0.16308 0 
0.267964 0.188115 0 
0.291859 0.160155 0 
0.292121 0.185561 0 
0.268854 0.215118 0 
0.267447 0.239471 0 
0.294385 0.21316 0 
0.294342 0.237007 0 
0.272137 0.26443 0 
0.275045 0.290289 0 
0.29846 0.262178 0 
0.299625 0.287507 0 
0.318402 0.108176 0 
0.315637 0.133746 0 
0.345661 0.108888 0 
0.340555 0.134064 0 
0.315432 0.15879 0 
0.315355 0.184213 0 
0.340566 0.159021 0 
0.340308 0.184297 0 
0.318253 0.210626 0 
0.319653 0.234615 0 
0.342864 0.209697 0 
0.345021 0.233598 0 
0.323594 0.261669 0 
0.324555 0.286135 0 
0.348835 0.259432 0 
0.35012 0.284545 0 
0.369935 0.108043 0 
0.363789 0.134114 0 
0.394536 0.107355 0 
0.3891 0.132895 0 
0.36565 0.158393 0 
0.36577 0.182638 0 
0.392918 0.155595 0 
0.392078 0.180373 0 
0.367269 0.206533 0 
0.370454 0.230988 0 
0.392622 0.204659 0 
0.396533 0.229348 0 
0.372921 0.257288 0 
0.374538 0.281844 0 
0.397438 0.25656 0 
0.401487 0.280546 0 
CELLS 64 128
1 0
1 1
1 2
1 3
1 4
1 5
1 6
1 7
1 8
1 9
1 10
1 11
1 12
1 13
1 14
1 15
1 16
1 17
1 18
1 19
1 20
1 21
1 22
1 23
1 24
1 25
1 26
1 27
1 28
1 29
1 30
1 31
1 32
1 33
1 34
1 35
1 36
1 37
1 38
1 39
1 40
1 41
1 42
1 43
1 44
1 45
1 46
1 47
1 48
1 49
1 50
1 51
1 52
1 53
1 54
1 55
1 56
1 57
1 58
1 59
1 60
1 61
1 62
1 63
CELL_TYPES 64
1
1
1
1
1
1
1
1
1
1
1
1
1
1
1
1
1
1
1
1
1
1
1
1
1
1
1
1
1
1
1
1
1
1
1
1
1
1
1
1
1
1
1
1
1
1
1
1
1
1
1
1
1
1
1
1
1
1
1
1
1
1
1
1
POINT_DATA 64
VECTORS displacement double
-0.19493 -0.296721 0 
-0.193821 -0.297272 0 
-0.195505 -0.298163 0 
-0.194334 -0.298497 0 
-0.194712 -0.297903 0 
-0.192638 -0.297408 0 
-0.1946 -0.299592 0 
-0.192764 -0.299735 0 
-0.193278 -0.297459 0 
-0.193438 -0.297095 0 
-0.192175 -0.298568 0 
-0.193272 -0.298447 0 
-0.190127 -0.295711 0 
-0.189466 -0.296765 0 
-0.189143 -0.296822 0 
-0.188322 -0.298035 0 
-0.194317 -0.298561 0 
-0.19425 -0.298622 0 
-0.194837 -0.301158 0 
-0.195405 -0.301664 0 
-0.195182 -0.29942 0 
-0.194536 -0.299385 0 
-0.195641 -0.302345 0 
-0.195379 -0.301939 0 
-0.193646 -0.297382 0 
-0.195053 -0.298029 0 
-0.193115 -0.29934 0 
-0.193158 -0.300493 0 
-0.190363 -0.29807 0 
-0.187455 -0.297211 0 
-0.18904 -0.300322 0 
-0.187875 -0.299993 0 
-0.194098 -0.304324 0 
-0.196863 -0.303754 0 
-0.191839 -0.303612 0 
-0.196945 -0.303436 0 
-0.197068 -0.30371 0 
-0.197145 -0.303287 0 
-0.196934 -0.303479 0 
-0.197192 -0.303203 0 
-0.194247 -0.301874 0 
-0.192847 -0.302885 0 
-0.194636 -0.302803 0 
-0.192479 -0.303902 0 
-0.188906 -0.300831 0 
-0.187945 -0.301365 0 
-0.188665 -0.303068 0 
-0.18738 -0.302955 0 
-0.192565 -0.304457 0 
-0.198711 -0.303386 0 
-0.192964 -0.305145 0 
-0.1984 -0.304605 0 
-0.19685 -0.304107 0 
-0.19673 -0.304862 0 
-0.194582 -0.306905 0 
-0.195422 -0.307127 0 
-0.195231 -0.305967 0 
-0.192046 -0.306512 0 
-0.194878 -0.307841 0 
-0.190967 -0.308152 0 
-0.189579 -0.305212 0 
-0.187962 -0.305656 0 
-0.190062 -0.30594 0 
-0.186013 -0.306954 0 
VECTORS velocity double
-0.882873 -0.300265 0 
-0.6905 0.0326979 0 
-0.901642 -0.0602903 0 
-1.13182 -0.154639 0 
-1.00132 -0.636773 0 
-0.926911 -0.249703 0 
-0.963441 -0.40483 0 
-0.727929 0.00627994 0 
-1.06964 -0.502927 0 
-1.45721 -0.780749 0 
-0.812043 -0.297476 0 
-0.853649 -0.616252 0 
-0.969363 -0.341787 0 
-1.37536 -0.78593 0 
-0.799717 0.214908 0 
-1.52276 -0.256585 0 
-0.647153 -0.465965 0 
-0.79664 0.00742005 0 
-1.09671 -0.140006 0 
-0.797703 0.233922 0 
-0.769717 -0.227893 0 
-0.695752 -0.0246092 0 
-0.784282 -0.232014 0 
-0.963756 -0.0302642 0 
-0.955876 -0.117048 0 
-1.14569 -0.30959 0 
-0.957338 0.0537778 0 
-1.14573 -0.276081 0 
-1.30492 0.178431 0 
-1.49688 -0.329787 0 
-1.24502 0.465064 0 
-1.31336 -0.226509 0 
-0.743826 -0.211187 0 
-0.960185 -0.224013 0 
-1.0241 -0.539628 0 
-1.02367 -0.161609 0 
-0.952915 -0.584145 0 
-0.951286 -0.068619 0 
-1.035 -0.596672 0 
-0.982287 0.0385947 0 
-1.19845 -0.216846 0 
-1.09294 -0.404083 0 
-1.5286 -0.143678 0 
-1.26814 -0.266863 0 
-1.28443 0.193205 0 
-1.24524 -0.0904774 0 
-1.15381 0.17029 0 
-1.24115 0.0913182 0 
-1.2254 -0.547495 0 
-1.06522 0.0265521 0 
-1.28407 -0.401382 0 
-0.996156 -0.471597 0 
-1.4331 -0.561725 0 
-0.971404 -0.191644 0 
-1.11556 -0.24524 0 
-1.0043 0.311489 0 
-1.23695 -0.286755 0 
-1.18108 -0.649804 0 
-1.04479 -0.0604483 0 
-1.34167 -0.155574 0 
-1.1804 -0.109914 0 
-1.03072 -0.425223 0 
-1.42096 0.0683637 0 
-1.07658 -0.144254 0 
SCALARS mass double 1
LOOKUP_TABLE default
0.625
0.625
0.625
0.625
0.625
0.625
0.625
0.625
0.625
0.625
0.625
0.625
0.625
0.625
0.625
0.625
0.625
0.625
0.625
0.625
0.625
0.625
0.625
0.625
0.625
0.625
0.625
0.625
0.625
0.625
0.625
0.625
0.625
0.625
0.625
0.625
0.625
0.625
0.625
0.625
0.625
0.625
0.625
0.625
0.625
0.625
0.625
0.625
0.625
0.625
0.625
0.625
0.625
0.625
0.625
0.625
0.625
0.625
0.625
0.625
0.625
0.625
0.625
0.625
SCALARS volume double 1
LOOKUP_TABLE default
0.000640387
0.000612082
0.000615593
0.000638781
0.000629169
0.000647902
0.000609292
0.000610409
0.000632504
0.00063168
0.000612985
0.000611964
0.000654796
0.00061538
0.000643496
0.000595632
0.000652644
0.000643072
0.000614032
0.000608842
0.000607344
0.000663425
0.00059489
0.000638127
0.000661086
0.000591692
0.000640326
0.000625198
0.000673808
0.000586914
0.000645716
0.000586502
0.000660074
0.000603598
0.000606302
0.000604721
0.000620127
0.000635128
0.000627085
0.000625498
0.000638853
0.000596475
0.000673234
0.000607661
0.000668865
0.000576155
0.000679372
0.000592236
0.000627658
0.000616158
0.000609421
0.000646899
0.000633171
0.000639018
0.000616242
0.000622297
0.000608182
0.000633708
0.000619864
0.000648596
0.000628335
0.000628215
0.000629613
0.000614822
VECTORS momentum double
-0.551796 -0.187666 0 
-0.431562 0.0204362 0 
-0.563526 -0.0376814 0 
-0.707386 -0.0966491 0 
-0.625827 -0.397983 0 
-0.579319 -0.156065 0 
-0.602151 -0.253019 0 
-0.454956 0.00392496 0 
-0.668522 -0.31433 0 
-0.910758 -0.487968 0 
-0.507527 -0.185923 0 
-0.533531 -0.385158 0 
-0.605852 -0.213617 0 
-0.859602 -0.491206 0 
-0.499823 0.134317 0 
-0.951724 -0.160366 0 
-0.40447 -0.291228 0 
-0.4979 0.00463753 0 
-0.685444 -0.0875037 0 
-0.498564 0.146201 0 
-0.481073 -0.142433 0 
-0.434845 -0.0153807 0 
-0.490176 -0.145009 0 
-0.602347 -0.0189152 0 
-0.597422 -0.073155 0 
-0.716059 -0.193494 0 
-0.598336 0.0336111 0 
-0.716084 -0.172551 0 
-0.815575 0.11152 0 
-0.935551 -0.206117 0 
-0.778136 0.290665 0 
-0.820853 -0.141568 0 
-0.464891 -0.131992 0 
-0.600115 -0.140008 0 
-0.640064 -0.337268 0 
-0.639792 -0.101005 0 
-0.595572 -0.365091 0 
-0.594554 -0.0428869 0 
-0.646873 -0.37292 0 
-0.613929 0.0241217 0 
-0.749032 -0.135529 0 
-0.683085 -0.252552 0 
-0.955372 -0.0897989 0 
-0.792587 -0.166789 0 
-0.802769 0.120753 0 
-0.778273 -0.0565484 0 
-0.721132 0.106431 0 
-0.775719 0.0570739 0 
-0.765873 -0.342184 0 
-0.66576 0.016595 0 
-0.802541 -0.250864 0 
-0.622598 -0.294748 0 
-0.895686 -0.351078 0 
-0.607128 -0.119778 0 
-0.697222 -0.153275 0 
-0.627687 0.19468 0 
-0.773092 -0.179222 0 
-0.738175 -0.406128 0 
-0.652994 -0.0377802 0 
-0.838542 -0.0972337 0 
-0.737749 -0.0686963 0 
-0.644199 -0.265764 0 
-0.888101 0.0427273 0 
-0.672864 -0.0901588 0 
VECTORS body_force double
0 -9.81 0 
0 -9.81 0 
0 -9.81 0 
0 -9.81 0 
0 -9.81 0 
0 -9.81 0 
0 -9.81 0 
0 -9.81 0 
0 -9.81 0 
0 -9.81 0 
0 -9.81 0 
0 -9.81 0 
0 -9.81 0 
0 -9.81 0 
0 -9.81 0 
0 -9.81 0 
0 -9.81 0 
0 -9.81 0 
0 -9.81 0 
0 -9.81 0 
0 -9.81 0 
0 -9.81 0 
0 -9.81 0 
0 -9.81 0 
0 -9.81 0 
0 -9.81 0 
0 -9.81 0 
0 -9.81 0 
0 -9.81 0 
0 -9.81 0 
0 -9.81 0 
0 -9.81 0 
0 -9.81 0 
0 -9.81 0 
0 -9.81 0 
0 -9.81 0 
0 -9.81 0 
0 -9.81 0 
0 -9.81 0 
0 -9.81 0 
0 -9.81 0 
0 -9.81 0 
0 -9.81 0 
0 -9.81 0 
0 -9.81 0 
0 -9.81 0 
0 -9.81 0 
0 -9.81 0 
0 -9.81 0 
0 -9.81 0 
0 -9.81 0 
0 -9.81 0 
0 -9.81 0 
0 -9.81 0 
0 -9.81 0 
0 -9.81 0 
0 -9.81 0 
0 -9.81 0 
0 -9.81 0 
0 -9.81 0 
0 -9.81 0 
0 -9.81 0 
0 -9.81 0 
0 -9.81 0 
TENSORS cauchy_stress double
3980.05 -894.726 0
-894.726 697.178 0
0 0 0

-2757.72 -2714.82 0
-2714.82 -1258.58 0
0 0 0

-345.529 899.33 0
899.33 -2570.83 0
0 0 0

2911.03 -992.544 0
-992.544 1283.3 0
0 0 0

-1171.45 2299.31 0
2299.31 2449.84 0
0 0 0

1712.11 2212.59 0
2212.59 5208.65 0
0 0 0

78.4297 -2382.69 0
-2382.69 -4973.51 0
0 0 0

-4813.65 -260.433 0
-260.433 270.953 0
0 0 0

2626.2 -552.034 0
-552.034 -331.075 0
0 0 0

-583.118 3574.66 0
3574.66 2627.6 0
0 0 0

-4025.34 -1672.45 0
-1672.45 292.359 0
0 0 0

-3567.66 3892.76 0
3892.76 -485.907 0
0 0 0

5894.36 1123.86 0
1123.86 3061.84 0
0 0 0

-2213.88 2986.78 0
2986.78 -769.214 0
0 0 0

-741.353 2441.89 0
2441.89 6349.81 0
0 0 0

2486.26 -1654.97 0
-1654.97 -11741.9 0
0 0 0

6614.51 530.847 0
530.847 1708.62 0
0 0 0

854.007 820.902 0
820.902 4627.74 0
0 0 0

304.246 -3649.66 0
-3649.66 -3709.08 0
0 0 0

-4081.94 -2105.82 0
-2105.82 -955.2 0
0 0 0

-1255.8 1012.54 0
1012.54 -4255.12 0
0 0 0

4750.12 4204.34 0
4204.34 6723.89 0
0 0 0

-4529.33 -5585.72 0
-5585.72 -4966.04 0
0 0 0

-2660.81 401.422 0
401.422 6658.06 0
0 0 0

4647.25 1538.64 0
1538.64 6147.38 0
0 0 0

-2560.29 -1303.44 0
-1303.44 -7971.41 0
0 0 0

-1714.5 816.511 0
816.511 6373.16 0
0 0 0

4194.04 -4366.91 0
-4366.91 -4133.01 0
0 0 0

8175.03 3494.2 0
3494.2 6285.18 0
0 0 0

-2868.51 -3533.78 0
-3533.78 -9222.58 0
0 0 0

3250.72 2462.63 0
2462.63 3019.95 0
0 0 0

-6884.06 -1902.89 0
-1902.89 -5342.13 0
0 0 0

8116.38 -589.467 0
-589.467 2383.81 0
0 0 0

-6301.87 2862.35 0
2862.35 -398.82 0
0 0 0

-1269.63 -3012.84 0
-3012.84 -4571.37 0
0 0 0

-5143.07 -1279.67 0
-1279.67 -1200.25 0
0 0 0

-1223.73 -1080.47 0
-1080.47 -281.644 0
0 0 0

354.155 3723.95 0
3723.95 2737.05 0
0 0 0

704.156 -4739.29 0
-4739.29 -63.5395 0
0 0 0

-167.957 676.403 0
676.403 320.98 0
0 0 0

-538.44 5801.7 0
5801.7 4754.21 0
0 0 0

-2825.43 554.892 0
554.892 -6158.22 0
0 0 0

4976.17 2628.63 0
2628.63 9320.36 0
0 0 0

3161.16 -5153.03 0
-5153.03 -8571.75 0
0 0 0

2621.38 7260.05 0
7260.05 10423.1 0
0 0 0

919.765 -3712.26 0
-3712.26 -16568.8 0
0 0 0

5155.49 2909.87 0
2909.87 10886.3 0
0 0 0

-4931.42 -6449.05 0
-6449.05 -5423.55 0
0 0 0

-430.419 -251.8 0
-251.8 1246.57 0
0 0 0

-4787.57 -112.452 0
-112.452 2047.43 0
0 0 0

-932.143 -695.259 0
-695.259 -3922.12 0
0 0 0

3902.8 -897.264 0
-897.264 2719.9 0
0 0 0

4428.9 -2785.13 0
-2785.13 -1931.1 0
0 0 0

5028.48 -1813.51 0
-1813.51 -762.774 0
0 0 0

644.821 -1186.73 0
-1186.73 -3358.6 0
0 0 0

-341.864 -340.286 0
-340.286 -491.537 0
0 0 0

-3406.94 2277.63 0
2277.63 -1838.85 0
0 0 0

2892.58 -285.431 0
-285.431 -231.737 0
0 0 0

-811.885 937.082 0
937.082 -775.023 0
0 0 0

3972.86 -1047.38 0
-1047.38 3153.83 0
0 0 0

-2409.13 3889.35 0
3889.35 3432.45 0
0 0 0

1571.4 -2542.73 0
-2542.73 -584.713 0
0 0 0

-4096.25 -855.181 0
-855.181 5510.46 0
0 0 0

658.434 2591.74 0
2591.74 -3816.04 0
0 0 0

TENSORS velocity_gradient double
-0.237181 0.124867 0
0.85578 -0.332356 0
0 0 0

-0.964879 0.0919223 0
0.844744 -0.332855 0
0 0 0

-0.193637 -0.602051 0
0.85644 -0.34338 0
0 0 0

-0.902845 -0.628443 0
0.845396 -0.341371 0
0 0 0

0.422798 -2.65752 0
1.8761 -2.55286 0
0 0 0

3.29635 -2.41745 0
3.65636 -2.40413 0
0 0 0

0.225666 0.162269 0
1.75384 -0.804842 0
0 0 0

2.27319 0.205948 0
3.24642 -0.720789 0
0 0 0

3.9885 -2.91616 0
3.95962 -1.10667 0
0 0 0

3.35333 -2.91402 0
3.35925 -1.10464 0
0 0 0

2.63192 -3.54646 0
3.80944 -1.60746 0
0 0 0

2.60931 -3.52939 0
3.56076 -1.62956 0
0 0 0

1.44392 -3.88184 0
4.01314 -0.826752 0
0 0 0

-0.895591 -3.95555 0
5.22713 -0.788503 0
0 0 0

-0.155747 -5.94364 0
4.55734 0.298017 0
0 0 0

-0.669498 -5.95873 0
5.01983 0.315034 0
0 0 0

-0.638757 -0.234706 0
0.429495 -0.0277763 0
0 0 0

0.119887 -0.232498 0
0.846666 -0.0265624 0
0 0 0

-0.718027 0.51045 0
0.385905 0.381978 0
0 0 0

0.0267794 0.492798 0
0.795467 0.372271 0
0 0 0

-0.40632 -0.314759 0
1.32313 0.0319026 0
0 0 0

-2.02724 -0.357166 0
1.87701 0.0463932 0
0 0 0

-0.214938 -1.90415 0
1.25774 0.575012 0
0 0 0

-1.85908 -1.92429 0
1.81955 0.581892 0
0 0 0

-2.92095 -3.83639 0
3.16951 -0.471777 0
0 0 0

-3.13735 -3.82469 0
4.81519 -0.56076 0
0 0 0

-2.89332 -4.01056 0
2.32826 1.21868 0
0 0 0

-2.89558 -4.00933 0
3.76435 1.22106 0
0 0 0

-2.2602 -4.91754 0
5.2883 0.155413 0
0 0 0

-0.54683 -4.71621 0
4.89205 0.108851 0
0 0 0

-1.15292 -3.10884 0
2.18353 -0.165357 0
0 0 0

1.08737 -3.01382 0
1.54719 -0.166922 0
0 0 0

-3.39363 0.735287 0
-4.0527 0.737823 0
0 0 0

-3.35557 0.731124 0
-3.72557 0.702042 0
0 0 0

-3.09628 0.774602 0
-3.1315 1.13797 0
0 0 0

-3.35496 0.768376 0
-3.72031 1.02226 0
0 0 0

-3.37264 -2.44797 0
-3.34382 1.0568 0
0 0 0

-3.48832 -2.4479 0
-2.84543 1.0565 0
0 0 0

-3.37407 -2.56285 0
-3.33765 1.55171 0
0 0 0

-3.48903 -2.56196 0
-2.84239 1.5479 0
0 0 0

-2.96845 -3.04273 0
-2.30375 1.98893 0
0 0 0

-1.65436 -2.96177 0
-1.78058 2.02117 0
0 0 0

-2.92937 -1.69965 0
-2.20959 2.51336 0
0 0 0

-1.32526 -1.67014 0
-1.29875 2.44365 0
0 0 0

0.202092 -0.9974 0
-1.29611 0.06437 0
0 0 0

2.32228 -0.912196 0
-0.982588 0.0769697 0
0 0 0

0.0257708 1.00696 0
-1.06422 0.294464 0
0 0 0

1.32368 1.07951 0
-1.14031 0.291977 0
0 0 0

-2.14561 0.791971 0
-0.244515 2.10726 0
0 0 0

-2.13195 0.788728 0
0.963366 1.82041 0
0 0 0

-1.68637 0.798271 0
-0.0272756 3.31958 0
0 0 0

-2.1326 0.802039 0
0.905834 2.99784 0
0 0 0

-1.55277 -1.49906 0
2.01974 2.36188 0
0 0 0

0.0399047 -1.48874 0
2.95237 2.36792 0
0 0 0

-1.72977 0.249278 0
2.00668 3.39734 0
0 0 0

-0.11383 0.243471 0
2.86234 3.38226 0
0 0 0

0.980593 -1.87712 0
3.04198 1.08775 0
0 0 0

0.295691 -1.96769 0
0.959775 0.812397 0
0 0 0

0.959299 -2.243 0
3.11578 -0.534972 0
0 0 0

-1.9786 -1.79951 0
1.40698 -1.42171 0
0 0 0

-0.0206864 1.87794 0
-0.77339 -0.0179612 0
0 0 0

0.684393 1.923 0
-1.18525 -0.0442825 0
0 0 0

0.491326 2.34832 0
-0.691616 -0.673271 0
0 0 0

-0.0122546 2.27332 0
-2.73759 -0.938544 0
0 0 0

SCALARS active double 1
LOOKUP_TABLE default
1
1
1
1
1
1
1
1
1
1
1
1
1
1
1
1
1
1
1
1
1
1
1
1
1
1
1
1
1
1
1
1
1
1
1
1
1
1
1
1
1
1
1
1
1
1
1
1
1
1
1
1
1
1
1
1
1
1
1
1
1
1
1
1
SCALARS extent double 1
LOOKUP_TABLE default
0.0125
0.0125
0.0125
0.0125
0.0125
0.0125
0.0125
0.0125
0.0125
0.0125
0.0125
0.0125
0.0125
0.0125
0.0125
0.0125
0.0125
0.0125
0.0125
0.0125
0.0125
0.0125
0.0125
0.0125
0.0125
0.0125
0.0125
0.0125
0.0125
0.0125
0.0125
0.0125
0.0125
0.0125
0.0125
0.0125
0.0125
0.0125
0.0125
0.0125
0.0125
0.0125
0.0125
0.0125
0.0125
0.0125
0.0125
0.0125
0.0125
0.0125
0.0125
0.0125
0.0125
0.0125
0.0125
0.0125
0.0125
0.0125
0.0125
0.0125
0.0125
0.0125
0.0125
0.0125
SCALARS pressure double 1
LOOKUP_TABLE default
-2338.62
2008.15
1458.18
-2097.17
-639.199
-3460.38
2447.54
2271.35
-1147.56
-1022.24
1866.49
2026.79
-4478.1
1491.55
-2804.23
4627.82
-4161.56
-2740.87
1702.41
2518.57
2755.46
-5737.01
4747.69
-1998.63
-5397.31
5265.85
-2329.33
-30.5179
-7230.11
6045.55
-3135.34
6113.1
-5250.09
3350.35
2920.5
3171.66
752.688
-1545.6
-320.308
-76.5113
-2107.88
4491.83
-7148.27
2705.3
-6522.23
7824.49
-8020.88
5177.49
-408.073
1370.07
2427.13
-3311.35
-1248.9
-2132.85
1356.89
416.701
2622.9
-1330.42
793.454
-3563.34
-511.662
-493.344
-707.104
1578.81
SCALARS density double 1
LOOKUP_TABLE default
975.972
1021.1
1015.28
978.426
993.374
964.652
1025.78
1023.9
988.136
989.425
1019.6
1021.3
954.496
1015.63
971.257
1049.31
957.643
971.897
1017.86
1026.54
1029.07
942.08
1050.62
979.429
945.414
1056.29
976.066
999.683
927.564
1064.89
967.918
1065.64
946.863
1035.46
1030.84
1033.54
1007.86
984.054
996.674
999.205
978.317
1047.82
928.354
1028.53
934.418
1084.78
919.967
1055.32
995.765
1014.35
1025.56
966.148
987.095
978.063
1014.21
1004.34
1027.65
986.259
1008.29
963.62
994.693
994.882
992.673
1016.56
