# vtk DataFile Version 3.0
Frame: 7, Time: 0.134
ASCII
DATASET UNSTRUCTURED_GRID
POINTS 64 double
0.4125 0.322444 0 
0.4125 0.347444 0 
0.4375 0.322444 0 
0.4375 0.347444 0 
0.4125 0.372444 0 
0.4125 0.397444 0 
0.4375 0.372444 0 
0.4375 0.397444 0 
0.4125 0.422444 0 
0.4125 0.447444 0 
0.4375 0.422444 0 
0.4375 0.447444 0 
0.4125 0.472444 0 
0.4125 0.497444 0 
0.4375 0.472444 0 
0.4375 0.497444 0 
0.4625 0.322444 0 
0.4625 0.347444 0 
0.4875 0.322444 0 
0.4875 0.347444 0 
0.4625 0.372444 0 
0.4625 0.397444 0 
0.4875 0.372444 0 
0.4875 0.397444 0 
0.4625 0.422444 0 
0.4625 0.447444 0 
0.4875 0.422444 0 
0.4875 0.447444 0 
0.4625 0.472444 0 
0.4625 0.497444 0 
0.4875 0.472444 0 
0.4875 0.497444 0 
0.5125 0.322444 0 
0.5125 0.347444 0 
0.5375 0.322444 0 
0.5375 0.347444 0 
0.5125 0.372444 0 
0.5125 0.397444 0 
0.5375 0.372444 0 
0.5375 0.397444 0 
0.5125 0.422444 0 
0.5125 0.447444 0 
0.5375 0.422444 0 
0.5375 0.447444 0 
0.5125 0.472444 0 
0.5125 0.497444 0 
0.5375 0.472444 0 
0.5375 0.497444 0 
0.5625 0.322444 0 
0.5625 0.347444 0 
0.5875 0.322444 0 
0.5875 0.347444 0 
0.5625 0.372444 0 
0.5625 0.397444 0 
0.5875 0.372444 0 
0.5875 0.397444 0 
0.5625 0.422444 0 
0.5625 0.447444 0 
0.5875 0.422444 0 
0.5875 0.447444 0 
0.5625 0.472444 0 
0.5625 0.497444 0 
0.5875 0.472444 0 
0.5875 0.497444 0 
CELLS 64 128
1 0
1 1
1 2
1 3
1 4
1 5
1 6
1 7
1 8
1 9
1 10
1 11
1 12
1 13
1 14
1 15
1 16
1 17
1 18
1 19
1 20
1 21
1 22
1 23
1 24
1 25
1 26
1 27
1 28
1 29
1 30
1 31
1 32
1 33
1 34
1 35
1 36
1 37
1 38
1 39
1 40
1 41
1 42
1 43
1 44
1 45
1 46
1 47
1 48
1 49
1 50
1 51
1 52
1 53
1 54
1 55
1 56
1 57
1 58
1 59
1 60
1 61
1 62
1 63
CELL_TYPES 64
1
1
1
1
1
1
1
1
1
1
1
1
1
1
1
1
1
1
1
1
1
1
1
1
1
1
1
1
1
1
1
1
1
1
1
1
1
1
1
1
1
1
1
1
1
1
1
1
1
1
1
1
1
1
1
1
1
1
1
1
1
1
1
1
POINT_DATA 64
VECTORS displacement double
-3.72446e-17 -0.0900558 0 
-2.33987e-17 -0.0900558 0 
-3.37685e-17 -0.0900558 0 
-2.69664e-17 -0.0900558 0 
-2.06673e-17 -0.0900558 0 
-2.81478e-17 -0.0900558 0 
-2.45314e-17 -0.0900558 0 
-2.75145e-17 -0.0900558 0 
-3.23903e-17 -0.0900558 0 
-3.03274e-17 -0.0900558 0 
-3.01624e-17 -0.0900558 0 
-2.922e-17 -0.0900558 0 
-2.50266e-17 -0.0900558 0 
-2.36151e-17 -0.0900558 0 
-2.65695e-17 -0.0900558 0 
-2.42445e-17 -0.0900558 0 
-3.16835e-17 -0.0900558 0 
-2.99859e-17 -0.0900558 0 
-3.09893e-17 -0.0900558 0 
-3.24573e-17 -0.0900558 0 
-2.84071e-17 -0.0900558 0 
-2.87792e-17 -0.0900558 0 
-3.22944e-17 -0.0900558 0 
-3.1942e-17 -0.0900558 0 
-3.01682e-17 -0.0900558 0 
-2.9391e-17 -0.0900558 0 
-3.24077e-17 -0.0900558 0 
-3.08403e-17 -0.0900558 0 
-2.82849e-17 -0.0900558 0 
-2.56282e-17 -0.0900558 0 
-3.01726e-17 -0.0900558 0 
-2.7766e-17 -0.0900558 0 
-3.07616e-17 -0.0900558 0 
-3.41735e-17 -0.0900558 0 
-3.10003e-17 -0.0900558 0 
-3.51344e-17 -0.0900558 0 
-3.53759e-17 -0.0900558 0 
-3.48023e-17 -0.0900558 0 
-3.76516e-17 -0.0900558 0 
-3.73599e-17 -0.0900558 0 
-3.46295e-17 -0.0900558 0 
-3.28496e-17 -0.0900558 0 
-3.68336e-17 -0.0900558 0 
-3.54189e-17 -0.0900558 0 
-3.28265e-17 -0.0900558 0 
-3.03213e-17 -0.0900558 0 
-3.62466e-17 -0.0900558 0 
-3.3294e-17 -0.0900558 0 
-2.94167e-17 -0.0900558 0 
-3.63976e-17 -0.0900558 0 
-2.60107e-17 -0.0900558 0 
-3.79632e-17 -0.0900558 0 
-3.90758e-17 -0.0900558 0 
-3.77609e-17 -0.0900558 0 
-3.96484e-17 -0.0900558 0 
-3.60051e-17 -0.0900558 0 
-3.71205e-17 -0.0900558 0 
-3.63132e-17 -0.0900558 0 
-3.549e-17 -0.0900558 0 
-3.55325e-17 -0.0900558 0 
-3.79523e-17 -0.0900558 0 
-3.46005e-17 -0.0900558 0 
-3.79436e-17 -0.0900558 0 
-3.42408e-17 -0.0900558 0 
VECTORS velocity double
-1.78946e-15 -1.32435 0 
-9.46601e-16 -1.32435 0 
-8.53742e-16 -1.32435 0 
-5.87059e-16 -1.32435 0 
-2.75456e-16 -1.32435 0 
-1.82864e-15 -1.32435 0 
-2.46408e-16 -1.32435 0 
-8.38901e-16 -1.32435 0 
-2.54674e-15 -1.32435 0 
-1.81201e-15 -1.32435 0 
-1.09282e-15 -1.32435 0 
-7.4895e-16 -1.32435 0 
1.14842e-15 -1.32435 0 
3.44447e-15 -1.32435 0 
-7.4196e-17 -1.32435 0 
1.81846e-15 -1.32435 0 
-3.52103e-16 -1.32435 0 
-4.45795e-16 -1.32435 0 
-2.84541e-16 -1.32435 0 
-5.22811e-16 -1.32435 0 
-3.23103e-16 -1.32435 0 
-4.65897e-16 -1.32435 0 
-5.05542e-16 -1.32435 0 
-7.09626e-16 -1.32435 0 
-4.14527e-16 -1.32435 0 
-1.94709e-16 -1.32435 0 
-5.1186e-16 -1.32435 0 
-1.49291e-16 -1.32435 0 
-4.32452e-16 -1.32435 0 
8.51718e-16 -1.32435 0 
7.36462e-17 -1.32435 0 
5.44242e-16 -1.32435 0 
-5.10472e-16 -1.32435 0 
-5.69036e-16 -1.32435 0 
-1.0299e-15 -1.32435 0 
-5.84472e-16 -1.32435 0 
-7.17625e-16 -1.32435 0 
-8.55011e-16 -1.32435 0 
-9.59352e-16 -1.32435 0 
-9.0205e-16 -1.32435 0 
-4.85811e-16 -1.32435 0 
-2.20549e-16 -1.32435 0 
-3.36379e-16 -1.32435 0 
-4.08482e-16 -1.32435 0 
1.93708e-16 -1.32435 0 
1.81574e-16 -1.32435 0 
-7.22662e-17 -1.32435 0 
-2.36286e-16 -1.32435 0 
-9.96153e-16 -1.32435 0 
-5.91359e-16 -1.32435 0 
-4.09241e-16 -1.32435 0 
-5.89696e-16 -1.32435 0 
-8.23754e-16 -1.32435 0 
-2.53523e-16 -1.32435 0 
-3.10831e-16 -1.32435 0 
1.09057e-15 -1.32435 0 
2.85615e-16 -1.32435 0 
-1.73267e-16 -1.32435 0 
1.38017e-15 -1.32435 0 
4.85096e-16 -1.32435 0 
-7.89354e-16 -1.32435 0 
-1.35357e-15 -1.32435 0 
-1.95756e-15 -1.32435 0 
-3.17027e-15 -1.32435 0 
SCALARS mass double 1
LOOKUP_TABLE default
0.625
0.625
0.625
0.625
0.625
0.625
0.625
0.625
0.625
0.625
0.625
0.625
0.625
0.625
0.625
0.625
0.625
0.625
0.625
0.625
0.625
0.625
0.625
0.625
0.625
0.625
0.625
0.625
0.625
0.625
0.625
0.625
0.625
0.625
0.625
0.625
0.625
0.625
0.625
0.625
0.625
0.625
0.625
0.625
0.625
0.625
0.625
0.625
0.625
0.625
0.625
0.625
0.625
0.625
0.625
0.625
0.625
0.625
0.625
0.625
0.625
0.625
0.625
0.625
SCALARS volume double 1
LOOKUP_TABLE default
0.000625
0.000625
0.000625
0.000625
0.000625
0.000625
0.000625
0.000625
0.000625
0.000625
0.000625
0.000625
0.000625
0.000625
0.000625
0.000625
0.000625
0.000625
0.000625
0.000625
0.000625
0.000625
0.000625
0.000625
0.000625
0.000625
0.000625
0.000625
0.000625
0.000625
0.000625
0.000625
0.000625
0.000625
0.000625
0.000625
0.000625
0.000625
0.000625
0.000625
0.000625
0.000625
0.000625
0.000625
0.000625
0.000625
0.000625
0.000625
0.000625
0.000625
0.000625
0.000625
0.000625
0.000625
0.000625
0.000625
0.000625
0.000625
0.000625
0.000625
0.000625
0.000625
0.000625
0.000625
VECTORS momentum double
-1.11841e-15 -0.827719 0 
-5.91626e-16 -0.827719 0 
-5.33589e-16 -0.827719 0 
-3.66912e-16 -0.827719 0 
-1.7216e-16 -0.827719 0 
-1.1429e-15 -0.827719 0 
-1.54005e-16 -0.827719 0 
-5.24313e-16 -0.827719 0 
-1.59171e-15 -0.827719 0 
-1.13251e-15 -0.827719 0 
-6.83012e-16 -0.827719 0 
-4.68094e-16 -0.827719 0 
7.1776e-16 -0.827719 0 
2.15279e-15 -0.827719 0 
-4.63725e-17 -0.827719 0 
1.13654e-15 -0.827719 0 
-2.20065e-16 -0.827719 0 
-2.78622e-16 -0.827719 0 
-1.77838e-16 -0.827719 0 
-3.26757e-16 -0.827719 0 
-2.01939e-16 -0.827719 0 
-2.91186e-16 -0.827719 0 
-3.15963e-16 -0.827719 0 
-4.43516e-16 -0.827719 0 
-2.59079e-16 -0.827719 0 
-1.21693e-16 -0.827719 0 
-3.19913e-16 -0.827719 0 
-9.33069e-17 -0.827719 0 
-2.70283e-16 -0.827719 0 
5.32323e-16 -0.827719 0 
4.60289e-17 -0.827719 0 
3.40152e-16 -0.827719 0 
-3.19045e-16 -0.827719 0 
-3.55648e-16 -0.827719 0 
-6.43686e-16 -0.827719 0 
-3.65295e-16 -0.827719 0 
-4.48515e-16 -0.827719 0 
-5.34382e-16 -0.827719 0 
-5.99595e-16 -0.827719 0 
-5.63781e-16 -0.827719 0 
-3.03632e-16 -0.827719 0 
-1.37843e-16 -0.827719 0 
-2.10237e-16 -0.827719 0 
-2.55301e-16 -0.827719 0 
1.21068e-16 -0.827719 0 
1.13484e-16 -0.827719 0 
-4.51664e-17 -0.827719 0 
-1.47679e-16 -0.827719 0 
-6.22596e-16 -0.827719 0 
-3.69599e-16 -0.827719 0 
-2.55775e-16 -0.827719 0 
-3.6856e-16 -0.827719 0 
-5.14847e-16 -0.827719 0 
-1.58452e-16 -0.827719 0 
-1.94269e-16 -0.827719 0 
6.81606e-16 -0.827719 0 
1.78509e-16 -0.827719 0 
-1.08292e-16 -0.827719 0 
8.62608e-16 -0.827719 0 
3.03185e-16 -0.827719 0 
-4.93346e-16 -0.827719 0 
-8.45979e-16 -0.827719 0 
-1.22347e-15 -0.827719 0 
-1.98142e-15 -0.827719 0 
VECTORS body_force double
0 -9.81 0 
0 -9.81 0 
0 -9.81 0 
0 -9.81 0 
0 -9.81 0 
0 -9.81 0 
0 -9.81 0 
0 -9.81 0 
0 -9.81 0 
0 -9.81 0 
0 -9.81 0 
0 -9.81 0 
0 -9.81 0 
0 -9.81 0 
0 -9.81 0 
0 -9.81 0 
0 -9.81 0 
0 -9.81 0 
0 -9.81 0 
0 -9.81 0 
0 -9.81 0 
0 -9.81 0 
0 -9.81 0 
0 -9.81 0 
0 -9.81 0 
0 -9.81 0 
0 -9.81 0 
0 -9.81 0 
0 -9.81 0 
0 -9.81 0 
0 -9.81 0 
0 -9.81 0 
0 -9.81 0 
0 -9.81 0 
0 -9.81 0 
0 -9.81 0 
0 -9.81 0 
0 -9.81 0 
0 -9.81 0 
0 -9.81 0 
0 -9.81 0 
0 -9.81 0 
0 -9.81 0 
0 -9.81 0 
0 -9.81 0 
0 -9.81 0 
0 -9.81 0 
0 -9.81 0 
0 -9.81 0 
0 -9.81 0 
0 -9.81 0 
0 -9.81 0 
0 -9.81 0 
0 -9.81 0 
0 -9.81 0 
0 -9.81 0 
0 -9.81 0 
0 -9.81 0 
0 -9.81 0 
0 -9.81 0 
0 -9.81 0 
0 -9.81 0 
0 -9.81 0 
0 -9.81 0 
TENSORS cauchy_stress double
1.332e-11 -1.46573e-12 0
-1.46573e-12 -4.57168e-12 0
0 0 0

-3.38828e-11 5.76946e-12 0
5.76946e-12 -4.24689e-11 0
0 0 0

1.00229e-11 -1.28138e-11 0
-1.28138e-11 -1.22648e-11 0
0 0 0

-2.4091e-11 -9.79375e-12 0
-9.79375e-12 -1.96213e-11 0
0 0 0

-1.92472e-11 -1.80571e-11 0
-1.80571e-11 -5.27881e-12 0
0 0 0

-1.70141e-11 -2.30105e-11 0
-2.30105e-11 -4.61953e-11 0
0 0 0

-1.26015e-11 -1.49263e-11 0
-1.49263e-11 1.02279e-11 0
0 0 0

-9.24631e-12 -1.70082e-11 0
-1.70082e-11 -2.80704e-11 0
0 0 0

7.57534e-12 -2.54459e-12 0
-2.54459e-12 -5.17389e-12 0
0 0 0

-1.63942e-11 -2.75576e-12 0
-2.75576e-12 -4.96111e-11 0
0 0 0

-8.42108e-12 -1.03909e-11 0
-1.03909e-11 -4.24989e-11 0
0 0 0

-1.46071e-11 1.23997e-12 0
1.23997e-12 -4.54413e-11 0
0 0 0

1.44995e-11 3.16673e-12 0
3.16673e-12 4.96569e-11 0
0 0 0

2.30236e-11 2.22809e-12 0
2.22809e-12 6.01781e-11 0
0 0 0

1.34342e-11 -2.2324e-12 0
-2.2324e-12 4.71713e-11 0
0 0 0

2.87899e-11 1.07265e-11 0
1.07265e-11 7.36326e-11 0
0 0 0

-4.74477e-12 -3.14889e-13 0
-3.14889e-13 -1.81904e-11 0
0 0 0

-2.49267e-11 -2.59288e-12 0
-2.59288e-12 -3.28142e-11 0
0 0 0

-3.9093e-12 -2.19666e-12 0
-2.19666e-12 -1.6241e-11 0
0 0 0

-2.6701e-11 -1.08847e-11 0
-1.08847e-11 -3.6954e-11 0
0 0 0

-1.11997e-11 -1.70055e-11 0
-1.70055e-11 1.37377e-11 0
0 0 0

-4.08896e-11 -1.19244e-11 0
-1.19244e-11 -6.29701e-11 0
0 0 0

-2.68687e-11 -1.10964e-11 0
-1.10964e-11 -2.28232e-11 0
0 0 0

-3.04236e-11 -1.05977e-11 0
-1.05977e-11 -3.85494e-11 0
0 0 0

-2.41693e-11 -7.60366e-12 0
-7.60366e-12 -3.34259e-11 0
0 0 0

-1.61452e-11 -6.47237e-12 0
-6.47237e-12 -2.28072e-11 0
0 0 0

-2.14895e-11 -5.14561e-12 0
-5.14561e-12 -2.71731e-11 0
0 0 0

-1.64991e-11 -4.66508e-12 0
-4.66508e-12 -2.36329e-11 0
0 0 0

1.1032e-11 -6.53528e-12 0
-6.53528e-12 4.51024e-11 0
0 0 0

2.00515e-11 -9.54852e-12 0
-9.54852e-12 6.87133e-11 0
0 0 0

6.19251e-12 -4.97863e-12 0
-4.97863e-12 3.38103e-11 0
0 0 0

2.06872e-11 6.37793e-13 0
6.37793e-13 7.01966e-11 0
0 0 0

3.17657e-12 -8.25442e-13 0
-8.25442e-13 9.86039e-12 0
0 0 0

-2.94798e-11 4.32881e-13 0
4.32881e-13 -5.89311e-11 0
0 0 0

-7.41832e-12 1.02669e-12 0
1.02669e-12 -1.4861e-11 0
0 0 0

-2.27047e-11 -2.94485e-12 0
-2.94485e-12 -4.31227e-11 0
0 0 0

-7.04313e-12 8.91718e-12 0
8.91718e-12 6.90642e-12 0
0 0 0

-3.91012e-11 1.9381e-12 0
1.9381e-12 -6.50036e-11 0
0 0 0

-1.40982e-12 1.03688e-11 0
1.03688e-11 2.00508e-11 0
0 0 0

-3.66609e-11 -1.88055e-12 0
-1.88055e-12 -5.93094e-11 0
0 0 0

-2.0606e-11 -9.90389e-13 0
-9.90389e-13 -2.54746e-11 0
0 0 0

-2.5649e-11 1.83193e-12 0
1.83193e-12 -3.34958e-11 0
0 0 0

-1.66945e-11 2.7674e-13 0
2.7674e-13 -1.63477e-11 0
0 0 0

-2.27379e-11 7.00527e-13 0
7.00527e-13 -2.67032e-11 0
0 0 0

1.07803e-11 -5.36767e-12 0
-5.36767e-12 6.02319e-11 0
0 0 0

1.22319e-11 9.77006e-13 0
9.77006e-13 5.90301e-11 0
0 0 0

1.1962e-11 -3.51583e-12 0
-3.51583e-12 6.29893e-11 0
0 0 0

1.59389e-11 4.02745e-12 0
4.02745e-12 6.76797e-11 0
0 0 0

1.74474e-11 7.99977e-12 0
7.99977e-12 5.77703e-12 0
0 0 0

-2.28033e-11 -5.43858e-12 0
-5.43858e-12 -3.71502e-11 0
0 0 0

9.68594e-12 4.61847e-12 0
4.61847e-12 -1.23329e-11 0
0 0 0

-2.60507e-11 -2.59354e-12 0
-2.59354e-12 -4.47275e-11 0
0 0 0

7.62781e-13 1.24285e-11 0
1.24285e-11 7.65316e-12 0
0 0 0

-1.2163e-11 1.12324e-11 0
1.12324e-11 -4.63886e-11 0
0 0 0

-7.33651e-12 1.77864e-11 0
1.77864e-11 -1.12452e-11 0
0 0 0

-1.67298e-11 1.3248e-11 0
1.3248e-11 -5.70446e-11 0
0 0 0

-5.67281e-12 6.71639e-12 0
6.71639e-12 -2.99588e-11 0
0 0 0

-2.10916e-11 2.22027e-12 0
2.22027e-12 -5.72211e-11 0
0 0 0

3.06099e-12 5.28291e-12 0
5.28291e-12 -9.57992e-12 0
0 0 0

-1.6853e-11 3.40745e-12 0
3.40745e-12 -4.73311e-11 0
0 0 0

2.06245e-11 8.17718e-13 0
8.17718e-13 4.80347e-11 0
0 0 0

3.0521e-11 -8.29206e-12 0
-8.29206e-12 6.75271e-11 0
0 0 0

9.75143e-12 -2.86262e-12 0
-2.86262e-12 2.26641e-11 0
0 0 0

2.36018e-11 -2.18164e-12 0
-2.18164e-12 5.13824e-11 0
0 0 0

TENSORS velocity_gradient double
8.14024e-15 -3.98652e-15 0
-4.08562e-14 2.30926e-14 0
0 0 0

1.50829e-14 -3.72417e-15 0
-1.68754e-14 4.44089e-15 0
0 0 0

8.14024e-15 3.82738e-15 0
-3.19744e-14 2.4869e-14 0
0 0 0

1.50829e-14 6.04934e-16 0
-1.68754e-14 -2.66454e-15 0
0 0 0

1.55158e-14 -3.33306e-15 0
-1.06581e-14 -2.4869e-14 0
0 0 0

1.43962e-14 1.85378e-15 0
5.32907e-15 5.32907e-15 0
0 0 0

1.55158e-14 -4.19896e-15 0
-2.13163e-14 -2.84217e-14 0
0 0 0

1.43962e-14 -2.68777e-17 0
-2.22045e-14 6.21725e-15 0
0 0 0

1.1381e-14 9.58611e-15 0
-2.13163e-14 3.55271e-14 0
0 0 0

5.99836e-15 2.96811e-14 0
-8.88178e-16 -1.5099e-14 0
0 0 0

1.1381e-14 6.19269e-15 0
0 3.55271e-14 0
0 0 0

5.99836e-15 1.83309e-14 0
9.76996e-15 9.76996e-15 0
0 0 0

-1.42482e-14 5.9638e-14 0
7.10543e-15 -3.55271e-14 0
0 0 0

-3.51894e-14 4.07087e-14 0
1.86517e-14 5.41789e-14 0
0 0 0

-1.42482e-14 3.6426e-14 0
3.55271e-15 -3.19744e-14 0
0 0 0

-3.51894e-14 2.65797e-14 0
1.86517e-14 3.28626e-14 0
0 0 0

3.61529e-15 5.88799e-15 0
-2.84217e-14 4.26326e-14 0
0 0 0

4.40813e-16 1.95957e-15 0
-2.13163e-14 7.10543e-15 0
0 0 0

3.61529e-15 2.1953e-15 0
-1.42109e-14 4.26326e-14 0
0 0 0

4.40813e-16 3.39744e-16 0
-1.06581e-14 1.77636e-14 0
0 0 0

1.13859e-15 -3.89675e-15 0
-8.88178e-15 1.95399e-14 0
0 0 0

2.6016e-15 -2.46638e-16 0
-1.04361e-14 1.79856e-14 0
0 0 0

1.13859e-15 -2.42644e-15 0
-7.10543e-15 -2.84217e-14 0
0 0 0

2.6016e-15 1.1945e-15 0
1.24345e-14 1.24345e-14 0
0 0 0

4.01012e-15 5.1948e-15 0
3.55271e-15 1.77636e-14 0
0 0 0

4.49156e-15 1.15222e-14 0
1.82077e-14 3.24185e-14 0
0 0 0

4.01012e-15 6.59245e-15 0
3.55271e-15 3.19744e-14 0
0 0 0

4.49156e-15 9.25506e-15 0
2.22045e-14 2.93099e-14 0
0 0 0

-1.87307e-15 2.09548e-14 0
2.13163e-14 -2.84217e-14 0
0 0 0

-9.40454e-15 1.60479e-14 0
2.28706e-14 5.12923e-14 0
0 0 0

-1.87307e-15 1.32244e-14 0
2.13163e-14 -7.10543e-15 0
0 0 0

-9.40454e-15 9.11342e-15 0
2.66454e-14 8.34888e-14 0
0 0 0

-4.23522e-15 5.05238e-16 0
2.13163e-14 7.81597e-14 0
0 0 0

-3.48405e-15 5.63329e-16 0
7.99361e-15 2.22045e-14 0
0 0 0

-4.23522e-15 8.17802e-16 0
1.06581e-14 2.4869e-14 0
0 0 0

-3.48405e-15 2.63032e-15 0
8.88178e-15 3.73035e-14 0
0 0 0

5.44522e-16 6.49928e-16 0
1.95399e-14 1.24345e-14 0
0 0 0

4.49945e-15 2.80128e-15 0
2.15383e-14 1.44329e-14 0
0 0 0

5.44522e-16 5.33236e-15 0
3.55271e-15 1.77636e-14 0
0 0 0

4.49945e-15 4.57372e-15 0
7.99361e-15 2.22045e-14 0
0 0 0

3.01831e-15 6.00843e-15 0
1.77636e-15 3.73035e-14 0
0 0 0

-9.32905e-17 5.74677e-15 0
-8.88178e-16 4.17444e-14 0
0 0 0

3.01831e-15 3.44277e-15 0
3.55271e-15 3.19744e-14 0
0 0 0

-9.32905e-17 9.97358e-16 0
-5.32907e-15 -5.32907e-15 0
0 0 0

-7.28429e-15 5.3567e-15 0
-2.13163e-14 -2.13163e-14 0
0 0 0

-1.44407e-14 3.34075e-15 0
-3.13083e-14 4.68514e-14 0
0 0 0

-7.28429e-15 -2.64816e-15 0
-1.77636e-14 -3.19744e-14 0
0 0 0

-1.44407e-14 -1.27012e-15 0
-2.39808e-14 4.70735e-14 0
0 0 0

1.7383e-15 4.72546e-15 0
3.01981e-14 4.44089e-14 0
0 0 0

8.90964e-15 6.75239e-15 0
3.93019e-14 3.77476e-15 0
0 0 0

1.7383e-15 1.22282e-14 0
3.19744e-14 3.19744e-14 0
0 0 0

8.90964e-15 1.29295e-14 0
2.75335e-14 1.33227e-14 0
0 0 0

1.36046e-14 9.77406e-15 0
1.42109e-14 -1.42109e-14 0
0 0 0

1.65956e-14 5.14033e-15 0
-8.43769e-15 5.77316e-15 0
0 0 0

1.36046e-14 1.3975e-14 0
1.42109e-14 -4.26326e-14 0
0 0 0

1.65956e-14 4.50113e-15 0
3.55271e-15 -1.06581e-14 0
0 0 0

1.05447e-14 -1.76743e-15 0
-1.59872e-14 5.32907e-15 0
0 0 0

1.02051e-15 -8.64368e-15 0
-2.28706e-14 -2.28706e-14 0
0 0 0

1.05447e-14 -9.62216e-15 0
-2.4869e-14 4.61853e-14 0
0 0 0

1.02051e-15 -2.31763e-14 0
-1.59872e-14 1.24345e-14 0
0 0 0

-2.09786e-14 -1.88945e-14 0
-1.06581e-14 -1.06581e-14 0
0 0 0

-4.32739e-14 -1.14345e-14 0
-8.43769e-15 1.9984e-14 0
0 0 0

-2.09786e-14 -4.33824e-14 0
-1.77636e-14 -1.77636e-14 0
0 0 0

-4.32739e-14 -2.71524e-14 0
-1.77636e-14 6.03961e-14 0
0 0 0

SCALARS active double 1
LOOKUP_TABLE default
1
1
1
1
1
1
1
1
1
1
1
1
1
1
1
1
1
1
1
1
1
1
1
1
1
1
1
1
1
1
1
1
1
1
1
1
1
1
1
1
1
1
1
1
1
1
1
1
1
1
1
1
1
1
1
1
1
1
1
1
1
1
1
1
SCALARS extent double 1
LOOKUP_TABLE default
0.0125
0.0125
0.0125
0.0125
0.0125
0.0125
0.0125
0.0125
0.0125
0.0125
0.0125
0.0125
0.0125
0.0125
0.0125
0.0125
0.0125
0.0125
0.0125
0.0125
0.0125
0.0125
0.0125
0.0125
0.0125
0.0125
0.0125
0.0125
0.0125
0.0125
0.0125
0.0125
0.0125
0.0125
0.0125
0.0125
0.0125
0.0125
0.0125
0.0125
0.0125
0.0125
0.0125
0.0125
0.0125
0.0125
0.0125
0.0125
0.0125
0.0125
0.0125
0.0125
0.0125
0.0125
0.0125
0.0125
0.0125
0.0125
0.0125
0.0125
0.0125
0.0125
0.0125
0.0125
SCALARS pressure double 1
LOOKUP_TABLE default
-4.37414e-12
3.81759e-11
1.12093e-12
2.18561e-11
1.2263e-11
3.16047e-11
1.1868e-12
1.86584e-11
-1.20072e-12
3.30026e-11
2.546e-11
3.00242e-11
-3.20782e-11
-4.16009e-11
-3.03028e-11
-5.12112e-11
1.14676e-11
2.88704e-11
1.00751e-11
3.18275e-11
-1.26898e-12
5.19298e-11
2.48459e-11
3.44865e-11
2.87976e-11
1.94762e-11
2.43313e-11
2.0066e-11
-2.80672e-11
-4.43824e-11
-2.00014e-11
-4.54419e-11
-6.51848e-12
4.42054e-11
1.11397e-11
3.29137e-11
6.83549e-14
5.20524e-11
-9.3205e-12
4.79852e-11
2.30403e-11
2.95724e-11
1.65211e-11
2.47205e-11
-3.55061e-11
-3.5631e-11
-3.74757e-11
-4.18093e-11
-1.16122e-11
2.99767e-11
1.3235e-12
3.53891e-11
-4.20797e-12
2.92758e-11
9.29085e-12
3.68872e-11
1.78158e-11
3.91564e-11
3.25947e-12
3.2092e-11
-3.43296e-11
-4.9024e-11
-1.62078e-11
-3.74921e-11
SCALARS density double 1
LOOKUP_TABLE default
1000
1000
1000
1000
1000
1000
1000
1000
1000
1000
1000
1000
1000
1000
1000
1000
1000
1000
1000
1000
1000
1000
1000
1000
1000
1000
1000
1000
1000
1000
1000
1000
1000
1000
1000
1000
1000
1000
1000
1000
1000
1000
1000
1000
1000
1000
1000
1000
1000
1000
1000
1000
1000
1000
1000
1000
1000
1000
1000
1000
1000
1000
1000
1000
