# vtk DataFile Version 3.0
Frame: 45, Time: 0.767
ASCII
DATASET UNSTRUCTURED_GRID
POINTS 64 double
0.0696418 0.1098 0 
0.074277 0.134316 0 
0.0942048 0.106328 0 
0.0980236 0.130717 0 
0.076002 0.15975 0 
0.0802175 0.184691 0 
0.101227 0.155314 0 
0.105408 0.180272 0 
0.0809803 0.20924 0 
0.0839571 0.235558 0 
0.107777 0.205403 0 
0.109639 0.230307 0 
0.0910094 0.259468 0 
0.0945923 0.283368 0 
0.116223 0.254524 0 
0.119927 0.278803 0 
0.119614 0.103699 0 
0.121594 0.128348 0 
0.143646 0.0981887 0 
0.145381 0.122704 0 
0.124691 0.153111 0 
0.12747 0.177774 0 
0.149834 0.146981 0 
0.151905 0.171201 0 
0.130609 0.203076 0 
0.133063 0.227752 0 
0.155731 0.196606 0 
0.159081 0.220942 0 
0.139337 0.251963 0 
0.144945 0.278208 0 
0.164552 0.246119 0 
0.169132 0.271418 0 
0.167421 0.0919987 0 
0.168144 0.117766 0 
0.195364 0.0889142 0 
0.193616 0.114523 0 
0.173452 0.142023 0 
0.175467 0.166394 0 
0.199032 0.138289 0 
0.200106 0.162682 0 
0.179925 0.191304 0 
0.184185 0.215608 0 
0.203954 0.187432 0 
0.208283 0.211284 0 
0.18924 0.242423 0 
0.194209 0.267083 0 
0.213113 0.236931 0 
0.219162 0.262103 0 
0.22085 0.0843391 0 
0.218079 0.11135 0 
0.24502 0.0812983 0 
0.2427 0.107666 0 
0.223905 0.134541 0 
0.225096 0.158436 0 
0.249572 0.129954 0 
0.250762 0.154621 0 
0.228279 0.182491 0 
0.233327 0.206525 0 
0.253567 0.179845 0 
0.259197 0.203805 0 
0.237216 0.231894 0 
0.243009 0.255658 0 
0.262449 0.228745 0 
0.269064 0.251804 0 
CELLS 64 128
1 0
1 1
1 2
1 3
1 4
1 5
1 6
1 7
1 8
1 9
1 10
1 11
1 12
1 13
1 14
1 15
1 16
1 17
1 18
1 19
1 20
1 21
1 22
1 23
1 24
1 25
1 26
1 27
1 28
1 29
1 30
1 31
1 32
1 33
1 34
1 35
1 36
1 37
1 38
1 39
1 40
1 41
1 42
1 43
1 44
1 45
1 46
1 47
1 48
1 49
1 50
1 51
1 52
1 53
1 54
1 55
1 56
1 57
1 58
1 59
1 60
1 61
1 62
1 63
CELL_TYPES 64
1
1
1
1
1
1
1
1
1
1
1
1
1
1
1
1
1
1
1
1
1
1
1
1
1
1
1
1
1
1
1
1
1
1
1
1
1
1
1
1
1
1
1
1
1
1
1
1
1
1
1
1
1
1
1
1
1
1
1
1
1
1
1
1
POINT_DATA 64
VECTORS displacement double
-0.342858 -0.3027 0 
-0.338223 -0.303184 0 
-0.343295 -0.306172 0 
-0.339476 -0.306783 0 
-0.336498 -0.30275 0 
-0.332283 -0.302809 0 
-0.336273 -0.307186 0 
-0.332092 -0.307228 0 
-0.33152 -0.30326 0 
-0.328543 -0.301942 0 
-0.329723 -0.307097 0 
-0.327861 -0.307193 0 
-0.321491 -0.303032 0 
-0.317908 -0.304132 0 
-0.321277 -0.307976 0 
-0.317573 -0.308697 0 
-0.342886 -0.308801 0 
-0.340906 -0.309152 0 
-0.343854 -0.314311 0 
-0.342119 -0.314796 0 
-0.337809 -0.309389 0 
-0.33503 -0.309726 0 
-0.337666 -0.315519 0 
-0.335595 -0.316299 0 
-0.331891 -0.309424 0 
-0.329437 -0.309748 0 
-0.331769 -0.315894 0 
-0.328419 -0.316558 0 
-0.323163 -0.310537 0 
-0.317555 -0.309292 0 
-0.322948 -0.316381 0 
-0.318368 -0.316082 0 
-0.345079 -0.320501 0 
-0.344356 -0.319734 0 
-0.342136 -0.323586 0 
-0.343884 -0.322977 0 
-0.339048 -0.320477 0 
-0.337033 -0.321106 0 
-0.338468 -0.324211 0 
-0.337394 -0.324818 0 
-0.332575 -0.321196 0 
-0.328315 -0.321892 0 
-0.333546 -0.325068 0 
-0.329217 -0.326216 0 
-0.32326 -0.320077 0 
-0.318291 -0.320417 0 
-0.324387 -0.325569 0 
-0.318338 -0.325397 0 
-0.34165 -0.328161 0 
-0.344421 -0.32615 0 
-0.34248 -0.331202 0 
-0.3448 -0.329834 0 
-0.338595 -0.327959 0 
-0.337404 -0.329064 0 
-0.337928 -0.332546 0 
-0.336738 -0.332879 0 
-0.334221 -0.330009 0 
-0.329173 -0.330975 0 
-0.333933 -0.332655 0 
-0.328303 -0.333695 0 
-0.325284 -0.330606 0 
-0.319491 -0.331842 0 
-0.325051 -0.333755 0 
-0.318436 -0.335696 0 
VECTORS velocity double
-0.0170506 0.659496 0 
0.616435 0.77906 0 
-0.16893 0.3618 0 
0.300121 0.189304 0 
0.520012 0.486791 0 
0.590167 0.539397 0 
0.634534 -0.176623 0 
0.671459 0.291961 0 
0.947981 0.131118 0 
0.571164 0.109194 0 
0.852851 -0.0785097 0 
0.738821 -0.403163 0 
0.732236 0.471443 0 
0.831922 0.171782 0 
0.514963 -0.0604346 0 
1.02637 -0.710336 0 
0.212684 0.0790287 0 
0.558621 0.359633 0 
0.0407084 0.179145 0 
0.788947 0.294517 0 
0.480123 0.0397987 0 
0.559329 0.36014 0 
0.674179 -0.225751 0 
0.587557 0.0464499 0 
0.700603 -0.100715 0 
0.779862 -0.538739 0 
0.813977 -0.132816 0 
0.932126 -0.623621 0 
0.470044 -0.214079 0 
0.839878 -0.574117 0 
0.690596 -0.187067 0 
1.16199 -0.559314 0 
-0.0338045 0.00880001 0 
0.438909 -0.382481 0 
0.168595 -0.0162573 0 
0.654422 -0.202311 0 
0.418414 -0.780546 0 
0.654237 -0.427248 0 
0.723925 -0.526964 0 
0.770583 -0.0553432 0 
0.785846 -0.594954 0 
1.12856 -0.811417 0 
0.527263 -0.158557 0 
0.959555 -0.405532 0 
0.614856 -0.672878 0 
1.05751 -0.707565 0 
0.609688 -0.215618 0 
1.06402 -0.441825 0 
0.294927 -0.28621 0 
0.900292 -0.150323 0 
0.342854 -0.119642 0 
0.648282 -0.214287 0 
0.543764 -0.49692 0 
0.808603 -0.0470238 0 
0.72581 -0.479837 0 
0.728141 -0.402312 0 
0.66926 -0.101607 0 
0.966097 -0.746501 0 
0.752706 -0.293412 0 
0.976083 -0.615336 0 
0.587404 -0.275881 0 
1.18826 -0.661864 0 
0.841119 -0.678752 0 
1.18322 -0.9232 0 
SCALARS mass double 1
LOOKUP_TABLE default
0.625
0.625
0.625
0.625
0.625
0.625
0.625
0.625
0.625
0.625
0.625
0.625
0.625
0.625
0.625
0.625
0.625
0.625
0.625
0.625
0.625
0.625
0.625
0.625
0.625
0.625
0.625
0.625
0.625
0.625
0.625
0.625
0.625
0.625
0.625
0.625
0.625
0.625
0.625
0.625
0.625
0.625
0.625
0.625
0.625
0.625
0.625
0.625
0.625
0.625
0.625
0.625
0.625
0.625
0.625
0.625
0.625
0.625
0.625
0.625
0.625
0.625
0.625
0.625
SCALARS volume double 1
LOOKUP_TABLE default
0.000660242
0.000623577
0.000599941
0.00059387
0.000645978
0.00062567
0.000631658
0.000610888
0.000625086
0.000650105
0.000630438
0.000649989
0.0006067
0.000647086
0.000614364
0.000626546
0.000659129
0.000617821
0.000628175
0.000612917
0.000629711
0.000616905
0.000622947
0.000618742
0.000632631
0.000597401
0.000633927
0.000646802
0.000636206
0.000609409
0.00061763
0.000631511
0.000630982
0.000605036
0.000644251
0.000635975
0.000631897
0.000625528
0.00062868
0.000607678
0.000630471
0.000606597
0.000656091
0.000590472
0.00064916
0.000636808
0.000654941
0.000628579
0.000641047
0.000634594
0.000628878
0.000646641
0.000605428
0.000615415
0.000631844
0.000616337
0.000609995
0.000623074
0.000627513
0.00061003
0.000632898
0.000637102
0.000623918
0.000627017
VECTORS momentum double
-0.0106566 0.412185 0 
0.385272 0.486913 0 
-0.105581 0.226125 0 
0.187576 0.118315 0 
0.325008 0.304244 0 
0.368854 0.337123 0 
0.396584 -0.110389 0 
0.419662 0.182476 0 
0.592488 0.081949 0 
0.356977 0.0682462 0 
0.533032 -0.0490686 0 
0.461763 -0.251977 0 
0.457648 0.294652 0 
0.519951 0.107364 0 
0.321852 -0.0377716 0 
0.641479 -0.44396 0 
0.132928 0.0493929 0 
0.349138 0.224771 0 
0.0254427 0.111966 0 
0.493092 0.184073 0 
0.300077 0.0248742 0 
0.34958 0.225087 0 
0.421362 -0.141094 0 
0.367223 0.0290312 0 
0.437877 -0.0629467 0 
0.487414 -0.336712 0 
0.508735 -0.0830103 0 
0.582578 -0.389763 0 
0.293778 -0.133799 0 
0.524924 -0.358823 0 
0.431623 -0.116917 0 
0.726247 -0.349572 0 
-0.0211278 0.00550001 0 
0.274318 -0.239051 0 
0.105372 -0.0101608 0 
0.409014 -0.126444 0 
0.261509 -0.487841 0 
0.408898 -0.26703 0 
0.452453 -0.329353 0 
0.481614 -0.0345895 0 
0.491154 -0.371846 0 
0.705351 -0.507136 0 
0.32954 -0.0990983 0 
0.599722 -0.253457 0 
0.384285 -0.420548 0 
0.660943 -0.442228 0 
0.381055 -0.134762 0 
0.665011 -0.276141 0 
0.184329 -0.178881 0 
0.562683 -0.0939522 0 
0.214284 -0.0747764 0 
0.405176 -0.133929 0 
0.339852 -0.310575 0 
0.505377 -0.0293898 0 
0.453631 -0.299898 0 
0.455088 -0.251445 0 
0.418287 -0.0635042 0 
0.60381 -0.466563 0 
0.470441 -0.183383 0 
0.610052 -0.384585 0 
0.367128 -0.172425 0 
0.742665 -0.413665 0 
0.525699 -0.42422 0 
0.73951 -0.577 0 
VECTORS body_force double
0 -9.81 0 
0 -9.81 0 
0 -9.81 0 
0 -9.81 0 
0 -9.81 0 
0 -9.81 0 
0 -9.81 0 
0 -9.81 0 
0 -9.81 0 
0 -9.81 0 
0 -9.81 0 
0 -9.81 0 
0 -9.81 0 
0 -9.81 0 
0 -9.81 0 
0 -9.81 0 
0 -9.81 0 
0 -9.81 0 
0 -9.81 0 
0 -9.81 0 
0 -9.81 0 
0 -9.81 0 
0 -9.81 0 
0 -9.81 0 
0 -9.81 0 
0 -9.81 0 
0 -9.81 0 
0 -9.81 0 
0 -9.81 0 
0 -9.81 0 
0 -9.81 0 
0 -9.81 0 
0 -9.81 0 
0 -9.81 0 
0 -9.81 0 
0 -9.81 0 
0 -9.81 0 
0 -9.81 0 
0 -9.81 0 
0 -9.81 0 
0 -9.81 0 
0 -9.81 0 
0 -9.81 0 
0 -9.81 0 
0 -9.81 0 
0 -9.81 0 
0 -9.81 0 
0 -9.81 0 
0 -9.81 0 
0 -9.81 0 
0 -9.81 0 
0 -9.81 0 
0 -9.81 0 
0 -9.81 0 
0 -9.81 0 
0 -9.81 0 
0 -9.81 0 
0 -9.81 0 
0 -9.81 0 
0 -9.81 0 
0 -9.81 0 
0 -9.81 0 
0 -9.81 0 
0 -9.81 0 
TENSORS cauchy_stress double
7688.43 306.649 0
306.649 2860.44 0
0 0 0

-2766.98 -714.115 0
-714.115 2328.74 0
0 0 0

-4808.42 86.6541 0
86.6541 -3061.03 0
0 0 0

-6466.61 -736.779 0
-736.779 -3358.78 0
0 0 0

1099.26 882.953 0
882.953 5249.63 0
0 0 0

-1154.93 1270.99 0
1270.99 1360.96 0
0 0 0

1237.22 -528.338 0
-528.338 800.61 0
0 0 0

-3792.34 -1076.56 0
-1076.56 -599.599 0
0 0 0

-654.996 -2502.98 0
-2502.98 681.317 0
0 0 0

1266.14 1541.61 0
1541.61 6307.4 0
0 0 0

720.615 -3284.92 0
-3284.92 945.494 0
0 0 0

5589.37 1441.01 0
1441.01 1949.96 0
0 0 0

-1558.48 -2476.55 0
-2476.55 -4156.25 0
0 0 0

-406.507 839.252 0
839.252 7084.92 0
0 0 0

-3851.07 108.846 0
108.846 550.152 0
0 0 0

2108.8 254.104 0
254.104 -1633.81 0
0 0 0

6597.29 -569.608 0
-569.608 3627.12 0
0 0 0

-3031.01 1021.43 0
1021.43 809.237 0
0 0 0

1483.81 -1586.68 0
-1586.68 -509.21 0
0 0 0

-3228.2 -1592.17 0
-1592.17 -526.058 0
0 0 0

2107.36 3075.54 0
3075.54 -663.221 0
0 0 0

-1480.62 -4.94773 0
-4.94773 -1026.38 0
0 0 0

843.566 -2772.37 0
-2772.37 -1476.19 0
0 0 0

-2919.34 -4698.41 0
-4698.41 983.95 0
0 0 0

686.841 392.718 0
392.718 1647.06 0
0 0 0

-2519.53 -355.859 0
-355.859 -6165.58 0
0 0 0

-287.927 790.346 0
790.346 3015.35 0
0 0 0

4991.16 -2232.62 0
-2232.62 1602.76 0
0 0 0

2205.38 1599.01 0
1599.01 1212.04 0
0 0 0

-2740.11 -1156.54 0
-1156.54 -2118.06 0
0 0 0

-1813.24 142.973 0
142.973 -467.869 0
0 0 0

532.843 2509.54 0
2509.54 1460.25 0
0 0 0

1303.11 881.301 0
881.301 528.753 0
0 0 0

-5576.29 1006.59 0
1006.59 -666.576 0
0 0 0

6818.65 -545.57 0
-545.57 -984.516 0
0 0 0

2080.46 -1567.27 0
-1567.27 1267.21 0
0 0 0

3272.41 -473.673 0
-473.673 -1161.83 0
0 0 0

138.026 -3048.37 0
-3048.37 24.3122 0
0 0 0

2919.15 -2106.33 0
-2106.33 -1790.15 0
0 0 0

-2232.01 -1453.19 0
-1453.19 -3173.09 0
0 0 0

-793.519 2003.1 0
2003.1 2469.63 0
0 0 0

-2698.12 -1443.52 0
-1443.52 -3049.4 0
0 0 0

2681.99 1741.67 0
1741.67 6654 0
0 0 0

-1439.19 -4252.54 0
-4252.54 -9489.55 0
0 0 0

-50.571 2795.55 0
2795.55 7344.26 0
0 0 0

6677.37 -1955.07 0
-1955.07 -3078.06 0
0 0 0

1577.67 3099.27 0
3099.27 7420.95 0
0 0 0

-1325.53 583.718 0
583.718 2423.63 0
0 0 0

2958.62 1018.92 0
1018.92 1916.74 0
0 0 0

-989.095 -1107.96 0
-1107.96 3918.54 0
0 0 0

1679.17 1009.53 0
1009.53 -489.618 0
0 0 0

2573.91 682.472 0
682.472 3972.03 0
0 0 0

-1876.56 -2070.41 0
-2070.41 -4241.78 0
0 0 0

357.186 -3622.66 0
-3622.66 -3329.32 0
0 0 0

1417.92 1576.25 0
1576.25 676.384 0
0 0 0

-201.401 -378.486 0
-378.486 -2482.79 0
0 0 0

-3106.83 413.597 0
413.597 -1566.53 0
0 0 0

1886.28 -645.924 0
-645.924 -2479.84 0
0 0 0

-338.263 523.855 0
523.855 1110.09 0
0 0 0

-8.05882 146.065 0
146.065 -4654.02 0
0 0 0

1409.85 2174.35 0
2174.35 1005.12 0
0 0 0

3502.08 -831.226 0
-831.226 186.091 0
0 0 0

396.506 -161.721 0
-161.721 -729.713 0
0 0 0

1580.03 355.833 0
355.833 -960.398 0
0 0 0

TENSORS velocity_gradient double
1.24007 7.29545 0
-7.15972 -1.6416 0
0 0 0

0.953738 7.24361 0
-6.69045 -1.55663 0
0 0 0

1.35132 6.91231 0
-7.14732 -1.1343 0
0 0 0

1.31692 6.96396 0
-6.73994 -1.23021 0
0 0 0

0.737816 4.26904 0
-5.96069 -4.47342 0
0 0 0

0.662611 4.25672 0
-4.83364 -4.28887 0
0 0 0

1.26604 4.39754 0
-6.88165 -3.23413 0
0 0 0

1.15357 4.09673 0
-6.82486 -3.30622 0
0 0 0

0.604474 -0.300403 0
-4.01149 -2.63028 0
0 0 0

0.571032 -0.304182 0
-3.65277 -2.58974 0
0 0 0

0.930777 0.0553928 0
-6.82135 -2.53462 0
0 0 0

1.21148 -0.220562 0
-7.23016 -2.51348 0
0 0 0

0.874285 2.56304 0
-4.46342 -0.708403 0
0 0 0

1.686 2.68155 0
-7.01169 -1.07968 0
0 0 0

1.45701 2.57275 0
-7.61741 -2.018 0
0 0 0

1.56887 2.97583 0
-7.92086 -1.97615 0
0 0 0

2.26459 5.48625 0
-5.5072 -1.76988 0
0 0 0

2.05945 6.6592 0
-6.6022 -2.03306 0
0 0 0

2.09606 4.20273 0
-5.34088 -2.0478 0
0 0 0

2.16268 6.33035 0
-6.15481 -3.08138 0
0 0 0

1.70694 4.48524 0
-7.44788 -2.74417 0
0 0 0

1.26125 3.70397 0
-7.10951 -2.89402 0
0 0 0

1.70766 5.44319 0
-5.73783 -2.95486 0
0 0 0

1.22955 3.26935 0
-4.8531 -2.47309 0
0 0 0

0.937937 0.907278 0
-6.82224 -2.86181 0
0 0 0

1.18335 0.0545274 0
-7.18956 -2.91043 0
0 0 0

0.818029 2.4951 0
-3.29458 -2.58298 0
0 0 0

1.07577 0.406896 0
-2.45467 -3.05362 0
0 0 0

1.43774 2.13342 0
-7.5824 -2.46885 0
0 0 0

1.57656 3.08591 0
-7.7419 -2.27889 0
0 0 0

1.50756 1.12329 0
-1.981 -2.7678 0
0 0 0

1.83704 3.32848 0
-1.55903 -2.06261 0
0 0 0

3.21413 3.6782 0
-4.86178 -1.89603 0
0 0 0

2.62276 5.62954 0
-4.48418 -2.8531 0
0 0 0

3.06663 3.89725 0
-4.41375 -2.33215 0
0 0 0

2.73763 4.69837 0
-4.5737 -2.12749 0
0 0 0

1.73096 5.44045 0
-3.78925 -2.70575 0
0 0 0

1.19928 2.91181 0
-3.33064 -2.12973 0
0 0 0

1.6184 4.54363 0
-2.6053 -2.04394 0
0 0 0

1.10845 2.57929 0
-2.1233 -1.85309 0
0 0 0

0.829457 2.84693 0
-2.97601 -2.06751 0
0 0 0

0.983827 0.84315 0
-2.55461 -2.57946 0
0 0 0

0.856414 2.54474 0
-1.41176 -1.8482 0
0 0 0

1.09477 1.31703 0
-1.13925 -2.33696 0
0 0 0

1.45162 0.930562 0
-2.04616 -2.48445 0
0 0 0

1.78562 3.62776 0
-1.62831 -1.65936 0
0 0 0

1.73178 1.43561 0
-1.38617 -2.38292 0
0 0 0

2.35954 4.16286 0
-1.70901 -1.84218 0
0 0 0

1.9035 4.02471 0
-0.863128 -1.86301 0
0 0 0

1.73848 4.09891 0
-0.42885 -1.93897 0
0 0 0

1.65187 4.14232 0
-1.2413 -1.22844 0
0 0 0

1.81134 3.61204 0
-0.427188 -1.95007 0
0 0 0

1.2784 3.9856 0
-0.439341 -1.94155 0
0 0 0

0.947652 2.45372 0
-0.548097 -2.05469 0
0 0 0

0.548487 3.558 0
-2.13449 -1.71661 0
0 0 0

0.37421 2.58692 0
-1.73446 -2.32304 0
0 0 0

0.863907 2.44288 0
-0.827998 -2.09093 0
0 0 0

0.977282 1.93698 0
-1.09371 -2.57726 0
0 0 0

0.667324 2.51669 0
-2.76777 -2.44911 0
0 0 0

1.2447 2.4781 0
-4.11652 -2.85398 0
0 0 0

1.60749 2.03195 0
-1.33799 -2.61407 0
0 0 0

2.19919 4.75773 0
-1.60657 -2.22238 0
0 0 0

1.50259 2.47926 0
-4.60691 -2.9682 0
0 0 0

1.2898 3.10294 0
-4.75485 -1.95167 0
0 0 0

SCALARS active double 1
LOOKUP_TABLE default
1
1
1
1
1
1
1
1
1
1
1
1
1
1
1
1
1
1
1
1
1
1
1
1
1
1
1
1
1
1
1
1
1
1
1
1
1
1
1
1
1
1
1
1
1
1
1
1
1
1
1
1
1
1
1
1
1
1
1
1
1
1
1
1
SCALARS extent double 1
LOOKUP_TABLE default
0.0125
0.0125
0.0125
0.0125
0.0125
0.0125
0.0125
0.0125
0.0125
0.0125
0.0125
0.0125
0.0125
0.0125
0.0125
0.0125
0.0125
0.0125
0.0125
0.0125
0.0125
0.0125
0.0125
0.0125
0.0125
0.0125
0.0125
0.0125
0.0125
0.0125
0.0125
0.0125
0.0125
0.0125
0.0125
0.0125
0.0125
0.0125
0.0125
0.0125
0.0125
0.0125
0.0125
0.0125
0.0125
0.0125
0.0125
0.0125
0.0125
0.0125
0.0125
0.0125
0.0125
0.0125
0.0125
0.0125
0.0125
0.0125
0.0125
0.0125
0.0125
0.0125
0.0125
0.0125
SCALARS pressure double 1
LOOKUP_TABLE default
-5274.44
219.12
3934.72
4912.7
-3174.44
-103.017
-1018.91
2195.97
-13.1604
-3786.77
-833.054
-3769.66
2857.36
-3339.21
1650.46
-237.496
-5112.2
1110.89
-487.299
1877.13
-722.069
1253.5
316.313
967.696
-1166.95
4342.55
-1363.71
-3296.96
-1708.71
2429.09
1140.56
-996.546
-915.933
3121.43
-2917.07
-1673.83
-1055.29
-81.169
-564.501
2702.55
-838.057
2873.76
-4667.99
5464.37
-3646.84
-1799.66
-4499.31
-549.049
-2437.68
-1464.72
-594.775
-3272.97
3059.17
1486.07
-1047.15
1342.1
2336.68
296.782
-385.913
2331.04
-1207.49
-1844.09
166.604
-309.814
SCALARS density double 1
LOOKUP_TABLE default
946.623
1002.28
1041.77
1052.42
967.525
998.929
989.459
1023.1
999.863
961.383
991.374
961.554
1030.16
965.868
1017.31
997.533
948.222
1011.62
994.945
1019.71
992.519
1013.12
1003.3
1010.11
987.937
1046.2
985.918
966.293
982.386
1025.58
1011.93
989.689
990.52
1033
970.118
982.743
989.085
999.156
994.146
1028.51
991.322
1030.34
952.612
1058.48
962.783
981.458
954.285
994.306
974.967
984.882
993.833
966.534
1032.33
1015.58
989.169
1014.06
1024.6
1003.09
995.995
1024.54
987.521
981.004
1001.73
996.783
