# vtk DataFile Version 3.0
Frame: 16, Time: 0.284
ASCII
DATASET UNSTRUCTURED_GRID
POINTS 64 double
0.406445 0.0297202 0 
0.407647 0.0483898 0 
0.433972 0.0294399 0 
0.434555 0.0479959 0 
0.409451 0.0699694 0 
0.410952 0.0920724 0 
0.435577 0.0696459 0 
0.436473 0.0918396 0 
0.411601 0.115417 0 
0.412068 0.13909 0 
0.436904 0.115266 0 
0.437223 0.139017 0 
0.412257 0.163533 0 
0.412372 0.188194 0 
0.437347 0.163493 0 
0.437419 0.18817 0 
0.460826 0.0292842 0 
0.461023 0.0477787 0 
0.486942 0.0292741 0 
0.487007 0.0477657 0 
0.461487 0.0694736 0 
0.461927 0.0917209 0 
0.487162 0.0694692 0 
0.487308 0.0917227 0 
0.462167 0.115187 0 
0.462349 0.138973 0 
0.487387 0.11518 0 
0.487446 0.138957 0 
0.462417 0.163457 0 
0.462455 0.188135 0 
0.487468 0.163428 0 
0.48748 0.188088 0 
0.513058 0.029274 0 
0.512992 0.0477654 0 
0.539173 0.0292838 0 
0.538977 0.0477778 0 
0.512837 0.0694685 0 
0.51269 0.0917215 0 
0.538512 0.0694715 0 
0.538071 0.0917171 0 
0.512607 0.115176 0 
0.512544 0.138949 0 
0.537828 0.115175 0 
0.537641 0.138949 0 
0.512518 0.163408 0 
0.512503 0.188053 0 
0.537567 0.163397 0 
0.537524 0.188029 0 
0.566028 0.0294393 0 
0.565445 0.0479947 0 
0.593555 0.0297195 0 
0.592353 0.0483884 0 
0.564423 0.069643 0 
0.563526 0.0918343 0 
0.590549 0.0699662 0 
0.589048 0.0920664 0 
0.563091 0.11525 0 
0.562768 0.138984 0 
0.588397 0.115398 0 
0.587925 0.139053 0 
0.562631 0.163407 0 
0.562543 0.18802 0 
0.587709 0.163438 0 
0.587562 0.188024 0 
CELLS 64 128
1 0
1 1
1 2
1 3
1 4
1 5
1 6
1 7
1 8
1 9
1 10
1 11
1 12
1 13
1 14
1 15
1 16
1 17
1 18
1 19
1 20
1 21
1 22
1 23
1 24
1 25
1 26
1 27
1 28
1 29
1 30
1 31
1 32
1 33
1 34
1 35
1 36
1 37
1 38
1 39
1 40
1 41
1 42
1 43
1 44
1 45
1 46
1 47
1 48
1 49
1 50
1 51
1 52
1 53
1 54
1 55
1 56
1 57
1 58
1 59
1 60
1 61
1 62
1 63
CELL_TYPES 64
1
1
1
1
1
1
1
1
1
1
1
1
1
1
1
1
1
1
1
1
1
1
1
1
1
1
1
1
1
1
1
1
1
1
1
1
1
1
1
1
1
1
1
1
1
1
1
1
1
1
1
1
1
1
1
1
1
1
1
1
1
1
1
1
POINT_DATA 64
VECTORS displacement double
-0.00605483 -0.38278 0 
-0.0048531 -0.38911 0 
-0.00352842 -0.38306 0 
-0.00294527 -0.389504 0 
-0.00304856 -0.392531 0 
-0.00154779 -0.395428 0 
-0.0019232 -0.392854 0 
-0.00102693 -0.39566 0 
-0.000898925 -0.397083 0 
-0.000431555 -0.39841 0 
-0.000595524 -0.397234 0 
-0.000277083 -0.398483 0 
-0.00024293 -0.398967 0 
-0.000127818 -0.399306 0 
-0.000153248 -0.399007 0 
-8.11182e-05 -0.39933 0 
-0.00167368 -0.383216 0 
-0.00147734 -0.389721 0 
-0.000558001 -0.383226 0 
-0.000492628 -0.389734 0 
-0.00101348 -0.393026 0 
-0.000573322 -0.395779 0 
-0.000338276 -0.393031 0 
-0.000191958 -0.395777 0 
-0.000333012 -0.397313 0 
-0.000150947 -0.398527 0 
-0.000112992 -0.39732 0 
-5.36301e-05 -0.398543 0 
-8.28755e-05 -0.399043 0 
-4.52699e-05 -0.399365 0 
-3.19692e-05 -0.399072 0 
-2.03071e-05 -0.399412 0 
0.000557706 -0.383226 0 
0.000492123 -0.389735 0 
0.00167345 -0.383216 0 
0.00147695 -0.389722 0 
0.000336965 -0.393031 0 
0.000189549 -0.395779 0 
0.00101249 -0.393028 0 
0.000571453 -0.395783 0 
0.000107172 -0.397324 0 
4.36606e-05 -0.398551 0 
0.000327535 -0.397325 0 
0.000140907 -0.398551 0 
1.79754e-05 -0.399092 0 
2.62774e-06 -0.399447 0 
6.69516e-05 -0.399103 0 
2.35246e-05 -0.399471 0 
0.00352829 -0.383061 0 
0.00294506 -0.389505 0 
0.00605481 -0.382781 0 
0.00485313 -0.389112 0 
0.00192274 -0.392857 0 
0.00102596 -0.395666 0 
0.0030488 -0.392534 0 
0.00154802 -0.395434 0 
0.000591264 -0.39725 0 
0.000268072 -0.398516 0 
0.000896723 -0.397102 0 
0.00042464 -0.398447 0 
0.000130727 -0.399093 0 
4.33677e-05 -0.39948 0 
0.000209155 -0.399062 0 
6.21354e-05 -0.399476 0 
VECTORS velocity double
-1.30777 -0.922869 0 
-1.02644 -0.603037 0 
-0.603576 -1.06671 0 
-0.545508 -0.794285 0 
-0.61697 -1.32396 0 
-0.339955 -1.86932 0 
-0.358263 -1.47377 0 
-0.20691 -1.97447 0 
-0.2284 -2.16382 0 
-0.130681 -2.43222 0 
-0.129737 -2.23067 0 
-0.06626 -2.46445 0 
-0.0780827 -2.56748 0 
-0.0391709 -2.65714 0 
-0.0383616 -2.58485 0 
-0.019921 -2.66518 0 
-0.185331 -1.13481 0 
-0.22705 -0.883251 0 
-0.0618133 -1.11595 0 
-0.0757461 -0.855824 0 
-0.170603 -1.5396 0 
-0.10474 -2.01846 0 
-0.0570341 -1.51329 0 
-0.0352318 -1.99798 0 
-0.060255 -2.26029 0 
-0.0259817 -2.48126 0 
-0.0209441 -2.25148 0 
-0.0101695 -2.48243 0 
-0.0145617 -2.59885 0 
-0.00857079 -2.68058 0 
-0.00680587 -2.60943 0 
-0.00515313 -2.70334 0 
0.061709 -1.116 0 
0.0755702 -0.855925 0 
0.185249 -1.13495 0 
0.226907 -0.883553 0 
0.0565652 -1.51355 0 
0.034346 -1.99845 0 
0.17023 -1.5404 0 
0.104034 -2.01987 0 
0.0185542 -2.25237 0 
0.00593285 -2.48423 0 
0.0582503 -2.26297 0 
0.0223226 -2.48666 0 
0.00116577 -2.6177 0 
-0.00157409 -2.72042 0 
0.00935227 -2.62366 0 
0.00216488 -2.73182 0 
0.603531 -1.06692 0 
0.545435 -0.794711 0 
1.30777 -0.923109 0 
1.02648 -0.603525 0 
0.358084 -1.47488 0 
0.206595 -1.9764 0 
0.617077 -1.32516 0 
0.340239 -1.8714 0 
0.129147 -2.23439 0 
0.0648404 -2.47188 0 
0.230231 -2.16784 0 
0.133143 -2.44012 0 
0.03054 -2.6199 0 
0.00476359 -2.73817 0 
0.0646229 -2.60648 0 
0.00621579 -2.73947 0 
SCALARS mass double 1
LOOKUP_TABLE default
0.625
0.625
0.625
0.625
0.625
0.625
0.625
0.625
0.625
0.625
0.625
0.625
0.625
0.625
0.625
0.625
0.625
0.625
0.625
0.625
0.625
0.625
0.625
0.625
0.625
0.625
0.625
0.625
0.625
0.625
0.625
0.625
0.625
0.625
0.625
0.625
0.625
0.625
0.625
0.625
0.625
0.625
0.625
0.625
0.625
0.625
0.625
0.625
0.625
0.625
0.625
0.625
0.625
0.625
0.625
0.625
0.625
0.625
0.625
0.625
0.625
0.625
0.625
0.625
SCALARS volume double 1
LOOKUP_TABLE default
0.000422881
0.000577641
0.000419024
0.000577391
0.000566482
0.000584516
0.000568872
0.000586485
0.000595145
0.000603476
0.000597251
0.000605057
0.000617891
0.000619515
0.000618356
0.000619883
0.000395345
0.000557152
0.000395212
0.00055726
0.000560218
0.000584179
0.000560472
0.000584122
0.000596184
0.000604378
0.000595908
0.000604197
0.000617431
0.000619258
0.000617031
0.000618717
0.000395211
0.000557255
0.00039534
0.000557132
0.000560468
0.000584109
0.000560191
0.000584116
0.000595833
0.000604058
0.000595943
0.000603965
0.000616609
0.000618213
0.000616263
0.000617948
0.000419017
0.000577365
0.000422873
0.00057761
0.00056884
0.000586408
0.000566445
0.000584426
0.000596948
0.000604536
0.000594803
0.000602909
0.000616477
0.000617456
0.000615799
0.000616842
VECTORS momentum double
-0.817354 -0.576793 0 
-0.641528 -0.376898 0 
-0.377235 -0.666696 0 
-0.340942 -0.496428 0 
-0.385606 -0.827472 0 
-0.212472 -1.16833 0 
-0.223914 -0.921107 0 
-0.129318 -1.23404 0 
-0.14275 -1.35239 0 
-0.0816758 -1.52014 0 
-0.0810857 -1.39417 0 
-0.0414125 -1.54028 0 
-0.0488017 -1.60467 0 
-0.0244818 -1.66072 0 
-0.023976 -1.61553 0 
-0.0124506 -1.66574 0 
-0.115832 -0.709257 0 
-0.141906 -0.552032 0 
-0.0386333 -0.697469 0 
-0.0473413 -0.53489 0 
-0.106627 -0.96225 0 
-0.0654624 -1.26154 0 
-0.0356463 -0.945804 0 
-0.0220198 -1.24874 0 
-0.0376594 -1.41268 0 
-0.0162386 -1.55079 0 
-0.0130901 -1.40717 0 
-0.00635593 -1.55152 0 
-0.00910107 -1.62428 0 
-0.00535675 -1.67536 0 
-0.00425367 -1.63089 0 
-0.00322071 -1.68959 0 
0.0385681 -0.697499 0 
0.0472313 -0.534953 0 
0.115781 -0.709346 0 
0.141817 -0.55222 0 
0.0353532 -0.945971 0 
0.0214662 -1.24903 0 
0.106394 -0.962749 0 
0.065021 -1.26242 0 
0.0115964 -1.40773 0 
0.00370803 -1.55264 0 
0.0364064 -1.41436 0 
0.0139517 -1.55416 0 
0.000728609 -1.63606 0 
-0.000983804 -1.70026 0 
0.00584517 -1.63979 0 
0.00135305 -1.70739 0 
0.377207 -0.666824 0 
0.340897 -0.496694 0 
0.817358 -0.576943 0 
0.641547 -0.377203 0 
0.223803 -0.921797 0 
0.129122 -1.23525 0 
0.385673 -0.828226 0 
0.212649 -1.16962 0 
0.0807166 -1.39649 0 
0.0405252 -1.54492 0 
0.143895 -1.3549 0 
0.0832144 -1.52508 0 
0.0190875 -1.63744 0 
0.00297725 -1.71136 0 
0.0403893 -1.62905 0 
0.00388487 -1.71217 0 
VECTORS body_force double
0 -9.81 0 
0 -9.81 0 
0 -9.81 0 
0 -9.81 0 
0 -9.81 0 
0 -9.81 0 
0 -9.81 0 
0 -9.81 0 
0 -9.81 0 
0 -9.81 0 
0 -9.81 0 
0 -9.81 0 
0 -9.81 0 
0 -9.81 0 
0 -9.81 0 
0 -9.81 0 
0 -9.81 0 
0 -9.81 0 
0 -9.81 0 
0 -9.81 0 
0 -9.81 0 
0 -9.81 0 
0 -9.81 0 
0 -9.81 0 
0 -9.81 0 
0 -9.81 0 
0 -9.81 0 
0 -9.81 0 
0 -9.81 0 
0 -9.81 0 
0 -9.81 0 
0 -9.81 0 
0 -9.81 0 
0 -9.81 0 
0 -9.81 0 
0 -9.81 0 
0 -9.81 0 
0 -9.81 0 
0 -9.81 0 
0 -9.81 0 
0 -9.81 0 
0 -9.81 0 
0 -9.81 0 
0 -9.81 0 
0 -9.81 0 
0 -9.81 0 
0 -9.81 0 
0 -9.81 0 
0 -9.81 0 
0 -9.81 0 
0 -9.81 0 
0 -9.81 0 
0 -9.81 0 
0 -9.81 0 
0 -9.81 0 
0 -9.81 0 
0 -9.81 0 
0 -9.81 0 
0 -9.81 0 
0 -9.81 0 
0 -9.81 0 
0 -9.81 0 
0 -9.81 0 
0 -9.81 0 
TENSORS cauchy_stress double
-15068.2 508.088 0
508.088 -60058.7 0
0 0 0

1227.12 1657.28 0
1657.28 -16380.8 0
0 0 0

-15617.1 -136.832 0
-136.832 -61272.1 0
0 0 0

1149.63 593.805 0
593.805 -16386.5 0
0 0 0

-2157.09 2151.6 0
2151.6 -16748 0
0 0 0

-2243.21 1107.85 0
1107.85 -10635.2 0
0 0 0

-1978.52 999.112 0
999.112 -16116.8 0
0 0 0

-2061.63 572.138 0
572.138 -10169.9 0
0 0 0

-1884.75 559.778 0
559.778 -7528.19 0
0 0 0

-1544.01 421.272 0
421.272 -5195.47 0
0 0 0

-1684.57 303.611 0
303.611 -7048.93 0
0 0 0

-1394.46 251.179 0
251.179 -4841.91 0
0 0 0

-383.908 127.614 0
127.614 -1816.11 0
0 0 0

-364.723 106.663 0
106.663 -1330.51 0
0 0 0

-340.678 56.0798 0
56.0798 -1714.58 0
0 0 0

-330.543 53.127 0
53.127 -1250.44 0
0 0 0

-23055.1 104.317 0
104.317 -65020.6 0
0 0 0

-3646.11 544.819 0
544.819 -18452.8 0
0 0 0

-23074.8 19.6187 0
19.6187 -65065.6 0
0 0 0

-3638.85 166.36 0
166.36 -18422.6 0
0 0 0

-4251.93 730.463 0
730.463 -16791.6 0
0 0 0

-2727.57 515.985 0
515.985 -10261.6 0
0 0 0

-4232.52 238.18 0
238.18 -16723.7 0
0 0 0

-2736.43 173.225 0
173.225 -10271.7 0
0 0 0

-2047.41 301.96 0
301.96 -7029.87 0
0 0 0

-1636.17 184.08 0
184.08 -4815.99 0
0 0 0

-2075.32 91.3338 0
91.3338 -7091.14 0
0 0 0

-1653.85 42.2069 0
42.2069 -4855.96 0
0 0 0

-546.339 16.4071 0
16.4071 -1796.66 0
0 0 0

-455.716 -26.3716 0
-26.3716 -1319.24 0
0 0 0

-583.801 -26.6287 0
-26.6287 -1884 0
0 0 0

-506.076 -58.6436 0
-58.6436 -1436.82 0
0 0 0

-23074.7 -20.3705 0
-20.3705 -65066.1 0
0 0 0

-3639.03 -168.132 0
-168.132 -18424.1 0
0 0 0

-23055.6 -105.054 0
-105.054 -65022.4 0
0 0 0

-3647.8 -546.386 0
-546.386 -18457.9 0
0 0 0

-4231.98 -241.904 0
-241.904 -16725.7 0
0 0 0

-2736.09 -179.81 0
-179.81 -10276.3 0
0 0 0

-4253.7 -733.817 0
-733.817 -16799 0
0 0 0

-2732.17 -522.354 0
-522.354 -10277.8 0
0 0 0

-2081.59 -110.371 0
-110.371 -7109.14 0
0 0 0

-1667.45 -73.7614 0
-73.7614 -4886.74 0
0 0 0

-2069.7 -321.463 0
-321.463 -7085.34 0
0 0 0

-1675.84 -216.699 0
-216.699 -4907.83 0
0 0 0

-629.209 -41.7529 0
-41.7529 -1970.02 0
0 0 0

-565.662 -55.7556 0
-55.7556 -1533.98 0
0 0 0

-661.54 -88.3383 0
-88.3383 -2045.67 0
0 0 0

-590.366 -90.6023 0
-90.6023 -1591.79 0
0 0 0

-15617.7 136.589 0
136.589 -61274.6 0
0 0 0

1147.68 -594.297 0
-594.297 -16393.4 0
0 0 0

-15068.9 -508.282 0
-508.282 -60061.6 0
0 0 0

1224.75 -1657.31 0
-1657.31 -16388.6 0
0 0 0

-1979.71 -1000.06 0
-1000.06 -16126.5 0
0 0 0

-2065.55 -574.621 0
-574.621 -10191.4 0
0 0 0

-2158.79 -2151.78 0
-2151.78 -16758.7 0
0 0 0

-2248.37 -1109.52 0
-1109.52 -10659.7 0
0 0 0

-1707.47 -312.63 0
-312.63 -7123.51 0
0 0 0

-1437.66 -266.608 0
-266.608 -4964.42 0
0 0 0

-1911.52 -567.327 0
-567.327 -7611.85 0
0 0 0

-1591.64 -440.38 0
-440.38 -5328.6 0
0 0 0

-550.655 -96.6165 0
-96.6165 -2089.74 0
0 0 0

-642.728 -101.667 0
-101.667 -1692.65 0
0 0 0

-613.815 -195.69 0
-195.69 -2238.22 0
0 0 0

-699.959 -175.946 0
-175.946 -1826.78 0
0 0 0

TENSORS velocity_gradient double
10.7523 1.03464 0
-2.42693 -19.2062 0
0 0 0

10.0065 4.85869 0
-3.6441 -18.7623 0
0 0 0

10.7576 0.379596 0
-2.4094 -21.3874 0
0 0 0

10.0294 2.84831 0
-3.63652 -19.6854 0
0 0 0

7.56802 9.41734 0
-3.36595 -18.0516 0
0 0 0

4.71006 9.21799 0
-2.69155 -17.9705 0
0 0 0

7.59858 6.12151 0
-3.37315 -17.2751 0
0 0 0

4.72785 6.02562 0
-2.6968 -17.2525 0
0 0 0

3.05862 4.09105 0
-1.88148 -11.9491 0
0 0 0

1.87481 4.07284 0
-1.02487 -11.9359 0
0 0 0

3.06374 2.84466 0
-1.88519 -11.0472 0
0 0 0

1.87713 2.83232 0
-1.02655 -11.0382 0
0 0 0

1.15542 1.23024 0
-0.584597 -3.40687 0
0 0 0

0.696956 1.22867 0
-0.37651 -3.40616 0
0 0 0

1.15591 0.765925 0
-0.584819 -3.19613 0
0 0 0

0.697217 0.764941 0
-0.376628 -3.19568 0
0 0 0

7.40274 0.00515936 0
-0.16477 -22.6892 0
0 0 0

7.17732 1.37777 0
-0.252558 -20.295 0
0 0 0

7.40274 0.000901225 0
-0.164737 -22.8318 0
0 0 0

7.17761 0.455253 0
-0.252542 -20.3732 0
0 0 0

5.57665 3.31979 0
-0.257721 -16.8451 0
0 0 0

3.60887 3.28816 0
-0.239126 -16.8448 0
0 0 0

5.57646 1.09946 0
-0.257719 -16.8241 0
0 0 0

3.60817 1.08894 0
-0.239119 -16.824 0
0 0 0

2.27408 1.65614 0
-0.257333 -10.6011 0
0 0 0

1.19676 1.64978 0
-0.289866 -10.6013 0
0 0 0

2.27409 0.528563 0
-0.257333 -10.6351 0
0 0 0

1.19717 0.526474 0
-0.289853 -10.6352 0
0 0 0

0.634098 0.395049 0
-0.461808 -3.21467 0
0 0 0

0.360833 0.394742 0
-0.709587 -3.21495 0
0 0 0

0.634298 0.118721 0
-0.461627 -3.46523 0
0 0 0

0.361157 0.118624 0
-0.709292 -3.46532 0
0 0 0

7.40402 -0.0032084 0
0.15913 -22.8342 0
0 0 0

7.1796 -0.464329 0
0.242095 -20.3784 0
0 0 0

7.40402 -0.00716953 0
0.159161 -22.6965 0
0 0 0

7.17932 -1.38446 0
0.242107 -20.3105 0
0 0 0

5.58219 -1.11832 0
0.233779 -16.833 0
0 0 0

3.61846 -1.10777 0
0.199435 -16.8328 0
0 0 0

5.58245 -3.33357 0
0.233783 -16.8717 0
0 0 0

3.61929 -3.30197 0
0.199449 -16.8712 0
0 0 0

2.28216 -0.601585 0
0.127935 -10.697 0
0 0 0

1.20045 -0.599379 0
0.0423392 -10.6968 0
0 0 0

2.28236 -1.7343 0
0.127951 -10.7866 0
0 0 0

1.20047 -1.72778 0
0.0423413 -10.7861 0
0 0 0

0.615069 -0.173782 0
-0.126215 -3.69844 0
0 0 0

0.310041 -0.173646 0
-0.339507 -3.69834 0
0 0 0

0.61516 -0.48247 0
-0.126151 -3.91429 0
0 0 0

0.310228 -0.482081 0
-0.339376 -3.91402 0
0 0 0

10.7599 -0.380724 0
2.40763 -21.3976 0
0 0 0

10.0336 -2.85094 0
3.6334 -19.7072 0
0 0 0

10.7546 -1.03444 0
2.42514 -19.218 0
0 0 0

10.0108 -4.85562 0
3.64096 -18.7873 0
0 0 0

7.61063 -6.12721 0
3.36708 -17.312 0
0 0 0

4.74938 -6.03158 0
2.68735 -17.2893 0
0 0 0

7.58019 -9.41246 0
3.35985 -18.0925 0
0 0 0

4.73156 -9.2155 0
2.68203 -18.0147 0
0 0 0

3.10072 -2.91582 0
1.85028 -11.3112 0
0 0 0

1.93226 -2.90352 0
0.95785 -11.3018 0
0 0 0

3.09571 -4.14373 0
1.84646 -12.2491 0
0 0 0

1.93005 -4.12561 0
0.956165 -12.2352 0
0 0 0

1.04692 -1.00352 0
0.386677 -4.21963 0
0 0 0

0.325428 -1.0017 0
-0.00197468 -4.21864 0
0 0 0

1.04629 -1.7348 0
0.386342 -4.61355 0
0 0 0

0.325294 -1.73176 0
-0.00204679 -4.61192 0
0 0 0

SCALARS active double 1
LOOKUP_TABLE default
1
1
1
1
1
1
1
1
1
1
1
1
1
1
1
1
1
1
1
1
1
1
1
1
1
1
1
1
1
1
1
1
1
1
1
1
1
1
1
1
1
1
1
1
1
1
1
1
1
1
1
1
1
1
1
1
1
1
1
1
1
1
1
1
SCALARS extent double 1
LOOKUP_TABLE default
0.0125
0.0125
0.0125
0.0125
0.0125
0.0125
0.0125
0.0125
0.0125
0.0125
0.0125
0.0125
0.0125
0.0125
0.0125
0.0125
0.0125
0.0125
0.0125
0.0125
0.0125
0.0125
0.0125
0.0125
0.0125
0.0125
0.0125
0.0125
0.0125
0.0125
0.0125
0.0125
0.0125
0.0125
0.0125
0.0125
0.0125
0.0125
0.0125
0.0125
0.0125
0.0125
0.0125
0.0125
0.0125
0.0125
0.0125
0.0125
0.0125
0.0125
0.0125
0.0125
0.0125
0.0125
0.0125
0.0125
0.0125
0.0125
0.0125
0.0125
0.0125
0.0125
0.0125
0.0125
SCALARS pressure double 1
LOOKUP_TABLE default
37563.4
7576.86
38444.6
7618.43
9452.52
6439.23
9047.67
6115.75
4706.47
3369.74
4366.75
3118.19
1100.01
847.618
1027.63
790.492
44037.8
11049.5
44070.2
11030.7
10521.8
6494.58
10478.1
6504.05
4538.64
3226.08
4583.23
3254.91
1171.5
887.476
1233.9
971.447
44070.4
11031.6
44039
11052.8
10478.8
6506.18
10526.4
6504.99
4595.37
3277.09
4577.52
3291.84
1299.61
1049.82
1353.6
1091.08
38446.1
7622.87
37565.3
7581.94
9053.12
6128.49
9458.76
6454.04
4415.49
3201.04
4761.68
3460.12
1320.2
1167.69
1426.02
1263.37
SCALARS density double 1
LOOKUP_TABLE default
1477.96
1081.99
1491.56
1082.46
1103.3
1069.26
1098.66
1065.67
1050.17
1035.67
1046.46
1032.96
1011.51
1008.85
1010.74
1008.25
1580.9
1121.78
1581.43
1121.56
1115.64
1069.88
1115.13
1069.98
1048.33
1034.12
1048.82
1034.43
1012.26
1009.27
1012.92
1010.15
1581.43
1121.57
1580.92
1121.82
1115.14
1070.01
1115.69
1069.99
1048.95
1034.67
1048.76
1034.83
1013.61
1010.98
1014.18
1011.41
1491.59
1082.51
1477.98
1082.04
1098.73
1065.81
1103.37
1069.43
1046.99
1033.85
1050.77
1036.64
1013.82
1012.22
1014.94
1013.23
