# vtk DataFile Version 3.0
Frame: 34, Time: 0.584
ASCII
DATASET UNSTRUCTURED_GRID
POINTS 64 double
0.930717 0.302583 0 
0.919168 0.279804 0 
0.90645 0.314754 0 
0.895009 0.292815 0 
0.905752 0.258567 0 
0.894209 0.234787 0 
0.883848 0.271132 0 
0.871536 0.246565 0 
0.886067 0.211659 0 
0.875748 0.188303 0 
0.862606 0.222802 0 
0.853141 0.198536 0 
0.867559 0.163079 0 
0.857726 0.140116 0 
0.844091 0.173964 0 
0.833492 0.150254 0 
0.88553 0.328178 0 
0.872764 0.306519 0 
0.863628 0.339794 0 
0.848644 0.315332 0 
0.862428 0.283484 0 
0.850706 0.258424 0 
0.838869 0.292317 0 
0.828418 0.266502 0 
0.839839 0.233114 0 
0.830536 0.208842 0 
0.81749 0.241394 0 
0.806791 0.217952 0 
0.821573 0.184035 0 
0.80993 0.160798 0 
0.797983 0.194564 0 
0.787123 0.171339 0 
0.838371 0.348781 0 
0.824334 0.325984 0 
0.813054 0.35781 0 
0.801559 0.33448 0 
0.816181 0.301668 0 
0.806078 0.276372 0 
0.791802 0.309436 0 
0.782987 0.284989 0 
0.794896 0.252634 0 
0.783613 0.229345 0 
0.772101 0.262787 0 
0.761682 0.240605 0 
0.773818 0.206404 0 
0.764818 0.182736 0 
0.750828 0.218004 0 
0.741912 0.193731 0 
0.788637 0.365078 0 
0.778247 0.341725 0 
0.76543 0.376239 0 
0.754445 0.352607 0 
0.768342 0.317466 0 
0.758704 0.294182 0 
0.745698 0.328971 0 
0.735218 0.307201 0 
0.748614 0.271587 0 
0.737916 0.248846 0 
0.725313 0.285076 0 
0.714602 0.260937 0 
0.726807 0.224315 0 
0.717496 0.199549 0 
0.703381 0.23591 0 
0.694145 0.210252 0 
CELLS 64 128
1 0
1 1
1 2
1 3
1 4
1 5
1 6
1 7
1 8
1 9
1 10
1 11
1 12
1 13
1 14
1 15
1 16
1 17
1 18
1 19
1 20
1 21
1 22
1 23
1 24
1 25
1 26
1 27
1 28
1 29
1 30
1 31
1 32
1 33
1 34
1 35
1 36
1 37
1 38
1 39
1 40
1 41
1 42
1 43
1 44
1 45
1 46
1 47
1 48
1 49
1 50
1 51
1 52
1 53
1 54
1 55
1 56
1 57
1 58
1 59
1 60
1 61
1 62
1 63
CELL_TYPES 64
1
1
1
1
1
1
1
1
1
1
1
1
1
1
1
1
1
1
1
1
1
1
1
1
1
1
1
1
1
1
1
1
1
1
1
1
1
1
1
1
1
1
1
1
1
1
1
1
1
1
1
1
1
1
1
1
1
1
1
1
1
1
1
1
POINT_DATA 64
VECTORS displacement double
0.418217 -0.309917 0 
0.406668 -0.357696 0 
0.36895 -0.297746 0 
0.357509 -0.344685 0 
0.393252 -0.403933 0 
0.381709 -0.452713 0 
0.346348 -0.391368 0 
0.334036 -0.440935 0 
0.373567 -0.500841 0 
0.363248 -0.549197 0 
0.325106 -0.489698 0 
0.315641 -0.538964 0 
0.355059 -0.599421 0 
0.345226 -0.647384 0 
0.306591 -0.588536 0 
0.295992 -0.637246 0 
0.32303 -0.284322 0 
0.310264 -0.330981 0 
0.276128 -0.272706 0 
0.261144 -0.322168 0 
0.299928 -0.379016 0 
0.288206 -0.429076 0 
0.251369 -0.370183 0 
0.240918 -0.420998 0 
0.277339 -0.479386 0 
0.268036 -0.528658 0 
0.22999 -0.471106 0 
0.219291 -0.519548 0 
0.259073 -0.578465 0 
0.24743 -0.626702 0 
0.210483 -0.567936 0 
0.199623 -0.616161 0 
0.225871 -0.263719 0 
0.211834 -0.311516 0 
0.175554 -0.25469 0 
0.164059 -0.30302 0 
0.203681 -0.360832 0 
0.193578 -0.411128 0 
0.154302 -0.353064 0 
0.145487 -0.402511 0 
0.182396 -0.459866 0 
0.171113 -0.508155 0 
0.134601 -0.449713 0 
0.124182 -0.496895 0 
0.161318 -0.556096 0 
0.152318 -0.604764 0 
0.113328 -0.544496 0 
0.104412 -0.593769 0 
0.126137 -0.247422 0 
0.115747 -0.295775 0 
0.0779296 -0.236261 0 
0.0669449 -0.284893 0 
0.105842 -0.345034 0 
0.0962038 -0.393318 0 
0.0581982 -0.333529 0 
0.0477184 -0.380299 0 
0.0861143 -0.440913 0 
0.0754157 -0.488654 0 
0.037813 -0.427424 0 
0.0271019 -0.476563 0 
0.0643065 -0.538185 0 
0.0549958 -0.587951 0 
0.0158811 -0.52659 0 
0.00664483 -0.577248 0 
VECTORS velocity double
-2.02936 -1.91793 0 
-2.65927 -1.17192 0 
-1.65238 -0.243019 0 
-2.17966 0.0822958 0 
-2.15542 -1.27391 0 
-1.83968 -0.969892 0 
-1.78173 0.0608713 0 
-1.75161 -0.78604 0 
-0.83141 -0.19602 0 
-0.933962 -0.77385 0 
-1.37958 -0.577702 0 
-1.36325 -0.851089 0 
-0.787053 -0.64015 0 
-1.49522 -0.295866 0 
-1.36949 -0.513372 0 
-1.14911 -0.469776 0 
-0.974579 -0.90966 0 
-1.48083 -1.08852 0 
-1.20898 -0.245341 0 
-2.36028 -0.667096 0 
-1.12303 -0.690088 0 
-1.14819 -1.51089 0 
-2.20931 -0.776764 0 
-2.09174 -0.939163 0 
-1.6256 -1.23332 0 
-1.4735 -1.08357 0 
-2.22665 -0.836305 0 
-1.62328 -0.985137 0 
-1.53776 -1.24095 0 
-1.05923 -1.21587 0 
-1.4464 -0.88472 0 
-1.61724 -0.406514 0 
-1.92123 -0.983295 0 
-1.78104 -0.599597 0 
-2.11497 -0.536778 0 
-1.36312 -0.675025 0 
-1.69782 -0.783441 0 
-1.66549 -0.776328 0 
-1.13576 -0.391122 0 
-1.6637 -0.425826 0 
-1.15874 -0.728066 0 
-0.685986 -0.627034 0 
-1.50427 -1.0714 0 
-0.958792 -0.429049 0 
-1.12292 -0.610054 0 
-1.30048 -0.486031 0 
-1.46464 -0.0927377 0 
-1.37837 -0.79095 0 
-1.50517 -0.224948 0 
-1.78578 -0.979337 0 
-1.44931 -0.994859 0 
-2.01934 -0.620584 0 
-1.4391 -1.00826 0 
-1.72146 -0.699856 0 
-1.67171 -0.616771 0 
-1.91892 -0.333483 0 
-1.14739 -0.506663 0 
-0.99129 -0.324094 0 
-1.51764 -0.455199 0 
-1.36162 -0.577593 0 
-1.50474 -0.199554 0 
-1.81849 0.0151065 0 
-1.43175 0.0116485 0 
-1.62492 -0.126458 0 
SCALARS mass double 1
LOOKUP_TABLE default
0.625
0.625
0.625
0.625
0.625
0.625
0.625
0.625
0.625
0.625
0.625
0.625
0.625
0.625
0.625
0.625
0.625
0.625
0.625
0.625
0.625
0.625
0.625
0.625
0.625
0.625
0.625
0.625
0.625
0.625
0.625
0.625
0.625
0.625
0.625
0.625
0.625
0.625
0.625
0.625
0.625
0.625
0.625
0.625
0.625
0.625
0.625
0.625
0.625
0.625
0.625
0.625
0.625
0.625
0.625
0.625
0.625
0.625
0.625
0.625
0.625
0.625
0.625
0.625
SCALARS volume double 1
LOOKUP_TABLE default
0.00064115
0.000619473
0.000597331
0.000624052
0.000601653
0.000595056
0.000607845
0.000595605
0.000593179
0.000593031
0.000625139
0.000636495
0.000641307
0.000626175
0.000620557
0.000607091
0.000613193
0.000600234
0.00067257
0.000656281
0.000638982
0.000645521
0.000644322
0.000620989
0.000589041
0.000611405
0.000631504
0.000650825
0.000604502
0.000639608
0.000621189
0.000640732
0.000665211
0.000622376
0.000611052
0.000617271
0.000609444
0.000633633
0.000635833
0.000634044
0.000619428
0.000610971
0.000609848
0.000572128
0.000637609
0.000589911
0.000591652
0.000604763
0.000627378
0.000618011
0.000622816
0.000614953
0.000593386
0.00061214
0.000619043
0.000609449
0.000597979
0.000633897
0.000606508
0.000633079
0.000628442
0.000651798
0.000623269
0.000636677
VECTORS momentum double
-1.26835 -1.1987 0 
-1.66204 -0.732452 0 
-1.03274 -0.151887 0 
-1.36229 0.0514349 0 
-1.34714 -0.796195 0 
-1.1498 -0.606182 0 
-1.11358 0.0380446 0 
-1.09475 -0.491275 0 
-0.519631 -0.122513 0 
-0.583727 -0.483656 0 
-0.862239 -0.361064 0 
-0.852031 -0.531931 0 
-0.491908 -0.400094 0 
-0.93451 -0.184916 0 
-0.855931 -0.320857 0 
-0.718194 -0.29361 0 
-0.609112 -0.568538 0 
-0.925519 -0.680323 0 
-0.755614 -0.153338 0 
-1.47517 -0.416935 0 
-0.701894 -0.431305 0 
-0.717619 -0.944306 0 
-1.38082 -0.485478 0 
-1.30734 -0.586977 0 
-1.016 -0.770828 0 
-0.92094 -0.677233 0 
-1.39166 -0.522691 0 
-1.01455 -0.615711 0 
-0.961097 -0.775594 0 
-0.662021 -0.75992 0 
-0.903999 -0.55295 0 
-1.01077 -0.254071 0 
-1.20077 -0.614559 0 
-1.11315 -0.374748 0 
-1.32186 -0.335487 0 
-0.851952 -0.421891 0 
-1.06113 -0.48965 0 
-1.04093 -0.485205 0 
-0.709852 -0.244451 0 
-1.03981 -0.266141 0 
-0.724214 -0.455041 0 
-0.428741 -0.391896 0 
-0.940169 -0.669622 0 
-0.599245 -0.268156 0 
-0.701826 -0.381284 0 
-0.812802 -0.303769 0 
-0.915401 -0.0579611 0 
-0.861483 -0.494344 0 
-0.940731 -0.140592 0 
-1.11611 -0.612086 0 
-0.905821 -0.621787 0 
-1.26208 -0.387865 0 
-0.899435 -0.63016 0 
-1.07591 -0.43741 0 
-1.04482 -0.385482 0 
-1.19933 -0.208427 0 
-0.71712 -0.316664 0 
-0.619556 -0.202559 0 
-0.948527 -0.284499 0 
-0.851013 -0.360996 0 
-0.940464 -0.124721 0 
-1.13656 0.00944155 0 
-0.894847 0.00728029 0 
-1.01558 -0.0790362 0 
VECTORS body_force double
0 -9.81 0 
0 -9.81 0 
0 -9.81 0 
0 -9.81 0 
0 -9.81 0 
0 -9.81 0 
0 -9.81 0 
0 -9.81 0 
0 -9.81 0 
0 -9.81 0 
0 -9.81 0 
0 -9.81 0 
0 -9.81 0 
0 -9.81 0 
0 -9.81 0 
0 -9.81 0 
0 -9.81 0 
0 -9.81 0 
0 -9.81 0 
0 -9.81 0 
0 -9.81 0 
0 -9.81 0 
0 -9.81 0 
0 -9.81 0 
0 -9.81 0 
0 -9.81 0 
0 -9.81 0 
0 -9.81 0 
0 -9.81 0 
0 -9.81 0 
0 -9.81 0 
0 -9.81 0 
0 -9.81 0 
0 -9.81 0 
0 -9.81 0 
0 -9.81 0 
0 -9.81 0 
0 -9.81 0 
0 -9.81 0 
0 -9.81 0 
0 -9.81 0 
0 -9.81 0 
0 -9.81 0 
0 -9.81 0 
0 -9.81 0 
0 -9.81 0 
0 -9.81 0 
0 -9.81 0 
0 -9.81 0 
0 -9.81 0 
0 -9.81 0 
0 -9.81 0 
0 -9.81 0 
0 -9.81 0 
0 -9.81 0 
0 -9.81 0 
0 -9.81 0 
0 -9.81 0 
0 -9.81 0 
0 -9.81 0 
0 -9.81 0 
0 -9.81 0 
0 -9.81 0 
0 -9.81 0 
TENSORS cauchy_stress double
3216.75 -2412 0
-2412 1689.35 0
0 0 0

729.037 858.607 0
858.607 -2437.2 0
0 0 0

-6529.34 -2394.16 0
-2394.16 -2178.3 0
0 0 0

-357.762 -6103.6 0
-6103.6 65.9956 0
0 0 0

-2808.16 3732.97 0
3732.97 -4513.08 0
0 0 0

-9143.99 -5644.04 0
-5644.04 -297.55 0
0 0 0

-7527.79 -1629.26 0
-1629.26 2175.44 0
0 0 0

-12849.3 -391.635 0
-391.635 3584.98 0
0 0 0

-5801.13 646.415 0
646.415 -4247.88 0
0 0 0

-6443.7 199.003 0
199.003 -3653.29 0
0 0 0

-3612.35 -4167.09 0
-4167.09 3655.18 0
0 0 0

-430.257 462.995 0
462.995 3934.98 0
0 0 0

710.936 -3443.19 0
-3443.19 4242.18 0
0 0 0

1654.77 1188.03 0
1188.03 -1293.48 0
0 0 0

-1411.72 -526.787 0
-526.787 39.8248 0
0 0 0

-2687.04 -1045.18 0
-1045.18 -2903.76 0
0 0 0

-610.571 -2160.79 0
-2160.79 -3057.17 0
0 0 0

-4202.19 -1363.38 0
-1363.38 -3573.13 0
0 0 0

9296.77 8674.46 0
8674.46 4809.8 0
0 0 0

8502.64 -82.5889 0
-82.5889 889.208 0
0 0 0

2074.04 2750.89 0
2750.89 2180.82 0
0 0 0

1642.37 5302.56 0
5302.56 4570.47 0
0 0 0

2698.78 6922.25 0
6922.25 3156.43 0
0 0 0

-4072.06 3774.81 0
3774.81 2834.06 0
0 0 0

-7934.07 6046.79 0
6046.79 -3461.29 0
0 0 0

-3063.29 3338.79 0
3338.79 -1165.87 0
0 0 0

270.462 1063.87 0
1063.87 1720.58 0
0 0 0

3466.51 -1103.48 0
-1103.48 4319.83 0
0 0 0

-5769.35 212.813 0
212.813 -643.53 0
0 0 0

1862.07 541.702 0
541.702 2580.85 0
0 0 0

-684.305 -3793.07 0
-3793.07 -491.849 0
0 0 0

-307.201 2425.19 0
2425.19 5087.9 0
0 0 0

10949.4 -1989.53 0
-1989.53 1041.58 0
0 0 0

-366.213 3676.92 0
3676.92 -442.959 0
0 0 0

-1727.22 1646.81 0
1646.81 -2613.1 0
0 0 0

-2940.18 5912.13 0
5912.13 547.246 0
0 0 0

-6441.6 -2217.75 0
-2217.75 1594.55 0
0 0 0

-3557.57 3907.65 0
3907.65 6195.83 0
0 0 0

1612.6 1029.27 0
1029.27 1692.19 0
0 0 0

7150.4 1422.97 0
1422.97 -4387.65 0
0 0 0

-3602.66 476.535 0
476.535 1880.47 0
0 0 0

-2173.44 714.373 0
714.373 -2192.22 0
0 0 0

2337.36 4150.05 0
4150.05 -7056.97 0
0 0 0

-3534.2 1690.82 0
1690.82 -13463.6 0
0 0 0

2382.82 -4166.09 0
-4166.09 1458.19 0
0 0 0

-9390.52 -1178.55 0
-1178.55 -1720.98 0
0 0 0

-9301.19 -1126.9 0
-1126.9 -1243.74 0
0 0 0

-6433.07 -1007.69 0
-1007.69 103.384 0
0 0 0

1807.04 -432.071 0
-432.071 -1076.78 0
0 0 0

256.845 730.303 0
730.303 -2419.54 0
0 0 0

-2474.19 1835.02 0
1835.02 1800.96 0
0 0 0

-2282.16 -1979.49 0
-1979.49 -834.352 0
0 0 0

-7184.21 -485.105 0
-485.105 -2797.73 0
0 0 0

-1104.96 -1875.66 0
-1875.66 -2893.11 0
0 0 0

-2989.36 -2882.89 0
-2882.89 1147.65 0
0 0 0

-1237.75 -4444.91 0
-4444.91 -3607.58 0
0 0 0

-4789.36 -2439.5 0
-2439.5 -3709.96 0
0 0 0

592.422 2692.54 0
2692.54 2125.94 0
0 0 0

-601.982 -241.557 0
-241.557 -5173.67 0
0 0 0

-1747.62 2919.12 0
2919.12 4217.45 0
0 0 0

524.8 2683.2 0
2683.2 531.252 0
0 0 0

3768.76 -800.316 0
-800.316 4304.88 0
0 0 0

-2092.17 1704.87 0
1704.87 1558.76 0
0 0 0

-376.664 -588.969 0
-588.969 3936.46 0
0 0 0

TENSORS velocity_gradient double
-7.38163 11.7602 0
-14.7695 2.68009 0
0 0 0

-9.22406 0.154068 0
-15.0619 2.53518 0
0 0 0

-5.60098 10.5913 0
-13.6853 0.187082 0
0 0 0

-2.83325 -1.16577 0
-0.571349 2.77145 0
0 0 0

-10.4602 -0.629508 0
-14.7906 2.70712 0
0 0 0

-1.27477 -13.6758 0
2.58601 -4.25695 0
0 0 0

-1.82852 -1.63589 0
4.17588 2.76493 0
0 0 0

-1.82803 -7.37926 0
4.2928 -1.29601 0
0 0 0

4.04663 -12.0916 0
5.57508 -3.51559 0
0 0 0

5.50211 -0.992065 0
4.84903 -3.27307 0
0 0 0

2.02493 -7.92797 0
5.13747 -2.61434 0
0 0 0

4.73634 -4.16989 0
4.68388 -4.04319 0
0 0 0

3.78021 -1.54927 0
2.09043 -4.16575 0
0 0 0

1.48676 3.4319 0
0.287422 -0.774745 0
0 0 0

1.31927 -2.60938 0
2.18627 -5.49365 0
0 0 0

1.56771 -0.185398 0
4.71542 -2.38297 0
0 0 0

4.0454 7.1394 0
1.79173 0.428824 0
0 0 0

0.474046 5.05556 0
3.63457 1.5041 0
0 0 0

5.96768 3.52659 0
0.799825 2.29305 0
0 0 0

-0.533419 1.44459 0
0.371602 3.09507 0
0 0 0

-1.34006 -2.47944 0
4.20935 2.70713 0
0 0 0

-2.7166 -2.85266 0
1.59591 2.66184 0
0 0 0

-3.86577 -2.96239 0
-3.74741 2.57835 0
0 0 0

-3.65817 -2.87734 0
-3.99579 2.47659 0
0 0 0

-2.36694 -4.78872 0
-3.12318 -1.50807 0
0 0 0

-0.614166 -4.10953 0
-1.54092 -0.894964 0
0 0 0

-2.95863 -3.17626 0
-3.6573 -0.0524755 0
0 0 0

-1.2676 -2.39895 0
-2.13078 0.649215 0
0 0 0

0.534274 -2.02326 0
0.845579 -3.07725 0
0 0 0

1.22387 -1.67722 0
3.53753 -1.72644 0
0 0 0

0.215536 -1.13613 0
-3.76615 -0.59916 0
0 0 0

2.72872 -0.109293 0
-7.05443 -0.674673 0
0 0 0

-2.61348 -1.93224 0
-0.432769 1.34073 0
0 0 0

-2.96431 0.139944 0
-1.69049 1.80811 0
0 0 0

-3.20664 -1.773 0
-0.628631 1.5636 0
0 0 0

-1.68418 -0.691552 0
-0.778576 0.134387 0
0 0 0

-3.75073 -0.966342 0
-3.37788 1.5569 0
0 0 0

-3.73672 -2.69707 0
-3.90181 2.26091 0
0 0 0

0.229372 -1.08496 0
-1.28914 -0.4969 0
0 0 0

-1.63239 -4.16075 0
-2.87992 1.07138 0
0 0 0

-4.30404 -2.73744 0
-4.8998 1.6481 0
0 0 0

-3.1961 -0.34461 0
-5.84847 0.881777 0
0 0 0

-3.82208 -5.24639 0
-4.48209 0.277029 0
0 0 0

-4.28053 1.80172 0
-5.62507 0.439626 0
0 0 0

-0.956023 0.611737 0
-6.30993 0.684767 0
0 0 0

1.52153 2.27969 0
-6.81161 -1.1552 0
0 0 0

0.159828 2.69291 0
-6.40637 0.11248 0
0 0 0

5.48158 4.45013 0
-9.01772 -2.10196 0
0 0 0

1.10264 0.659384 0
2.86515 1.53589 0
0 0 0

1.6579 -1.68171 0
0.488975 -1.23969 0
0 0 0

0.464709 1.976 0
4.2653 -1.35384 0
0 0 0

1.65981 1.3349 0
1.41862 -2.66946 0
0 0 0

0.583674 -2.12114 0
-0.848135 -1.78667 0
0 0 0

-0.760209 -6.22998 0
-2.23038 -0.80959 0
0 0 0

1.55567 -2.75313 0
0.547425 -2.82291 0
0 0 0

2.58433 -2.49846 0
0.67577 -2.99557 0
0 0 0

0.315317 -7.17259 0
-3.1193 -1.52613 0
0 0 0

4.16188 -1.40953 0
-4.71475 -1.4839 0
0 0 0

3.25503 -6.96535 0
-0.935989 -3.89968 0
0 0 0

3.88007 -6.68625 0
-3.54072 -5.06278 0
0 0 0

4.61995 3.45182 0
-6.62129 -1.42681 0
0 0 0

5.23268 4.96252 0
-8.53427 -3.37343 0
0 0 0

4.39301 3.80053 0
-4.79417 -3.1177 0
0 0 0

2.722 3.54728 0
0.493686 -3.59969 0
0 0 0

SCALARS active double 1
LOOKUP_TABLE default
1
1
1
1
1
1
1
1
1
1
1
1
1
1
1
1
1
1
1
1
1
1
1
1
1
1
1
1
1
1
1
1
1
1
1
1
1
1
1
1
1
1
1
1
1
1
1
1
1
1
1
1
1
1
1
1
1
1
1
1
1
1
1
1
SCALARS extent double 1
LOOKUP_TABLE default
0.0125
0.0125
0.0125
0.0125
0.0125
0.0125
0.0125
0.0125
0.0125
0.0125
0.0125
0.0125
0.0125
0.0125
0.0125
0.0125
0.0125
0.0125
0.0125
0.0125
0.0125
0.0125
0.0125
0.0125
0.0125
0.0125
0.0125
0.0125
0.0125
0.0125
0.0125
0.0125
0.0125
0.0125
0.0125
0.0125
0.0125
0.0125
0.0125
0.0125
0.0125
0.0125
0.0125
0.0125
0.0125
0.0125
0.0125
0.0125
0.0125
0.0125
0.0125
0.0125
0.0125
0.0125
0.0125
0.0125
0.0125
0.0125
0.0125
0.0125
0.0125
0.0125
0.0125
0.0125
SCALARS pressure double 1
LOOKUP_TABLE default
-2453.05
854.082
4353.82
145.883
3660.62
4720.77
2676.17
4632.16
5024.5
5048.5
-21.4128
-1752.36
-2476.56
-180.645
685.949
2795.4
1833.87
3887.66
-7053.28
-4695.93
-2127.43
-3106.42
-2927.6
618.999
5697.68
2114.58
-995.52
-3893.17
3206.44
-2221.46
588.077
-2390.35
-5995.48
404.586
2170.16
1196.47
2423.53
-1319.13
-1652.39
-1381.38
861.099
2182.83
2359.81
8498.93
-1920.51
5555.75
5272.47
3164.84
-365.132
1081.35
336.613
1558.26
4990.97
1999.03
920.853
2422.67
4249.66
-1359.18
2887.82
-1234.91
-528.026
-4036.82
266.705
-1779.9
SCALARS density double 1
LOOKUP_TABLE default
974.811
1008.92
1046.32
1001.52
1038.8
1050.32
1028.22
1049.35
1053.64
1053.91
999.777
981.941
974.573
998.123
1007.16
1029.5
1019.26
1041.26
929.272
952.336
978.118
968.21
970.012
1006.46
1061.05
1022.24
989.7
960.32
1033.91
977.162
1006.13
975.447
939.551
1004.22
1022.83
1012.52
1025.52
986.375
982.962
985.736
1009
1022.96
1024.85
1092.41
980.225
1059.48
1056.36
1033.46
996.21
1011.31
1003.51
1016.34
1053.28
1021.01
1009.62
1025.52
1045.19
985.964
1030.49
987.239
994.524
958.886
1002.78
981.659
