# vtk DataFile Version 3.0
Frame: 34, Time: 0.584
ASCII
DATASET UNSTRUCTURED_GRID
POINTS 64 double
0.13713 0.0546948 0 
0.136058 0.0793792 0 
0.161228 0.0561009 0 
0.159583 0.0809267 0 
0.132663 0.103763 0 
0.131771 0.128819 0 
0.157177 0.105355 0 
0.156716 0.130156 0 
0.127411 0.153317 0 
0.124355 0.178353 0 
0.154341 0.155323 0 
0.15077 0.179372 0 
0.125099 0.203795 0 
0.122957 0.22746 0 
0.15127 0.205102 0 
0.148933 0.229566 0 
0.186416 0.0581143 0 
0.1835 0.083289 0 
0.209775 0.0585247 0 
0.206828 0.082995 0 
0.180904 0.108556 0 
0.17969 0.133278 0 
0.206087 0.108327 0 
0.204698 0.132958 0 
0.17791 0.15887 0 
0.174481 0.182642 0 
0.204377 0.159145 0 
0.202114 0.183103 0 
0.174854 0.207185 0 
0.174149 0.234083 0 
0.20136 0.2076 0 
0.199279 0.233288 0 
0.234431 0.0576449 0 
0.229712 0.0829229 0 
0.261188 0.0604669 0 
0.255026 0.0848121 0 
0.230154 0.108795 0 
0.228808 0.13358 0 
0.255845 0.110088 0 
0.253783 0.134931 0 
0.229498 0.159183 0 
0.228403 0.183544 0 
0.253925 0.160437 0 
0.253254 0.184845 0 
0.22651 0.209159 0 
0.224678 0.233679 0 
0.251599 0.209405 0 
0.250798 0.234545 0 
0.285958 0.0620469 0 
0.279012 0.0869676 0 
0.310437 0.0622037 0 
0.304187 0.0874601 0 
0.281014 0.111293 0 
0.279058 0.135321 0 
0.307609 0.110585 0 
0.305004 0.13569 0 
0.278401 0.160074 0 
0.278745 0.185122 0 
0.303615 0.161826 0 
0.304929 0.187018 0 
0.276419 0.209999 0 
0.275838 0.234526 0 
0.301987 0.212362 0 
0.302608 0.236705 0 
CELLS 64 128
1 0
1 1
1 2
1 3
1 4
1 5
1 6
1 7
1 8
1 9
1 10
1 11
1 12
1 13
1 14
1 15
1 16
1 17
1 18
1 19
1 20
1 21
1 22
1 23
1 24
1 25
1 26
1 27
1 28
1 29
1 30
1 31
1 32
1 33
1 34
1 35
1 36
1 37
1 38
1 39
1 40
1 41
1 42
1 43
1 44
1 45
1 46
1 47
1 48
1 49
1 50
1 51
1 52
1 53
1 54
1 55
1 56
1 57
1 58
1 59
1 60
1 61
1 62
1 63
CELL_TYPES 64
1
1
1
1
1
1
1
1
1
1
1
1
1
1
1
1
1
1
1
1
1
1
1
1
1
1
1
1
1
1
1
1
1
1
1
1
1
1
1
1
1
1
1
1
1
1
1
1
1
1
1
1
1
1
1
1
1
1
1
1
1
1
1
1
POINT_DATA 64
VECTORS displacement double
-0.27537 -0.357805 0 
-0.276442 -0.358121 0 
-0.276272 -0.356399 0 
-0.277917 -0.356573 0 
-0.279837 -0.358737 0 
-0.280729 -0.358681 0 
-0.280323 -0.357145 0 
-0.280784 -0.357344 0 
-0.285089 -0.359183 0 
-0.288145 -0.359147 0 
-0.283159 -0.357177 0 
-0.28673 -0.358128 0 
-0.287401 -0.358705 0 
-0.289543 -0.36004 0 
-0.28623 -0.357398 0 
-0.288567 -0.357934 0 
-0.276084 -0.354386 0 
-0.279 -0.354211 0 
-0.277725 -0.353975 0 
-0.280672 -0.354505 0 
-0.281596 -0.353944 0 
-0.28281 -0.354222 0 
-0.281413 -0.354173 0 
-0.282802 -0.354542 0 
-0.28459 -0.35363 0 
-0.288019 -0.354858 0 
-0.283123 -0.353355 0 
-0.285386 -0.354397 0 
-0.287646 -0.355315 0 
-0.288351 -0.353417 0 
-0.28614 -0.3549 0 
-0.288221 -0.354212 0 
-0.278069 -0.354855 0 
-0.282788 -0.354577 0 
-0.276312 -0.352033 0 
-0.282474 -0.352688 0 
-0.282346 -0.353705 0 
-0.283692 -0.35392 0 
-0.281655 -0.352412 0 
-0.283717 -0.352569 0 
-0.283002 -0.353317 0 
-0.284097 -0.353956 0 
-0.283575 -0.352063 0 
-0.284246 -0.352655 0 
-0.28599 -0.353341 0 
-0.287822 -0.353821 0 
-0.285901 -0.353095 0 
-0.286702 -0.352955 0 
-0.276542 -0.350453 0 
-0.283488 -0.350532 0 
-0.277063 -0.350296 0 
-0.283313 -0.35004 0 
-0.281486 -0.351207 0 
-0.283442 -0.352179 0 
-0.279891 -0.351915 0 
-0.282496 -0.35181 0 
-0.284099 -0.352426 0 
-0.283755 -0.352378 0 
-0.283885 -0.350674 0 
-0.282571 -0.350482 0 
-0.286081 -0.352501 0 
-0.286662 -0.352974 0 
-0.285513 -0.350138 0 
-0.284892 -0.350795 0 
VECTORS velocity double
-1.5203 -1.35859 0 
-0.888682 -0.506944 0 
-1.41619 -1.07008 0 
-1.22591 -0.983265 0 
-1.05707 -1.14259 0 
-0.926267 -1.20235 0 
-0.962321 -1.25916 0 
-1.0128 -0.838478 0 
-0.866382 -1.34889 0 
-1.33661 -1.41877 0 
-0.926831 -0.819223 0 
-0.905031 -1.35114 0 
-0.972351 -1.09318 0 
-1.18531 -1.16124 0 
-1.14685 -1.04135 0 
-1.18651 -1.01417 0 
-0.998589 -1.57986 0 
-0.965672 -1.21558 0 
-1.22994 -1.22719 0 
-1.12558 -0.793866 0 
-0.942303 -1.50445 0 
-1.07222 -1.16822 0 
-1.07768 -1.30217 0 
-1.30422 -1.20762 0 
-0.977355 -0.884848 0 
-0.947672 -1.22176 0 
-0.851154 -0.800841 0 
-0.761517 -1.28423 0 
-1.4652 -1.07415 0 
-1.18772 -1.03853 0 
-1.27803 -1.03902 0 
-1.12321 -1.13608 0 
-0.650589 -1.13265 0 
-1.384 -1.00374 0 
-0.80463 -1.01174 0 
-1.13543 -0.652396 0 
-1.37734 -1.32519 0 
-1.2566 -1.08936 0 
-1.21758 -1.24435 0 
-1.07873 -0.864756 0 
-0.898221 -0.965331 0 
-0.54529 -1.27329 0 
-1.04321 -0.749258 0 
-0.771315 -0.937535 0 
-1.31032 -1.28059 0 
-1.20649 -1.04195 0 
-1.28484 -0.875587 0 
-1.20296 -0.718313 0 
-0.814954 -0.892174 0 
-1.02773 -0.392026 0 
-0.763468 -0.625088 0 
-1.09749 -0.505867 0 
-1.57051 -1.33501 0 
-1.02308 -1.11494 0 
-1.09622 -0.835259 0 
-0.881811 -0.88966 0 
-0.865778 -0.910905 0 
-0.739513 -1.31439 0 
-1.0032 -0.890577 0 
-1.04397 -0.816327 0 
-1.09571 -0.971518 0 
-1.27203 -1.10559 0 
-0.733115 -0.674685 0 
-1.45748 -0.643618 0 
SCALARS mass double 1
LOOKUP_TABLE default
0.625
0.625
0.625
0.625
0.625
0.625
0.625
0.625
0.625
0.625
0.625
0.625
0.625
0.625
0.625
0.625
0.625
0.625
0.625
0.625
0.625
0.625
0.625
0.625
0.625
0.625
0.625
0.625
0.625
0.625
0.625
0.625
0.625
0.625
0.625
0.625
0.625
0.625
0.625
0.625
0.625
0.625
0.625
0.625
0.625
0.625
0.625
0.625
0.625
0.625
0.625
0.625
0.625
0.625
0.625
0.625
0.625
0.625
0.625
0.625
0.625
0.625
0.625
0.625
SCALARS volume double 1
LOOKUP_TABLE default
0.000620047
0.000622574
0.000606155
0.000622117
0.000619741
0.000633985
0.000595752
0.000597263
0.000633269
0.000623852
0.000612525
0.000624997
0.000636563
0.000625398
0.000634309
0.000606825
0.000623306
0.000639977
0.000588645
0.000604187
0.000626941
0.000647296
0.000630154
0.000635653
0.000651235
0.000593777
0.000651768
0.000639809
0.000662176
0.000624742
0.000616842
0.000631079
0.000639103
0.000601318
0.000591957
0.000622033
0.000644625
0.000626523
0.000646096
0.000621122
0.000646845
0.000600207
0.000688721
0.000586127
0.000625682
0.000618626
0.000635597
0.000629581
0.000618367
0.000624779
0.000597707
0.000647707
0.000616673
0.000625734
0.000614131
0.000634671
0.00062585
0.000623174
0.000645148
0.000623066
0.000619098
0.000634875
0.000628099
0.000622916
VECTORS momentum double
-0.950188 -0.849122 0 
-0.555426 -0.31684 0 
-0.885119 -0.668797 0 
-0.766194 -0.61454 0 
-0.660669 -0.714118 0 
-0.578917 -0.751472 0 
-0.601451 -0.786976 0 
-0.633001 -0.524049 0 
-0.541489 -0.843057 0 
-0.835382 -0.886729 0 
-0.579269 -0.512014 0 
-0.565644 -0.844463 0 
-0.60772 -0.683238 0 
-0.740819 -0.725777 0 
-0.716784 -0.650845 0 
-0.741567 -0.633857 0 
-0.624118 -0.987411 0 
-0.603545 -0.759736 0 
-0.768715 -0.766994 0 
-0.703485 -0.496167 0 
-0.588939 -0.94028 0 
-0.670138 -0.73014 0 
-0.673549 -0.813858 0 
-0.815137 -0.754763 0 
-0.610847 -0.55303 0 
-0.592295 -0.7636 0 
-0.531971 -0.500525 0 
-0.475948 -0.802641 0 
-0.915751 -0.671342 0 
-0.742327 -0.649081 0 
-0.798768 -0.649386 0 
-0.702004 -0.710053 0 
-0.406618 -0.707909 0 
-0.864997 -0.62734 0 
-0.502894 -0.632339 0 
-0.709641 -0.407748 0 
-0.860835 -0.828244 0 
-0.785374 -0.680852 0 
-0.760988 -0.777717 0 
-0.674203 -0.540473 0 
-0.561388 -0.603332 0 
-0.340806 -0.795808 0 
-0.652004 -0.468287 0 
-0.482072 -0.58596 0 
-0.818953 -0.800372 0 
-0.754059 -0.651217 0 
-0.803027 -0.547242 0 
-0.751848 -0.448946 0 
-0.509346 -0.557609 0 
-0.642329 -0.245016 0 
-0.477168 -0.39068 0 
-0.68593 -0.316167 0 
-0.98157 -0.83438 0 
-0.639422 -0.696838 0 
-0.685139 -0.522037 0 
-0.551132 -0.556038 0 
-0.541111 -0.569316 0 
-0.462196 -0.821492 0 
-0.626999 -0.556611 0 
-0.652482 -0.510205 0 
-0.684817 -0.607199 0 
-0.795016 -0.690994 0 
-0.458197 -0.421678 0 
-0.910928 -0.402261 0 
VECTORS body_force double
0 -9.81 0 
0 -9.81 0 
0 -9.81 0 
0 -9.81 0 
0 -9.81 0 
0 -9.81 0 
0 -9.81 0 
0 -9.81 0 
0 -9.81 0 
0 -9.81 0 
0 -9.81 0 
0 -9.81 0 
0 -9.81 0 
0 -9.81 0 
0 -9.81 0 
0 -9.81 0 
0 -9.81 0 
0 -9.81 0 
0 -9.81 0 
0 -9.81 0 
0 -9.81 0 
0 -9.81 0 
0 -9.81 0 
0 -9.81 0 
0 -9.81 0 
0 -9.81 0 
0 -9.81 0 
0 -9.81 0 
0 -9.81 0 
0 -9.81 0 
0 -9.81 0 
0 -9.81 0 
0 -9.81 0 
0 -9.81 0 
0 -9.81 0 
0 -9.81 0 
0 -9.81 0 
0 -9.81 0 
0 -9.81 0 
0 -9.81 0 
0 -9.81 0 
0 -9.81 0 
0 -9.81 0 
0 -9.81 0 
0 -9.81 0 
0 -9.81 0 
0 -9.81 0 
0 -9.81 0 
0 -9.81 0 
0 -9.81 0 
0 -9.81 0 
0 -9.81 0 
0 -9.81 0 
0 -9.81 0 
0 -9.81 0 
0 -9.81 0 
0 -9.81 0 
0 -9.81 0 
0 -9.81 0 
0 -9.81 0 
0 -9.81 0 
0 -9.81 0 
0 -9.81 0 
0 -9.81 0 
TENSORS cauchy_stress double
551.259 1293.7 0
1293.7 -2081.18 0
0 0 0

-2246.5 -1219.05 0
-1219.05 1498.68 0
0 0 0

-2317.3 52.0271 0
52.0271 -3570.31 0
0 0 0

-2257.38 316.464 0
316.464 1368.27 0
0 0 0

-1473.88 1201.47 0
1201.47 -151.094 0
0 0 0

-706.932 2692.58 0
2692.58 3451.8 0
0 0 0

-3777.74 -347.262 0
-347.262 -5439.17 0
0 0 0

-6381.02 1764.03 0
1764.03 -2348.54 0
0 0 0

2620.48 -2758.52 0
-2758.52 -92.7336 0
0 0 0

-604.025 2216.58 0
2216.58 250.377 0
0 0 0

-718.55 -2691.43 0
-2691.43 -3158.76 0
0 0 0

1332.3 4568.41 0
4568.41 -1333.28 0
0 0 0

3765.57 -1945.71 0
-1945.71 -240.354 0
0 0 0

-40.9673 1798.97 0
1798.97 163.536 0
0 0 0

-1294.45 -1571.69 0
-1571.69 4137.7 0
0 0 0

1020.53 1687.48 0
1687.48 -6695.7 0
0 0 0

-119.222 -2251.56 0
-2251.56 -402.626 0
0 0 0

-2307.92 120.58 0
120.58 6861.84 0
0 0 0

-5513.63 -3286.52 0
-3286.52 -6011.19 0
0 0 0

-6548.34 1105.17 0
1105.17 35.3616 0
0 0 0

309.477 1689.86 0
1689.86 286.874 0
0 0 0

3335.36 4689.85 0
4689.85 3405.46 0
0 0 0

1629.69 -2177.44 0
-2177.44 -50.1959 0
0 0 0

115.644 1099.24 0
1099.24 3134.44 0
0 0 0

4979.92 1180.97 0
1180.97 2927.54 0
0 0 0

-655.481 1131.33 0
1131.33 -9199.98 0
0 0 0

2472.44 397.866 0
397.866 5592.38 0
0 0 0

8001.22 -2892.39 0
-2892.39 -3497.83 0
0 0 0

6662.24 88.4678 0
88.4678 4449.32 0
0 0 0

1635.14 -291.988 0
-291.988 -1714.46 0
0 0 0

185.38 -2513.99 0
-2513.99 -2712.01 0
0 0 0

-986.924 450.447 0
450.447 2848.22 0
0 0 0

4405.52 -3219.57 0
-3219.57 -114.446 0
0 0 0

-7597.96 3557.51 0
3557.51 169.484 0
0 0 0

-2514.27 -2355.39 0
-2355.39 -7931.38 0
0 0 0

-1231.54 1165.62 0
1165.62 316.444 0
0 0 0

2421.28 359.695 0
359.695 3524.22 0
0 0 0

590.639 2806.76 0
2806.76 -122.503 0
0 0 0

4627.31 -2764.91 0
-2764.91 1756.75 0
0 0 0

-108.316 -347.23 0
-347.23 -1088.55 0
0 0 0

632.678 3405.43 0
3405.43 5974.08 0
0 0 0

-1079.33 -1456.65 0
-1456.65 -6704.78 0
0 0 0

5702.83 1310.32 0
1310.32 12967.3 0
0 0 0

967.624 -5080.65 0
-5080.65 -13316.6 0
0 0 0

-2378.98 -109.483 0
-109.483 2588.86 0
0 0 0

6153.94 -1652.18 0
-1652.18 -8125.35 0
0 0 0

569.739 -283.78 0
-283.78 2663.61 0
0 0 0

1495.08 -2245.74 0
-2245.74 -90.7916 0
0 0 0

66.3796 1118.42 0
1118.42 -2118.06 0
0 0 0

-2477 2656.47 0
2656.47 2409.06 0
0 0 0

-2610.08 -1257.24 0
-1257.24 -5976.78 0
0 0 0

3016.55 -839.623 0
-839.623 3846.41 0
0 0 0

1282.1 -23.2923 0
-23.2923 -3861.35 0
0 0 0

2137.13 -634.931 0
-634.931 -1911.35 0
0 0 0

-787.524 769.577 0
769.577 -2586.3 0
0 0 0

-166.096 -198.543 0
-198.543 3118.93 0
0 0 0

-3286.77 3012.12 0
3012.12 3548.05 0
0 0 0

2122.82 -516.205 0
-516.205 -2685.54 0
0 0 0

171.7 1927.45 0
1927.45 5929.82 0
0 0 0

1180.72 200.919 0
200.919 -1776.8 0
0 0 0

-853.822 2053.89 0
2053.89 -970.857 0
0 0 0

3169.84 -256.942 0
-256.942 -155.131 0
0 0 0

-644.054 -1453.93 0
-1453.93 1595.32 0
0 0 0

830.078 415.827 0
415.827 -1472.42 0
0 0 0

TENSORS velocity_gradient double
0.146154 5.42349 0
-1.97442 0.475343 0
0 0 0

0.290076 5.62666 0
-2.69533 1.36119 0
0 0 0

2.85753 4.48318 0
-1.97341 1.0728 0
0 0 0

0.437467 4.65456 0
-1.80391 1.06079 0
0 0 0

0.372682 1.46485 0
-2.33877 -2.21944 0
0 0 0

0.269981 0.932735 0
1.63579 -2.84644 0
0 0 0

-1.22496 0.970375 0
-1.46091 0.2535 0
0 0 0

-0.883518 0.963698 0
-0.615105 0.236957 0
0 0 0

0.102498 -1.85466 0
4.46028 0.103364 0
0 0 0

-0.276466 -2.26199 0
3.17828 0.873007 0
0 0 0

-0.47139 -2.53696 0
0.298895 -0.602106 0
0 0 0

-0.167724 -2.53993 0
0.942492 -0.482856 0
0 0 0

-0.581614 -1.59675 0
1.80797 1.78281 0
0 0 0

-0.581629 -1.51924 0
0.939715 1.9697 0
0 0 0

0.00800164 -1.4833 0
0.262951 1.11672 0
0 0 0

-0.0666215 -1.48888 0
0.270653 1.15742 0
0 0 0

2.65644 2.03225 0
-1.95932 1.24446 0
0 0 0

0.202986 2.32179 0
-1.78748 1.22418 0
0 0 0

3.39163 -0.581566 0
4.81946 1.02986 0
0 0 0

0.236853 -0.203362 0
4.14488 1.11073 0
0 0 0

-1.18045 1.29746 0
-1.35066 1.06375 0
0 0 0

-0.840365 1.28029 0
-0.508207 1.02121 0
0 0 0

-1.47893 1.79419 0
3.34941 1.40749 0
0 0 0

-0.636369 1.7499 0
2.29736 1.44341 0
0 0 0

-0.453631 -2.14555 0
-0.065081 -0.836524 0
0 0 0

-0.043873 -2.20373 0
-0.27864 -0.806203 0
0 0 0

0.22812 -1.58897 0
1.79413 -0.956104 0
0 0 0

0.824462 -1.64644 0
1.59049 -0.958668 0
0 0 0

0.289232 -1.34089 0
-0.392423 1.1339 0
0 0 0

0.462007 -1.34519 0
-0.289013 1.13133 0
0 0 0

0.926831 -1.42155 0
1.68147 1.3205 0
0 0 0

0.154023 -1.37583 0
1.56022 1.29279 0
0 0 0

3.52034 -3.75084 0
4.84698 0.352191 0
0 0 0

0.258382 -3.15453 0
4.14949 0.479698 0
0 0 0

1.03543 -5.5656 0
4.51226 -0.309666 0
0 0 0

1.15327 -5.58885 0
3.99126 -0.180336 0
0 0 0

-1.46553 2.62845 0
3.33474 0.494281 0
0 0 0

-0.607953 2.57957 0
2.39601 0.54779 0
0 0 0

1.10784 3.19261 0
3.18995 -0.528 0
0 0 0

0.654105 3.1855 0
2.10655 -0.436981 0
0 0 0

0.276843 -0.730152 0
1.92891 -0.681286 0
0 0 0

1.11762 -0.767283 0
2.20399 -0.693434 0
0 0 0

0.628159 -0.0687355 0
1.64787 -0.386582 0
0 0 0

0.788107 -0.0810035 0
2.01151 -0.395277 0
0 0 0

1.1257 -2.59808 0
2.61536 1.86827 0
0 0 0

-0.126727 -2.50757 0
3.18482 1.82711 0
0 0 0

0.582746 -3.81599 0
2.34756 2.37221 0
0 0 0

-0.419944 -3.78497 0
2.66016 2.36205 0
0 0 0

1.04325 -5.43386 0
4.48078 -0.839874 0
0 0 0

1.17615 -5.47006 0
3.94595 -0.694168 0
0 0 0

2.31886 -5.51925 0
3.515 -1.12017 0
0 0 0

1.90755 -5.44542 0
3.5505 -1.10951 0
0 0 0

1.09428 2.8902 0
3.13945 -1.65435 0
0 0 0

0.804696 2.91454 0
2.06086 -1.56369 0
0 0 0

1.51342 2.44826 0
2.58201 -3.16769 0
0 0 0

0.854494 2.51622 0
0.544702 -2.95352 0
0 0 0

0.663556 0.00606762 0
1.60741 -0.0289431 0
0 0 0

0.71848 0.00682176 0
1.97596 -0.0238827 0
0 0 0

0.0964895 -0.161313 0
0.385709 0.593776 0
0 0 0

-0.923533 -0.185489 0
1.74261 0.64381 0
0 0 0

0.347847 -4.75215 0
2.24083 2.5404 0
0 0 0

-0.549627 -4.73511 0
2.37521 2.53785 0
0 0 0

-0.857967 -5.45195 0
2.42976 2.6612 0
0 0 0

-0.837704 -5.46026 0
2.49463 2.66374 0
0 0 0

SCALARS active double 1
LOOKUP_TABLE default
1
1
1
1
1
1
1
1
1
1
1
1
1
1
1
1
1
1
1
1
1
1
1
1
1
1
1
1
1
1
1
1
1
1
1
1
1
1
1
1
1
1
1
1
1
1
1
1
1
1
1
1
1
1
1
1
1
1
1
1
1
1
1
1
SCALARS extent double 1
LOOKUP_TABLE default
0.0125
0.0125
0.0125
0.0125
0.0125
0.0125
0.0125
0.0125
0.0125
0.0125
0.0125
0.0125
0.0125
0.0125
0.0125
0.0125
0.0125
0.0125
0.0125
0.0125
0.0125
0.0125
0.0125
0.0125
0.0125
0.0125
0.0125
0.0125
0.0125
0.0125
0.0125
0.0125
0.0125
0.0125
0.0125
0.0125
0.0125
0.0125
0.0125
0.0125
0.0125
0.0125
0.0125
0.0125
0.0125
0.0125
0.0125
0.0125
0.0125
0.0125
0.0125
0.0125
0.0125
0.0125
0.0125
0.0125
0.0125
0.0125
0.0125
0.0125
0.0125
0.0125
0.0125
0.0125
SCALARS pressure double 1
LOOKUP_TABLE default
764.963
373.908
2943.81
444.554
812.487
-1372.44
4608.45
4364.78
-1263.88
176.824
1938.66
0.486387
-1762.61
-61.2846
-1421.63
2837.58
260.924
-2276.96
5762.41
3256.49
-298.176
-3370.41
-789.745
-1625.04
-3953.73
4927.73
-4032.41
-2251.69
-5555.78
39.6598
1263.31
-930.65
-2145.54
3714.24
5222.82
457.546
-2972.75
-234.068
-3192.03
598.434
-3303.38
3892.06
-9335.05
6174.51
-104.937
985.708
-1616.67
-702.142
1025.84
33.9749
4293.43
-3431.48
1289.63
-112.894
1686.91
-1476.42
-130.64
281.359
-3050.76
298.038
912.34
-1507.35
-475.632
321.172
SCALARS density double 1
LOOKUP_TABLE default
1007.99
1003.9
1031.09
1004.63
1008.49
985.828
1049.1
1046.44
986.942
1001.84
1020.37
1000.01
981.836
999.363
985.324
1029.95
1002.72
976.598
1061.76
1034.45
996.904
965.555
991.82
983.242
959.715
1052.58
958.93
976.854
943.857
1000.41
1013.23
990.368
977.934
1039.38
1055.82
1004.77
969.556
997.569
967.348
1006.24
966.228
1041.31
907.479
1066.32
998.909
1010.3
983.327
992.724
1010.73
1000.35
1045.66
964.942
1013.5
998.827
1017.7
984.763
998.642
1002.93
968.77
1003.1
1009.53
984.446
995.066
1003.35
