# vtk DataFile Version 3.0
Frame: 10, Time: 0.184
ASCII
DATASET UNSTRUCTURED_GRID
POINTS 64 double
0.5125 0.443719 0 
0.5125 0.468719 0 
0.5375 0.443719 0 
0.5375 0.468719 0 
0.5125 0.493719 0 
0.5125 0.518719 0 
0.5375 0.493719 0 
0.5375 0.518719 0 
0.5125 0.543719 0 
0.5125 0.568719 0 
0.5375 0.543719 0 
0.5375 0.568719 0 
0.5125 0.593719 0 
0.5125 0.618719 0 
0.5375 0.593719 0 
0.5375 0.618719 0 
0.5625 0.443719 0 
0.5625 0.468719 0 
0.5875 0.443719 0 
0.5875 0.468719 0 
0.5625 0.493719 0 
0.5625 0.518719 0 
0.5875 0.493719 0 
0.5875 0.518719 0 
0.5625 0.543719 0 
0.5625 0.568719 0 
0.5875 0.543719 0 
0.5875 0.568719 0 
0.5625 0.593719 0 
0.5625 0.618719 0 
0.5875 0.593719 0 
0.5875 0.618719 0 
0.6125 0.443719 0 
0.6125 0.468719 0 
0.6375 0.443719 0 
0.6375 0.468719 0 
0.6125 0.493719 0 
0.6125 0.518719 0 
0.6375 0.493719 0 
0.6375 0.518719 0 
0.6125 0.543719 0 
0.6125 0.568719 0 
0.6375 0.543719 0 
0.6375 0.568719 0 
0.6125 0.593719 0 
0.6125 0.618719 0 
0.6375 0.593719 0 
0.6375 0.618719 0 
0.6625 0.443719 0 
0.6625 0.468719 0 
0.6875 0.443719 0 
0.6875 0.468719 0 
0.6625 0.493719 0 
0.6625 0.518719 0 
0.6875 0.493719 0 
0.6875 0.518719 0 
0.6625 0.543719 0 
0.6625 0.568719 0 
0.6875 0.543719 0 
0.6875 0.568719 0 
0.6625 0.593719 0 
0.6625 0.618719 0 
0.6875 0.593719 0 
0.6875 0.618719 0 
CELLS 64 128
1 0
1 1
1 2
1 3
1 4
1 5
1 6
1 7
1 8
1 9
1 10
1 11
1 12
1 13
1 14
1 15
1 16
1 17
1 18
1 19
1 20
1 21
1 22
1 23
1 24
1 25
1 26
1 27
1 28
1 29
1 30
1 31
1 32
1 33
1 34
1 35
1 36
1 37
1 38
1 39
1 40
1 41
1 42
1 43
1 44
1 45
1 46
1 47
1 48
1 49
1 50
1 51
1 52
1 53
1 54
1 55
1 56
1 57
1 58
1 59
1 60
1 61
1 62
1 63
CELL_TYPES 64
1
1
1
1
1
1
1
1
1
1
1
1
1
1
1
1
1
1
1
1
1
1
1
1
1
1
1
1
1
1
1
1
1
1
1
1
1
1
1
1
1
1
1
1
1
1
1
1
1
1
1
1
1
1
1
1
1
1
1
1
1
1
1
1
POINT_DATA 64
VECTORS displacement double
-1.53908e-16 -0.168781 0 
-2.7543e-17 -0.168781 0 
-1.19182e-16 -0.168781 0 
-2.32941e-17 -0.168781 0 
4.5709e-17 -0.168781 0 
7.65062e-17 -0.168781 0 
3.64042e-17 -0.168781 0 
6.146e-17 -0.168781 0 
7.97137e-17 -0.168781 0 
8.93715e-17 -0.168781 0 
7.45819e-17 -0.168781 0 
9.23267e-17 -0.168781 0 
1.26814e-16 -0.168781 0 
1.76527e-16 -0.168781 0 
1.28139e-16 -0.168781 0 
1.7649e-16 -0.168781 0 
-9.31096e-17 -0.168781 0 
-2.34418e-17 -0.168781 0 
-7.56918e-17 -0.168781 0 
-2.79862e-17 -0.168781 0 
2.54869e-17 -0.168781 0 
5.11495e-17 -0.168781 0 
1.29572e-17 -0.168781 0 
4.55747e-17 -0.168781 0 
7.30476e-17 -0.168781 0 
9.77755e-17 -0.168781 0 
7.51106e-17 -0.168781 0 
1.05718e-16 -0.168781 0 
1.32542e-16 -0.168781 0 
1.76999e-16 -0.168781 0 
1.40025e-16 -0.168781 0 
1.78052e-16 -0.168781 0 
-5.98186e-17 -0.168781 0 
-3.33829e-17 -0.168781 0 
-4.549e-17 -0.168781 0 
-3.9632e-17 -0.168781 0 
-6.48199e-19 -0.168781 0 
3.91726e-17 -0.168781 0 
-1.53291e-17 -0.168781 0 
3.19429e-17 -0.168781 0 
7.68715e-17 -0.168781 0 
1.12798e-16 -0.168781 0 
7.83303e-17 -0.168781 0 
1.19016e-16 -0.168781 0 
1.47133e-16 -0.168781 0 
1.78607e-16 -0.168781 0 
1.53866e-16 -0.168781 0 
1.78665e-16 -0.168781 0 
-2.31404e-17 -0.168781 0 
-4.1959e-17 -0.168781 0 
7.23024e-18 -0.168781 0 
-4.03638e-17 -0.168781 0 
-2.84545e-17 -0.168781 0 
2.05615e-17 -0.168781 0 
-4.00245e-17 -0.168781 0 
5.02823e-18 -0.168781 0 
7.7408e-17 -0.168781 0 
1.24315e-16 -0.168781 0 
7.41045e-17 -0.168781 0 
1.28697e-16 -0.168781 0 
1.58277e-16 -0.168781 0 
1.78936e-16 -0.168781 0 
1.60366e-16 -0.168781 0 
1.79419e-16 -0.168781 0 
VECTORS velocity double
-3.94182e-15 -1.81485 0 
-4.06414e-15 -1.81485 0 
-1.87046e-15 -1.81485 0 
-1.21716e-15 -1.81485 0 
-6.06322e-15 -1.81485 0 
1.108e-14 -1.81485 0 
-9.34432e-16 -1.81485 0 
6.16095e-15 -1.81485 0 
1.74591e-14 -1.81485 0 
7.08265e-15 -1.81485 0 
8.96007e-15 -1.81485 0 
3.44783e-15 -1.81485 0 
-3.49098e-15 -1.81485 0 
3.25607e-15 -1.81485 0 
1.68868e-16 -1.81485 0 
5.40366e-15 -1.81485 0 
-5.24501e-16 -1.81485 0 
3.76378e-16 -1.81485 0 
9.60705e-17 -1.81485 0 
7.16455e-16 -1.81485 0 
1.37543e-15 -1.81485 0 
2.89669e-15 -1.81485 0 
8.66366e-16 -1.81485 0 
1.28719e-15 -1.81485 0 
3.77265e-15 -1.81485 0 
1.61536e-15 -1.81485 0 
1.89684e-15 -1.81485 0 
1.58524e-15 -1.81485 0 
1.77739e-15 -1.81485 0 
5.52266e-15 -1.81485 0 
1.33458e-15 -1.81485 0 
3.61309e-15 -1.81485 0 
-2.67425e-16 -1.81485 0 
7.39653e-16 -1.81485 0 
-1.61499e-15 -1.81485 0 
4.45972e-16 -1.81485 0 
2.31748e-16 -1.81485 0 
-1.1488e-16 -1.81485 0 
-5.28423e-16 -1.81485 0 
-1.30951e-15 -1.81485 0 
3.6994e-17 -1.81485 0 
1.32568e-15 -1.81485 0 
-1.80689e-15 -1.81485 0 
8.36698e-16 -1.81485 0 
8.96657e-16 -1.81485 0 
1.08485e-15 -1.81485 0 
4.63609e-16 -1.81485 0 
-2.06207e-15 -1.81485 0 
-2.78803e-15 -1.81485 0 
6.89634e-16 -1.81485 0 
-3.78655e-15 -1.81485 0 
1.47064e-15 -1.81485 0 
1.06615e-15 -1.81485 0 
-4.63046e-15 -1.81485 0 
5.01547e-15 -1.81485 0 
-1.00777e-14 -1.81485 0 
-7.05254e-15 -1.81485 0 
-1.03191e-15 -1.81485 0 
-1.56999e-14 -1.81485 0 
-4.28014e-15 -1.81485 0 
2.13947e-15 -1.81485 0 
-2.53728e-15 -1.81485 0 
5.92425e-15 -1.81485 0 
-3.4079e-16 -1.81485 0 
SCALARS mass double 1
LOOKUP_TABLE default
0.625
0.625
0.625
0.625
0.625
0.625
0.625
0.625
0.625
0.625
0.625
0.625
0.625
0.625
0.625
0.625
0.625
0.625
0.625
0.625
0.625
0.625
0.625
0.625
0.625
0.625
0.625
0.625
0.625
0.625
0.625
0.625
0.625
0.625
0.625
0.625
0.625
0.625
0.625
0.625
0.625
0.625
0.625
0.625
0.625
0.625
0.625
0.625
0.625
0.625
0.625
0.625
0.625
0.625
0.625
0.625
0.625
0.625
0.625
0.625
0.625
0.625
0.625
0.625
SCALARS volume double 1
LOOKUP_TABLE default
0.000625
0.000625
0.000625
0.000625
0.000625
0.000625
0.000625
0.000625
0.000625
0.000625
0.000625
0.000625
0.000625
0.000625
0.000625
0.000625
0.000625
0.000625
0.000625
0.000625
0.000625
0.000625
0.000625
0.000625
0.000625
0.000625
0.000625
0.000625
0.000625
0.000625
0.000625
0.000625
0.000625
0.000625
0.000625
0.000625
0.000625
0.000625
0.000625
0.000625
0.000625
0.000625
0.000625
0.000625
0.000625
0.000625
0.000625
0.000625
0.000625
0.000625
0.000625
0.000625
0.000625
0.000625
0.000625
0.000625
0.000625
0.000625
0.000625
0.000625
0.000625
0.000625
0.000625
0.000625
VECTORS momentum double
-2.46363e-15 -1.13428 0 
-2.54009e-15 -1.13428 0 
-1.16904e-15 -1.13428 0 
-7.60722e-16 -1.13428 0 
-3.78951e-15 -1.13428 0 
6.92498e-15 -1.13428 0 
-5.8402e-16 -1.13428 0 
3.85059e-15 -1.13428 0 
1.09119e-14 -1.13428 0 
4.42666e-15 -1.13428 0 
5.60004e-15 -1.13428 0 
2.1549e-15 -1.13428 0 
-2.18186e-15 -1.13428 0 
2.03505e-15 -1.13428 0 
1.05542e-16 -1.13428 0 
3.37728e-15 -1.13428 0 
-3.27813e-16 -1.13428 0 
2.35236e-16 -1.13428 0 
6.00441e-17 -1.13428 0 
4.47784e-16 -1.13428 0 
8.59644e-16 -1.13428 0 
1.81043e-15 -1.13428 0 
5.41478e-16 -1.13428 0 
8.04493e-16 -1.13428 0 
2.3579e-15 -1.13428 0 
1.0096e-15 -1.13428 0 
1.18553e-15 -1.13428 0 
9.90772e-16 -1.13428 0 
1.11087e-15 -1.13428 0 
3.45166e-15 -1.13428 0 
8.34114e-16 -1.13428 0 
2.25818e-15 -1.13428 0 
-1.67141e-16 -1.13428 0 
4.62283e-16 -1.13428 0 
-1.00937e-15 -1.13428 0 
2.78732e-16 -1.13428 0 
1.44842e-16 -1.13428 0 
-7.18002e-17 -1.13428 0 
-3.30264e-16 -1.13428 0 
-8.18445e-16 -1.13428 0 
2.31213e-17 -1.13428 0 
8.28551e-16 -1.13428 0 
-1.12931e-15 -1.13428 0 
5.22936e-16 -1.13428 0 
5.60411e-16 -1.13428 0 
6.7803e-16 -1.13428 0 
2.89756e-16 -1.13428 0 
-1.28879e-15 -1.13428 0 
-1.74252e-15 -1.13428 0 
4.31021e-16 -1.13428 0 
-2.3666e-15 -1.13428 0 
9.1915e-16 -1.13428 0 
6.66345e-16 -1.13428 0 
-2.89404e-15 -1.13428 0 
3.13467e-15 -1.13428 0 
-6.29858e-15 -1.13428 0 
-4.40784e-15 -1.13428 0 
-6.44944e-16 -1.13428 0 
-9.81246e-15 -1.13428 0 
-2.67509e-15 -1.13428 0 
1.33717e-15 -1.13428 0 
-1.5858e-15 -1.13428 0 
3.70266e-15 -1.13428 0 
-2.12994e-16 -1.13428 0 
VECTORS body_force double
0 -9.81 0 
0 -9.81 0 
0 -9.81 0 
0 -9.81 0 
0 -9.81 0 
0 -9.81 0 
0 -9.81 0 
0 -9.81 0 
0 -9.81 0 
0 -9.81 0 
0 -9.81 0 
0 -9.81 0 
0 -9.81 0 
0 -9.81 0 
0 -9.81 0 
0 -9.81 0 
0 -9.81 0 
0 -9.81 0 
0 -9.81 0 
0 -9.81 0 
0 -9.81 0 
0 -9.81 0 
0 -9.81 0 
0 -9.81 0 
0 -9.81 0 
0 -9.81 0 
0 -9.81 0 
0 -9.81 0 
0 -9.81 0 
0 -9.81 0 
0 -9.81 0 
0 -9.81 0 
0 -9.81 0 
0 -9.81 0 
0 -9.81 0 
0 -9.81 0 
0 -9.81 0 
0 -9.81 0 
0 -9.81 0 
0 -9.81 0 
0 -9.81 0 
0 -9.81 0 
0 -9.81 0 
0 -9.81 0 
0 -9.81 0 
0 -9.81 0 
0 -9.81 0 
0 -9.81 0 
0 -9.81 0 
0 -9.81 0 
0 -9.81 0 
0 -9.81 0 
0 -9.81 0 
0 -9.81 0 
0 -9.81 0 
0 -9.81 0 
0 -9.81 0 
0 -9.81 0 
0 -9.81 0 
0 -9.81 0 
0 -9.81 0 
0 -9.81 0 
0 -9.81 0 
0 -9.81 0 
TENSORS cauchy_stress double
4.45153e-11 6.04553e-11 0
6.04553e-11 -2.52301e-10 0
0 0 0

-8.21351e-12 2.1997e-11 0
2.1997e-11 -6.27432e-11 0
0 0 0

1.01099e-10 9.04852e-12 0
9.04852e-12 -1.20273e-10 0
0 0 0

7.12021e-11 -1.05097e-12 0
-1.05097e-12 1.2256e-10 0
0 0 0

-4.91764e-11 -4.28069e-12 0
-4.28069e-12 -1.93111e-11 0
0 0 0

-7.808e-11 -1.2283e-12 0
-1.2283e-12 -2.7866e-11 0
0 0 0

2.49699e-12 -2.08305e-11 0
-2.08305e-11 1.0126e-10 0
0 0 0

-7.39535e-11 -1.03644e-11 0
-1.03644e-11 -1.82375e-11 0
0 0 0

1.30454e-10 -7.71316e-11 0
-7.71316e-11 3.57025e-10 0
0 0 0

4.69519e-11 -4.35334e-11 0
-4.35334e-11 7.92447e-11 0
0 0 0

1.23178e-10 -3.79093e-11 0
-3.79093e-11 3.40049e-10 0
0 0 0

1.6851e-11 -3.5042e-11 0
-3.5042e-11 9.00918e-12 0
0 0 0

-1.5243e-10 1.06463e-11 0
1.06463e-11 -3.69259e-10 0
0 0 0

3.07195e-11 -3.95821e-12 0
-3.95821e-12 7.20531e-11 0
0 0 0

-1.28343e-10 -5.64795e-14 0
-5.64795e-14 -3.13056e-10 0
0 0 0

2.80725e-11 -6.1961e-12 0
-6.1961e-12 6.58769e-11 0
0 0 0

4.70112e-11 3.84283e-11 0
3.84283e-11 -6.89508e-11 0
0 0 0

2.55578e-11 2.3186e-11 0
2.3186e-11 1.06243e-10 0
0 0 0

5.24276e-11 6.94912e-12 0
6.94912e-12 -5.63126e-11 0
0 0 0

2.74697e-11 7.94831e-13 0
7.94831e-13 1.10705e-10 0
0 0 0

1.15773e-11 -1.78278e-11 0
-1.78278e-11 1.55524e-10 0
0 0 0

-5.88965e-12 -3.06537e-11 0
-3.06537e-11 4.34342e-11 0
0 0 0

1.93399e-11 -1.85007e-11 0
-1.85007e-11 1.73637e-10 0
0 0 0

-2.35722e-12 -2.17065e-11 0
-2.17065e-11 5.16766e-11 0
0 0 0

1.57779e-10 -2.68438e-11 0
-2.68438e-11 3.46992e-10 0
0 0 0

2.57438e-11 -1.48402e-11 0
-1.48402e-11 -2.13922e-11 0
0 0 0

1.71847e-10 -1.44567e-11 0
-1.44567e-11 3.79817e-10 0
0 0 0

2.55852e-11 -1.18375e-11 0
-1.18375e-11 -2.17621e-11 0
0 0 0

-1.24403e-10 8.21705e-12 0
8.21705e-12 -3.67018e-10 0
0 0 0

7.47811e-12 8.19242e-12 0
8.19242e-12 6.64842e-12 0
0 0 0

-1.18052e-10 -7.01413e-12 0
-7.01413e-12 -3.52199e-10 0
0 0 0

2.69321e-11 -9.6873e-12 0
-9.6873e-12 5.20411e-11 0
0 0 0

6.06248e-11 -2.39213e-11 0
-2.39213e-11 -5.50224e-12 0
0 0 0

1.29193e-11 -1.29657e-11 0
-1.29657e-11 9.42388e-11 0
0 0 0

6.619e-11 -5.67751e-11 0
-5.67751e-11 7.48336e-12 0
0 0 0

4.41956e-11 -2.7714e-11 0
-2.7714e-11 1.67217e-10 0
0 0 0

1.39458e-11 1.51987e-11 0
1.51987e-11 1.83114e-10 0
0 0 0

8.4211e-12 1.41503e-11 0
1.41503e-11 9.37994e-11 0
0 0 0

-3.64863e-13 1.85389e-11 0
1.85389e-11 1.49722e-10 0
0 0 0

2.64367e-12 2.20417e-11 0
2.20417e-11 8.03187e-11 0
0 0 0

1.90631e-10 9.42127e-12 0
9.42127e-12 4.29843e-10 0
0 0 0

3.40205e-11 1.11637e-11 0
1.11637e-11 1.56111e-11 0
0 0 0

1.41396e-10 1.91563e-11 0
1.91563e-11 3.14961e-10 0
0 0 0

2.22639e-11 1.61157e-11 0
1.61157e-11 -1.1821e-11 0
0 0 0

-1.19442e-10 -1.39005e-12 0
-1.39005e-12 -3.47756e-10 0
0 0 0

-6.41774e-12 1.03002e-12 0
1.03002e-12 -1.55699e-11 0
0 0 0

-1.20407e-10 -1.0701e-11 0
-1.0701e-11 -3.50006e-10 0
0 0 0

2.42004e-11 -6.21879e-12 0
-6.21879e-12 5.58724e-11 0
0 0 0

1.5891e-10 7.8836e-12 0
7.8836e-12 5.92956e-11 0
0 0 0

5.41591e-11 1.04759e-11 0
1.04759e-11 1.1001e-10 0
0 0 0

1.07866e-10 -5.11562e-11 0
-5.11562e-11 -5.98054e-11 0
0 0 0

-4.04439e-12 -1.78049e-11 0
-1.78049e-11 -2.57983e-11 0
0 0 0

-3.32309e-12 2.382e-11 0
2.382e-11 1.10912e-10 0
0 0 0

-6.79368e-11 1.50953e-11 0
1.50953e-11 7.96208e-13 0
0 0 0

-3.4892e-11 1.11218e-11 0
1.11218e-11 3.72512e-11 0
0 0 0

-7.03083e-11 1.02026e-11 0
1.02026e-11 -4.73729e-12 0
0 0 0

1.32245e-10 3.30876e-11 0
3.30876e-11 3.42454e-10 0
0 0 0

2.31419e-11 3.58241e-11 0
3.58241e-11 9.05784e-12 0
0 0 0

1.35201e-10 6.94716e-11 0
6.94716e-11 3.49351e-10 0
0 0 0

4.79586e-11 4.00332e-11 0
4.00332e-11 6.69634e-11 0
0 0 0

-1.35621e-10 3.94835e-12 0
3.94835e-12 -3.37873e-10 0
0 0 0

1.14795e-11 6.20261e-12 0
6.20261e-12 2.18294e-11 0
0 0 0

-1.37348e-10 -5.49385e-12 0
-5.49385e-12 -3.41903e-10 0
0 0 0

2.76173e-11 4.76229e-12 0
4.76229e-12 5.94841e-11 0
0 0 0

TENSORS velocity_gradient double
1.73117e-14 -2.61665e-14 0
-5.57332e-14 3.42171e-13 0
0 0 0

2.90138e-14 4.85725e-14 0
-3.37508e-14 -4.79616e-14 0
0 0 0

1.73117e-14 -1.4851e-14 0
-5.86198e-14 2.6823e-13 0
0 0 0

2.90138e-14 6.04034e-14 0
-5.68434e-14 -2.84217e-14 0
0 0 0

3.72909e-14 7.09429e-14 0
-5.50671e-14 8.70415e-14 0
0 0 0

-2.91406e-14 2.05333e-13 0
-2.13163e-14 -2.77112e-13 0
0 0 0

3.72909e-14 6.85588e-14 0
-5.28466e-14 1.17684e-13 0
0 0 0

-2.91406e-14 1.17553e-13 0
-1.42109e-14 -2.41585e-13 0
0 0 0

-1.10413e-13 1.48411e-13 0
7.43849e-15 -1.91513e-13 0
0 0 0

-5.48765e-14 -1.93548e-13 0
4.61853e-14 3.30402e-13 0
0 0 0

-1.10413e-13 8.66617e-14 0
1.5099e-14 -1.83853e-13 0
0 0 0

-5.48765e-14 -9.89154e-14 0
2.84217e-14 3.2685e-13 0
0 0 0

3.53452e-14 -1.54002e-13 0
1.02141e-14 -7.50511e-14 0
0 0 0

3.28401e-14 8.35737e-14 0
1.06581e-14 2.4869e-14 0
0 0 0

3.53452e-14 -7.70124e-14 0
1.95399e-14 -7.99361e-14 0
0 0 0

3.28401e-14 5.45705e-14 0
7.10543e-15 -2.13163e-14 0
0 0 0

3.60858e-14 -1.58896e-14 0
-1.11466e-13 3.14859e-13 0
0 0 0

1.14155e-14 5.21041e-14 0
-7.81597e-14 7.10543e-15 0
0 0 0

3.60858e-14 -2.92825e-14 0
-8.88178e-14 3.37508e-13 0
0 0 0

1.14155e-14 2.36746e-14 0
-4.9738e-14 3.55271e-14 0
0 0 0

-1.71189e-14 5.29422e-14 0
-3.38618e-14 1.08247e-13 0
0 0 0

-4.7859e-14 5.79771e-14 0
-2.84217e-14 -2.55795e-13 0
0 0 0

-1.71189e-14 2.4093e-14 0
-3.90799e-14 1.45661e-13 0
0 0 0

-4.7859e-14 2.66067e-14 0
-2.84217e-14 -1.84741e-13 0
0 0 0

-7.70518e-14 4.44568e-14 0
-2.16493e-14 -1.21125e-13 0
0 0 0

-6.04681e-14 -3.67667e-14 0
-1.42109e-14 2.84217e-13 0
0 0 0

-7.70518e-14 2.17964e-14 0
-2.30926e-14 -1.36779e-13 0
0 0 0

-6.04681e-14 -7.10154e-15 0
-3.55271e-14 2.91323e-13 0
0 0 0

-3.23194e-14 -2.6718e-14 0
-3.65263e-14 -9.33698e-14 0
0 0 0

-3.60486e-14 3.36495e-14 0
-5.32907e-15 -5.32907e-15 0
0 0 0

-3.23194e-14 -3.11837e-15 0
-4.52971e-14 -1.16351e-13 0
0 0 0

-3.60486e-14 2.08106e-14 0
-2.13163e-14 2.13163e-14 0
0 0 0

-1.24385e-14 -4.37655e-15 0
-3.64153e-14 3.47278e-13 0
0 0 0

-9.88864e-15 6.25575e-16 0
-2.66454e-14 1.77636e-15 0
0 0 0

-1.24385e-14 5.88282e-14 0
-5.59552e-14 3.13527e-13 0
0 0 0

-9.88864e-15 -1.70429e-14 0
-2.84217e-14 7.10543e-14 0
0 0 0

-2.79214e-14 1.05627e-16 0
2.33147e-15 1.4444e-13 0
0 0 0

-5.36121e-14 -3.01797e-15 0
-1.06581e-14 -1.95399e-13 0
0 0 0

-2.79214e-14 -1.90199e-14 0
-3.86358e-14 1.60316e-13 0
0 0 0

-5.36121e-14 -3.0897e-14 0
-2.13163e-14 -1.91847e-13 0
0 0 0

-7.95051e-14 4.98645e-16 0
-5.88418e-15 -9.11493e-14 0
0 0 0

-6.36483e-14 2.16247e-14 0
-5.32907e-15 2.50466e-13 0
0 0 0

-7.95051e-14 -1.94365e-14 0
-2.75335e-14 -1.4122e-13 0
0 0 0

-6.36483e-14 4.94122e-14 0
-7.10543e-15 3.05533e-13 0
0 0 0

-3.76061e-14 1.90847e-14 0
3.65263e-14 -4.87388e-14 0
0 0 0

-4.82529e-14 3.82544e-15 0
1.77636e-14 3.19744e-14 0
0 0 0

-3.76061e-14 3.98913e-14 0
-1.33227e-14 -9.85878e-14 0
0 0 0

-4.82529e-14 -1.73059e-14 0
2.13163e-14 2.13163e-14 0
0 0 0

-6.79531e-14 1.14389e-13 0
-3.15303e-14 2.95319e-13 0
0 0 0

-2.54496e-14 -5.52759e-15 0
-4.08562e-14 4.44089e-14 0
0 0 0

-6.79531e-14 1.62305e-13 0
-3.59712e-14 3.90354e-13 0
0 0 0

-2.54496e-14 3.51715e-14 0
-4.9738e-14 2.13163e-14 0
0 0 0

1.09265e-14 -1.68791e-14 0
-4.39648e-14 1.83409e-13 0
0 0 0

-4.35773e-14 -8.50736e-14 0
-6.92779e-14 -2.6823e-13 0
0 0 0

1.09265e-14 6.52809e-15 0
-4.39648e-14 1.69198e-13 0
0 0 0

-4.35773e-14 -1.65548e-13 0
-3.55271e-14 -2.06057e-13 0
0 0 0

-1.1772e-13 -5.69783e-14 0
-9.34808e-14 -1.21902e-13 0
0 0 0

-5.87594e-14 1.11804e-13 0
-4.44089e-14 3.25073e-13 0
0 0 0

-1.1772e-13 -1.12127e-13 0
-4.88498e-14 -1.62537e-13 0
0 0 0

-5.87594e-14 2.08801e-13 0
-4.26326e-14 3.12639e-13 0
0 0 0

3.36953e-14 8.97086e-14 0
-3.34177e-14 -6.18394e-14 0
0 0 0

3.06616e-14 -4.3032e-14 0
-1.95399e-14 -3.37508e-14 0
0 0 0

3.36953e-14 1.68537e-13 0
-3.06422e-14 -7.32747e-14 0
0 0 0

3.06616e-14 -7.3353e-14 0
0 0 0
0 0 0

SCALARS active double 1
LOOKUP_TABLE default
1
1
1
1
1
1
1
1
1
1
1
1
1
1
1
1
1
1
1
1
1
1
1
1
1
1
1
1
1
1
1
1
1
1
1
1
1
1
1
1
1
1
1
1
1
1
1
1
1
1
1
1
1
1
1
1
1
1
1
1
1
1
1
1
SCALARS extent double 1
LOOKUP_TABLE default
0.0125
0.0125
0.0125
0.0125
0.0125
0.0125
0.0125
0.0125
0.0125
0.0125
0.0125
0.0125
0.0125
0.0125
0.0125
0.0125
0.0125
0.0125
0.0125
0.0125
0.0125
0.0125
0.0125
0.0125
0.0125
0.0125
0.0125
0.0125
0.0125
0.0125
0.0125
0.0125
0.0125
0.0125
0.0125
0.0125
0.0125
0.0125
0.0125
0.0125
0.0125
0.0125
0.0125
0.0125
0.0125
0.0125
0.0125
0.0125
0.0125
0.0125
0.0125
0.0125
0.0125
0.0125
0.0125
0.0125
0.0125
0.0125
0.0125
0.0125
0.0125
0.0125
0.0125
0.0125
SCALARS pressure double 1
LOOKUP_TABLE default
1.03893e-10
3.54783e-11
9.58708e-12
-9.68811e-11
3.42438e-11
5.2973e-11
-5.18786e-11
4.60955e-11
-2.4374e-10
-6.30983e-11
-2.31613e-10
-1.29301e-11
2.60845e-10
-5.13863e-11
2.207e-10
-4.69747e-11
1.09698e-11
-6.59006e-11
1.94253e-12
-6.90871e-11
-8.35508e-11
-1.87723e-11
-9.64885e-11
-2.46597e-11
-2.52386e-10
-2.17578e-12
-2.75832e-10
-1.91157e-12
2.45711e-10
-7.06327e-12
2.35126e-10
-3.94866e-11
-2.75613e-11
-5.3579e-11
-3.68367e-11
-1.05706e-10
-9.85298e-11
-5.11103e-11
-7.46787e-11
-4.14812e-11
-3.10237e-10
-2.48158e-11
-2.28179e-10
-5.22143e-12
2.33599e-10
1.09938e-11
2.35206e-10
-4.00364e-11
-1.09103e-10
-8.20844e-11
-2.40305e-11
1.49213e-11
-5.37944e-11
3.35703e-11
-1.17959e-12
3.75228e-11
-2.37349e-10
-1.60999e-11
-2.42276e-10
-5.7461e-11
2.36747e-10
-1.66544e-11
2.39626e-10
-4.35507e-11
SCALARS density double 1
LOOKUP_TABLE default
1000
1000
1000
1000
1000
1000
1000
1000
1000
1000
1000
1000
1000
1000
1000
1000
1000
1000
1000
1000
1000
1000
1000
1000
1000
1000
1000
1000
1000
1000
1000
1000
1000
1000
1000
1000
1000
1000
1000
1000
1000
1000
1000
1000
1000
1000
1000
1000
1000
1000
1000
1000
1000
1000
1000
1000
1000
1000
1000
1000
1000
1000
1000
1000
