# vtk DataFile Version 3.0
Frame: 46, Time: 0.784
ASCII
DATASET UNSTRUCTURED_GRID
POINTS 64 double
0.0748692 0.114609 0 
0.0816042 0.138013 0 
0.0990898 0.108077 0 
0.105164 0.131835 0 
0.0851716 0.162359 0 
0.0908842 0.185678 0 
0.110493 0.155735 0 
0.116352 0.179503 0 
0.0931513 0.209062 0 
0.0978185 0.234193 0 
0.12032 0.203671 0 
0.123544 0.227777 0 
0.106494 0.257255 0 
0.111786 0.280735 0 
0.131525 0.25103 0 
0.136744 0.274743 0 
0.124614 0.10314 0 
0.128852 0.127273 0 
0.148556 0.0958075 0 
0.152483 0.11969 0 
0.134185 0.151283 0 
0.138653 0.175069 0 
0.159267 0.143092 0 
0.1631 0.166688 0 
0.14341 0.199518 0 
0.147122 0.223591 0 
0.16863 0.191365 0 
0.173175 0.215175 0 
0.154646 0.24702 0 
0.161724 0.272632 0 
0.179723 0.239772 0 
0.185679 0.264763 0 
0.172287 0.0881617 0 
0.175165 0.113466 0 
0.200536 0.0834041 0 
0.200748 0.108783 0 
0.182791 0.13708 0 
0.18669 0.160902 0 
0.20835 0.132138 0 
0.211411 0.156181 0 
0.192886 0.184993 0 
0.198426 0.208629 0 
0.21697 0.180241 0 
0.222574 0.203618 0 
0.204401 0.234921 0 
0.21045 0.259415 0 
0.227909 0.228976 0 
0.234483 0.253966 0 
0.225655 0.077586 0 
0.224898 0.104452 0 
0.249417 0.0732629 0 
0.249034 0.0996194 0 
0.232959 0.127268 0 
0.236326 0.150962 0 
0.258108 0.121221 0 
0.261822 0.145781 0 
0.241134 0.174684 0 
0.247523 0.198451 0 
0.266315 0.170912 0 
0.273217 0.194725 0 
0.251681 0.223642 0 
0.257598 0.247222 0 
0.276665 0.219626 0 
0.283205 0.242554 0 
CELLS 64 128
1 0
1 1
1 2
1 3
1 4
1 5
1 6
1 7
1 8
1 9
1 10
1 11
1 12
1 13
1 14
1 15
1 16
1 17
1 18
1 19
1 20
1 21
1 22
1 23
1 24
1 25
1 26
1 27
1 28
1 29
1 30
1 31
1 32
1 33
1 34
1 35
1 36
1 37
1 38
1 39
1 40
1 41
1 42
1 43
1 44
1 45
1 46
1 47
1 48
1 49
1 50
1 51
1 52
1 53
1 54
1 55
1 56
1 57
1 58
1 59
1 60
1 61
1 62
1 63
CELL_TYPES 64
1
1
1
1
1
1
1
1
1
1
1
1
1
1
1
1
1
1
1
1
1
1
1
1
1
1
1
1
1
1
1
1
1
1
1
1
1
1
1
1
1
1
1
1
1
1
1
1
1
1
1
1
1
1
1
1
1
1
1
1
1
1
1
1
POINT_DATA 64
VECTORS displacement double
-0.337631 -0.297891 0 
-0.330896 -0.299487 0 
-0.33841 -0.304423 0 
-0.332336 -0.305665 0 
-0.327328 -0.300141 0 
-0.321616 -0.301822 0 
-0.327007 -0.306765 0 
-0.321148 -0.307997 0 
-0.319349 -0.303438 0 
-0.314682 -0.303307 0 
-0.31718 -0.308829 0 
-0.313956 -0.309723 0 
-0.306006 -0.305245 0 
-0.300714 -0.306765 0 
-0.305975 -0.31147 0 
-0.300756 -0.312757 0 
-0.337886 -0.30936 0 
-0.333648 -0.310227 0 
-0.338944 -0.316693 0 
-0.335017 -0.31781 0 
-0.328315 -0.311217 0 
-0.323847 -0.312431 0 
-0.328233 -0.319408 0 
-0.3244 -0.320812 0 
-0.31909 -0.312982 0 
-0.315378 -0.313909 0 
-0.31887 -0.321135 0 
-0.314325 -0.322325 0 
-0.307854 -0.31548 0 
-0.300776 -0.314868 0 
-0.307777 -0.322728 0 
-0.301821 -0.322737 0 
-0.340213 -0.324338 0 
-0.337335 -0.324034 0 
-0.336964 -0.329096 0 
-0.336752 -0.328717 0 
-0.329709 -0.32542 0 
-0.32581 -0.326598 0 
-0.32915 -0.330362 0 
-0.326089 -0.331319 0 
-0.319614 -0.327507 0 
-0.314074 -0.328871 0 
-0.32053 -0.332259 0 
-0.314926 -0.333882 0 
-0.308099 -0.327579 0 
-0.30205 -0.328085 0 
-0.309591 -0.333524 0 
-0.303017 -0.333534 0 
-0.336845 -0.334914 0 
-0.337602 -0.333048 0 
-0.338083 -0.339237 0 
-0.338466 -0.337881 0 
-0.329541 -0.335232 0 
-0.326174 -0.336538 0 
-0.329392 -0.341279 0 
-0.325678 -0.341719 0 
-0.321366 -0.337816 0 
-0.314977 -0.339049 0 
-0.321185 -0.341588 0 
-0.314283 -0.342775 0 
-0.310819 -0.338858 0 
-0.304902 -0.340278 0 
-0.310835 -0.342874 0 
-0.304295 -0.344946 0 
VECTORS velocity double
0.321766 0.156994 0 
0.778604 0.149881 0 
0.0795108 -0.283468 0 
0.4275 -0.357941 0 
0.539107 -0.0719477 0 
0.525364 0.180224 0 
0.680586 -0.587436 0 
0.693722 0.0294217 0 
0.966183 -0.155521 0 
0.900422 -0.225972 0 
0.905255 -0.220545 0 
0.991711 -0.475096 0 
1.18273 0.209249 0 
1.28624 -0.0439235 0 
0.92545 -0.0011483 0 
1.35952 -0.460462 0 
0.333276 -0.48723 0 
0.585514 -0.129273 0 
0.0823774 -0.284764 0 
0.704836 -0.124628 0 
0.453276 -0.334084 0 
0.511897 0.119817 0 
0.583278 -0.546475 0 
0.489299 -0.151665 0 
0.676794 -0.200049 0 
0.973072 -0.48728 0 
0.70056 -0.186735 0 
0.973006 -0.548377 0 
0.852036 0.0343357 0 
1.05998 0.0295272 0 
0.934616 -0.0165051 0 
1.31947 -0.122475 0 
0.016649 -0.407875 0 
0.299069 -0.698131 0 
0.148745 -0.380396 0 
0.454109 -0.430322 0 
0.308006 -0.916954 0 
0.54177 -0.447619 0 
0.576364 -0.557275 0 
0.673541 0.023197 0 
0.638473 -0.529083 0 
1.03839 -0.695763 0 
0.45863 -0.0831152 0 
0.941481 -0.322412 0 
0.706555 -0.578098 0 
1.07995 -0.461963 0 
0.640402 -0.164469 0 
0.939832 -0.353005 0 
0.135365 -0.761312 0 
0.541057 -0.463873 0 
-0.0374426 -0.901823 0 
0.0646706 -0.721666 0 
0.316885 -0.748767 0 
0.74526 -0.227908 0 
0.275168 -1.20741 0 
0.582103 -1.01824 0 
0.713579 -0.197128 0 
1.10032 -0.746263 0 
0.734837 -0.657828 0 
0.96648 -0.694577 0 
0.604555 -0.23829 0 
0.976907 -0.548313 0 
0.641486 -0.487294 0 
0.733527 -0.374781 0 
SCALARS mass double 1
LOOKUP_TABLE default
0.625
0.625
0.625
0.625
0.625
0.625
0.625
0.625
0.625
0.625
0.625
0.625
0.625
0.625
0.625
0.625
0.625
0.625
0.625
0.625
0.625
0.625
0.625
0.625
0.625
0.625
0.625
0.625
0.625
0.625
0.625
0.625
0.625
0.625
0.625
0.625
0.625
0.625
0.625
0.625
0.625
0.625
0.625
0.625
0.625
0.625
0.625
0.625
0.625
0.625
0.625
0.625
0.625
0.625
0.625
0.625
0.625
0.625
0.625
0.625
0.625
0.625
0.625
0.625
SCALARS volume double 1
LOOKUP_TABLE default
0.000649573
0.000619306
0.000600257
0.000600122
0.000623551
0.000613785
0.000624533
0.000605669
0.000618671
0.000636479
0.0006264
0.00064303
0.000608947
0.000641645
0.000610717
0.00061868
0.000664749
0.000622662
0.000629471
0.000612413
0.000629652
0.000616062
0.000621553
0.000617693
0.000634062
0.000597779
0.000632915
0.000648553
0.00063507
0.000608293
0.000615622
0.000637462
0.000638095
0.000608164
0.000642222
0.000641696
0.000634544
0.000620953
0.00063205
0.000601408
0.000626381
0.000609522
0.000648162
0.000586721
0.000643396
0.000629209
0.000641786
0.000612537
0.000631532
0.000630191
0.00061821
0.000639067
0.000606128
0.000616424
0.000629398
0.000622248
0.000610375
0.00062272
0.000633914
0.000615081
0.000623261
0.000624954
0.000621194
0.000626139
VECTORS momentum double
0.201104 0.0981213 0 
0.486627 0.0936758 0 
0.0496942 -0.177167 0 
0.267187 -0.223713 0 
0.336942 -0.0449673 0 
0.328353 0.11264 0 
0.425366 -0.367147 0 
0.433576 0.0183886 0 
0.603864 -0.0972006 0 
0.562764 -0.141233 0 
0.565784 -0.13784 0 
0.61982 -0.296935 0 
0.739204 0.130781 0 
0.803901 -0.0274522 0 
0.578406 -0.00071769 0 
0.8497 -0.287788 0 
0.208298 -0.304518 0 
0.365946 -0.0807957 0 
0.0514858 -0.177978 0 
0.440523 -0.0778928 0 
0.283297 -0.208802 0 
0.319935 0.0748856 0 
0.364549 -0.341547 0 
0.305812 -0.0947908 0 
0.422996 -0.12503 0 
0.60817 -0.30455 0 
0.43785 -0.116709 0 
0.608129 -0.342735 0 
0.532522 0.0214598 0 
0.662488 0.0184545 0 
0.584135 -0.0103157 0 
0.824671 -0.0765469 0 
0.0104056 -0.254922 0 
0.186918 -0.436332 0 
0.0929657 -0.237747 0 
0.283818 -0.268951 0 
0.192504 -0.573096 0 
0.338606 -0.279762 0 
0.360227 -0.348297 0 
0.420963 0.0144981 0 
0.399046 -0.330677 0 
0.648993 -0.434852 0 
0.286644 -0.051947 0 
0.588426 -0.201508 0 
0.441597 -0.361311 0 
0.674967 -0.288727 0 
0.400251 -0.102793 0 
0.587395 -0.220628 0 
0.084603 -0.47582 0 
0.33816 -0.289921 0 
-0.0234016 -0.563639 0 
0.0404192 -0.451041 0 
0.198053 -0.46798 0 
0.465788 -0.142442 0 
0.17198 -0.754633 0 
0.363814 -0.636403 0 
0.445987 -0.123205 0 
0.687699 -0.466414 0 
0.459273 -0.411142 0 
0.60405 -0.43411 0 
0.377847 -0.148931 0 
0.610567 -0.342696 0 
0.400929 -0.304559 0 
0.458455 -0.234238 0 
VECTORS body_force double
0 -9.81 0 
0 -9.81 0 
0 -9.81 0 
0 -9.81 0 
0 -9.81 0 
0 -9.81 0 
0 -9.81 0 
0 -9.81 0 
0 -9.81 0 
0 -9.81 0 
0 -9.81 0 
0 -9.81 0 
0 -9.81 0 
0 -9.81 0 
0 -9.81 0 
0 -9.81 0 
0 -9.81 0 
0 -9.81 0 
0 -9.81 0 
0 -9.81 0 
0 -9.81 0 
0 -9.81 0 
0 -9.81 0 
0 -9.81 0 
0 -9.81 0 
0 -9.81 0 
0 -9.81 0 
0 -9.81 0 
0 -9.81 0 
0 -9.81 0 
0 -9.81 0 
0 -9.81 0 
0 -9.81 0 
0 -9.81 0 
0 -9.81 0 
0 -9.81 0 
0 -9.81 0 
0 -9.81 0 
0 -9.81 0 
0 -9.81 0 
0 -9.81 0 
0 -9.81 0 
0 -9.81 0 
0 -9.81 0 
0 -9.81 0 
0 -9.81 0 
0 -9.81 0 
0 -9.81 0 
0 -9.81 0 
0 -9.81 0 
0 -9.81 0 
0 -9.81 0 
0 -9.81 0 
0 -9.81 0 
0 -9.81 0 
0 -9.81 0 
0 -9.81 0 
0 -9.81 0 
0 -9.81 0 
0 -9.81 0 
0 -9.81 0 
0 -9.81 0 
0 -9.81 0 
0 -9.81 0 
TENSORS cauchy_stress double
6861.36 -1962.97 0
-1962.97 554.675 0
0 0 0

-2654.46 -1298.62 0
-1298.62 894.398 0
0 0 0

-4428.64 -945.677 0
-945.677 -3339.31 0
0 0 0

-4873.73 -828.324 0
-828.324 -2937.55 0
0 0 0

462.454 -444.16 0
-444.16 -908.913 0
0 0 0

99.6088 840.223 0
840.223 -3581.78 0
0 0 0

1897.25 -1911.34 0
-1911.34 -2040.99 0
0 0 0

-2918.55 -1942.47 0
-1942.47 -3123.25 0
0 0 0

835.206 -2025.55 0
-2025.55 -2792.38 0
0 0 0

1626 2693.92 0
2693.92 1873.92 0
0 0 0

1280.89 -4406.06 0
-4406.06 -850.695 0
0 0 0

6117.22 452.217 0
452.217 -647.914 0
0 0 0

-841.503 -1280.79 0
-1280.79 -4162.41 0
0 0 0

-692.903 1924.68 0
1924.68 5747.57 0
0 0 0

-3581.72 352.178 0
352.178 -864.019 0
0 0 0

1335.75 26.8887 0
26.8887 -3290.26 0
0 0 0

8219.76 -835.808 0
-835.808 3637.64 0
0 0 0

-853.633 1349.56 0
1349.56 133.024 0
0 0 0

2312.78 -1972.31 0
-1972.31 -942.029 0
0 0 0

-1972.85 -736.532 0
-736.532 -1939.57 0
0 0 0

4114.13 1662.75 0
1662.75 -2688.14 0
0 0 0

-48.5743 -1128.63 0
-1128.63 -2721.55 0
0 0 0

1728.12 -1759.07 0
-1759.07 -2791.57 0
0 0 0

-2223.94 -3947.18 0
-3947.18 -37.5795 0
0 0 0

2287.81 -807.445 0
-807.445 480.387 0
0 0 0

-1502.73 -1606.02 0
-1606.02 -7060.73 0
0 0 0

1116.98 1372.53 0
1372.53 1303.18 0
0 0 0

5974.21 -2809.31 0
-2809.31 1139.79 0
0 0 0

2880.66 869.446 0
869.446 193.193 0
0 0 0

-2437.63 -1307.56 0
-1307.56 -2772.79 0
0 0 0

-1438.8 -212.238 0
-212.238 -1468.46 0
0 0 0

1909.13 3110.79 0
3110.79 1887.49 0
0 0 0

3762.9 862.723 0
862.723 224.664 0
0 0 0

-3501.38 2645.12 0
2645.12 -1749.89 0
0 0 0

7470.72 -918.302 0
-918.302 -2243.35 0
0 0 0

3466.53 -528.17 0
-528.17 1603.29 0
0 0 0

4757.53 889.559 0
889.559 -1843.08 0
0 0 0

609.528 -2238.62 0
-2238.62 -1858.8 0
0 0 0

3679.72 -933.841 0
-933.841 -1522.56 0
0 0 0

-2047.65 -639.252 0
-639.252 -5352.08 0
0 0 0

452.6 2813.71 0
2813.71 -28.2089 0
0 0 0

-1350.38 -2087.27 0
-2087.27 -3471.94 0
0 0 0

2800.12 3422.08 0
3422.08 4197.67 0
0 0 0

-1804.5 -4176.5 0
-4176.5 -10349.8 0
0 0 0

-223.622 2686.71 0
2686.71 5802.11 0
0 0 0

4123.84 -1219.24 0
-1219.24 -2833.02 0
0 0 0

-429.73 3409.36 0
3409.36 5526.53 0
0 0 0

-4913.62 1638.15 0
1638.15 1040.08 0
0 0 0

1822.78 1539.62 0
1539.62 176.665 0
0 0 0

-1666.69 1208.67 0
1208.67 3257.37 0
0 0 0

-118.489 807.865 0
807.865 -1982.33 0
0 0 0

1651.03 2106.48 0
2106.48 2629.38 0
0 0 0

-1661.13 -151.985 0
-151.985 -4234.99 0
0 0 0

848.713 -2749.87 0
-2749.87 -3505.76 0
0 0 0

1048.52 1874.91 0
1874.91 299.86 0
0 0 0

632.456 -512.992 0
-512.992 -1481.09 0
0 0 0

-2362.02 1827.2 0
1827.2 -2191.58 0
0 0 0

2027.95 -447.522 0
-447.522 -2730.9 0
0 0 0

458.413 263.571 0
263.571 2265.06 0
0 0 0

222.754 -835.525 0
-835.525 -3299.34 0
0 0 0

-297.152 1855 0
1855 -238.671 0
0 0 0

997.782 -650.938 0
-650.938 -1012.04 0
0 0 0

-523.913 -2005.73 0
-2005.73 -650.704 0
0 0 0

400.506 -998.926 0
-998.926 -50.4502 0
0 0 0

TENSORS velocity_gradient double
-1.31943 4.61371 0
-5.51803 -0.143058 0
0 0 0

-0.954681 4.71694 0
-4.67087 0.0966906 0
0 0 0

-0.839577 4.91146 0
-4.6149 0.648479 0
0 0 0

-0.445846 4.90845 0
-3.11823 0.761045 0
0 0 0

-0.291401 4.02046 0
-3.75902 0.722148 0
0 0 0

0.603131 4.23588 0
-2.85688 0.939396 0
0 0 0

-0.646618 4.6325 0
-2.81032 1.35088 0
0 0 0

-0.615786 4.63522 0
-2.70265 1.3911 0
0 0 0

0.732885 5.73356 0
-2.39764 0.309726 0
0 0 0

-0.433161 5.60186 0
-2.35482 0.331753 0
0 0 0

-0.57798 5.27538 0
-2.44795 0.984331 0
0 0 0

-0.527389 5.43366 0
-1.68157 0.985887 0
0 0 0

-0.635801 3.83476 0
-1.20702 0.743615 0
0 0 0

-1.06103 3.75872 0
-1.13213 0.635335 0
0 0 0

-0.555533 4.2244 0
-1.05435 0.81365 0
0 0 0

-0.948759 3.28774 0
-1.09647 0.485764 0
0 0 0

-0.0662334 3.84194 0
-2.92167 0.563444 0
0 0 0

-0.285905 4.54034 0
-2.87423 0.826315 0
0 0 0

-0.203958 3.73477 0
-2.99565 0.0811241 0
0 0 0

0.0843775 4.23487 0
-2.59598 0.978236 0
0 0 0

-0.613417 4.58302 0
-2.82385 1.23353 0
0 0 0

-0.621965 4.66682 0
-2.72253 1.49279 0
0 0 0

0.306619 4.21987 0
-1.77534 1.11447 0
0 0 0

0.225295 4.60364 0
-1.94793 1.28163 0
0 0 0

-0.585242 5.05879 0
-2.52526 1.5801 0
0 0 0

-0.571421 5.44353 0
-2.05545 1.71101 0
0 0 0

0.0670875 4.56889 0
-2.47247 1.16641 0
0 0 0

-0.458891 4.80928 0
-2.8835 1.55837 0
0 0 0

-1.1791 4.72338 0
-2.81035 1.46155 0
0 0 0

-1.20062 3.16333 0
-2.37725 0.879516 0
0 0 0

-1.21016 4.61253 0
-3.25532 1.46099 0
0 0 0

-1.30795 3.49389 0
-2.72895 1.96272 0
0 0 0

0.199893 3.91906 0
-3.19581 0.197861 0
0 0 0

0.181177 4.28787 0
-2.62852 1.57697 0
0 0 0

-0.961592 3.71573 0
-4.30774 0.59774 0
0 0 0

-0.759821 4.61166 0
-3.8872 2.29485 0
0 0 0

0.281319 4.3198 0
-1.94742 1.79416 0
0 0 0

0.262095 4.45215 0
-1.82591 0.779377 0
0 0 0

0.0373799 4.93909 0
-4.35677 2.48184 0
0 0 0

1.27148 4.41951 0
-3.64091 1.01631 0
0 0 0

0.107559 4.41309 0
-2.33828 0.649866 0
0 0 0

0.075707 3.9505 0
-2.41207 1.18922 0
0 0 0

1.397 4.44793 0
-2.45814 1.28412 0
0 0 0

1.10722 2.71409 0
-1.60449 1.06617 0
0 0 0

-1.1255 3.64063 0
-2.102 1.12057 0
0 0 0

-2.86891 3.09825 0
-2.27705 2.30686 0
0 0 0

-0.701297 1.93847 0
-1.74942 0.917258 0
0 0 0

-2.5138 1.53882 0
-2.10619 1.33609 0
0 0 0

-1.99449 3.47145 0
-5.32286 0.880301 0
0 0 0

-1.81684 5.84886 0
-4.96786 2.67161 0
0 0 0

-1.5999 3.19709 0
-5.91043 0.835982 0
0 0 0

-1.80391 5.57074 0
-6.50255 2.25725 0
0 0 0

-0.290313 6.63959 0
-4.46332 3.03475 0
0 0 0

1.09357 5.42633 0
-3.82911 2.56974 0
0 0 0

-1.13742 8.05669 0
-7.83446 3.88316 0
0 0 0

-0.528827 7.34395 0
-6.35865 4.04173 0
0 0 0

1.36838 4.57401 0
-2.72784 2.47212 0
0 0 0

0.700085 2.91356 0
-1.8353 2.01283 0
0 0 0

-0.730325 4.36443 0
-4.41942 4.22209 0
0 0 0

-1.12397 3.72327 0
-2.49517 4.44622 0
0 0 0

-1.03192 0.366357 0
-1.14177 0.953298 0
0 0 0

-1.82447 0.347362 0
0.576939 1.08118 0
0 0 0

-1.52212 -0.189947 0
-0.940011 2.20611 0
0 0 0

-1.88499 -0.293966 0
0.366919 2.58074 0
0 0 0

SCALARS active double 1
LOOKUP_TABLE default
1
1
1
1
1
1
1
1
1
1
1
1
1
1
1
1
1
1
1
1
1
1
1
1
1
1
1
1
1
1
1
1
1
1
1
1
1
1
1
1
1
1
1
1
1
1
1
1
1
1
1
1
1
1
1
1
1
1
1
1
1
1
1
1
SCALARS extent double 1
LOOKUP_TABLE default
0.0125
0.0125
0.0125
0.0125
0.0125
0.0125
0.0125
0.0125
0.0125
0.0125
0.0125
0.0125
0.0125
0.0125
0.0125
0.0125
0.0125
0.0125
0.0125
0.0125
0.0125
0.0125
0.0125
0.0125
0.0125
0.0125
0.0125
0.0125
0.0125
0.0125
0.0125
0.0125
0.0125
0.0125
0.0125
0.0125
0.0125
0.0125
0.0125
0.0125
0.0125
0.0125
0.0125
0.0125
0.0125
0.0125
0.0125
0.0125
0.0125
0.0125
0.0125
0.0125
0.0125
0.0125
0.0125
0.0125
0.0125
0.0125
0.0125
0.0125
0.0125
0.0125
0.0125
0.0125
SCALARS pressure double 1
LOOKUP_TABLE default
-3708.02
880.031
3883.97
3905.64
223.229
1741.09
71.8719
3020.9
978.585
-1749.96
-215.098
-2734.65
2501.96
-2527.34
2222.87
977.255
-5928.7
360.305
-685.374
1956.21
-712.991
1385.06
531.723
1130.76
-1384.1
4281.73
-1210.08
-3557
-1536.92
2605.21
1453.63
-1898.31
-1993.78
2625.64
-2613.68
-2534.91
-1457.23
624.637
-1078.58
3699.86
-212.196
2411.16
-3498.9
6077.14
-2789.24
-645.413
-2548.4
1936.77
-999.723
-795.338
1050.41
-2140.21
2948.06
1328.52
-674.189
424.318
2276.8
351.475
-1361.74
1538.29
267.911
7.13003
587.309
-175.028
SCALARS density double 1
LOOKUP_TABLE default
962.171
1009.19
1041.22
1041.45
1002.32
1018.27
1000.75
1031.92
1010.23
981.965
997.765
971.96
1026.36
974.058
1023.39
1010.22
940.204
1003.75
992.897
1020.55
992.612
1014.51
1005.55
1011.83
985.708
1045.54
987.494
963.683
984.143
1027.46
1015.23
980.451
979.478
1027.68
973.184
973.981
984.959
1006.52
988.845
1039.23
997.796
1025.39
964.266
1065.24
971.409
993.31
973.845
1020.35
989.657
991.763
1010.98
977.988
1031.13
1013.91
993.013
1004.42
1023.96
1003.66
985.938
1016.13
1002.79
1000.07
1006.13
998.181
