# vtk DataFile Version 3.0
Frame: 53, Time: 0.901
ASCII
DATASET UNSTRUCTURED_GRID
POINTS 64 double
0.389605 0.355112 0 
0.413056 0.345537 0 
0.380089 0.328833 0 
0.405544 0.318887 0 
0.436112 0.335735 0 
0.45977 0.32626 0 
0.429331 0.310774 0 
0.454078 0.300179 0 
0.484435 0.31739 0 
0.509092 0.30671 0 
0.477785 0.291182 0 
0.502331 0.282648 0 
0.533361 0.298105 0 
0.558236 0.290609 0 
0.5264 0.27411 0 
0.551159 0.264872 0 
0.372442 0.30679 0 
0.39688 0.295254 0 
0.362101 0.284356 0 
0.388156 0.272827 0 
0.420294 0.286043 0 
0.443786 0.276656 0 
0.410309 0.262409 0 
0.434236 0.252572 0 
0.468019 0.267008 0 
0.491303 0.258894 0 
0.458512 0.24388 0 
0.48143 0.234355 0 
0.516212 0.250763 0 
0.539992 0.240926 0 
0.506121 0.226334 0 
0.529819 0.216628 0 
0.354747 0.261557 0 
0.378017 0.248817 0 
0.345357 0.238326 0 
0.366495 0.224636 0 
0.400479 0.238783 0 
0.423864 0.227957 0 
0.390008 0.213851 0 
0.414139 0.204475 0 
0.448104 0.218779 0 
0.47238 0.210214 0 
0.436995 0.195001 0 
0.461713 0.187125 0 
0.496296 0.201146 0 
0.520022 0.191959 0 
0.485742 0.17732 0 
0.508974 0.168272 0 
0.332864 0.216187 0 
0.354754 0.201854 0 
0.320817 0.195827 0 
0.343683 0.179759 0 
0.379188 0.191756 0 
0.404091 0.180966 0 
0.367862 0.169775 0 
0.391206 0.157021 0 
0.428134 0.171676 0 
0.452111 0.163363 0 
0.417013 0.146076 0 
0.443131 0.137207 0 
0.477575 0.153094 0 
0.501637 0.14477 0 
0.46715 0.128048 0 
0.493778 0.120969 0 
CELLS 64 128
1 0
1 1
1 2
1 3
1 4
1 5
1 6
1 7
1 8
1 9
1 10
1 11
1 12
1 13
1 14
1 15
1 16
1 17
1 18
1 19
1 20
1 21
1 22
1 23
1 24
1 25
1 26
1 27
1 28
1 29
1 30
1 31
1 32
1 33
1 34
1 35
1 36
1 37
1 38
1 39
1 40
1 41
1 42
1 43
1 44
1 45
1 46
1 47
1 48
1 49
1 50
1 51
1 52
1 53
1 54
1 55
1 56
1 57
1 58
1 59
1 60
1 61
1 62
1 63
CELL_TYPES 64
1
1
1
1
1
1
1
1
1
1
1
1
1
1
1
1
1
1
1
1
1
1
1
1
1
1
1
1
1
1
1
1
1
1
1
1
1
1
1
1
1
1
1
1
1
1
1
1
1
1
1
1
1
1
1
1
1
1
1
1
1
1
1
1
POINT_DATA 64
VECTORS displacement double
-0.122895 -0.257388 0 
-0.0994439 -0.291963 0 
-0.157411 -0.283667 0 
-0.131956 -0.318613 0 
-0.0763881 -0.326765 0 
-0.0527298 -0.36124 0 
-0.108169 -0.351726 0 
-0.0834223 -0.387321 0 
-0.0280653 -0.39511 0 
-0.00340838 -0.43079 0 
-0.0597155 -0.421318 0 
-0.0351687 -0.454852 0 
0.0208613 -0.464395 0 
0.0457355 -0.496891 0 
-0.0110997 -0.48839 0 
0.0136594 -0.522628 0 
-0.190058 -0.30571 0 
-0.16562 -0.342246 0 
-0.225399 -0.328144 0 
-0.199344 -0.364673 0 
-0.142206 -0.376457 0 
-0.118714 -0.410844 0 
-0.177191 -0.400091 0 
-0.153264 -0.434928 0 
-0.0944807 -0.445492 0 
-0.0711969 -0.478606 0 
-0.128988 -0.46862 0 
-0.10607 -0.503145 0 
-0.0462875 -0.511737 0 
-0.0225083 -0.546574 0 
-0.0813794 -0.536166 0 
-0.0576809 -0.570872 0 
-0.257753 -0.350943 0 
-0.234483 -0.388683 0 
-0.292143 -0.374174 0 
-0.271005 -0.412864 0 
-0.212021 -0.423717 0 
-0.188636 -0.459543 0 
-0.247492 -0.448649 0 
-0.223361 -0.483025 0 
-0.164396 -0.493721 0 
-0.14012 -0.527286 0 
-0.200505 -0.517499 0 
-0.175787 -0.550375 0 
-0.116204 -0.561354 0 
-0.092478 -0.595541 0 
-0.151758 -0.58518 0 
-0.128526 -0.619228 0 
-0.329636 -0.396313 0 
-0.307746 -0.435646 0 
-0.366683 -0.416673 0 
-0.343817 -0.457741 0 
-0.283312 -0.470744 0 
-0.258409 -0.506534 0 
-0.319638 -0.492725 0 
-0.296294 -0.530479 0 
-0.234366 -0.540824 0 
-0.210389 -0.574137 0 
-0.270487 -0.566424 0 
-0.244369 -0.600293 0 
-0.184925 -0.609406 0 
-0.160863 -0.64273 0 
-0.22035 -0.634452 0 
-0.193722 -0.666531 0 
VECTORS velocity double
-0.499208 0.360676 0 
-0.154037 0.322504 0 
-0.436827 -0.0101665 0 
-0.407814 0.413835 0 
-0.305072 0.346927 0 
-0.455976 0.708558 0 
-0.265037 0.333841 0 
0.0172582 0.323243 0 
-0.515927 0.228028 0 
0.203501 0.118583 0 
-0.206174 0.765575 0 
0.0295466 0.177948 0 
-0.4569 0.286384 0 
-0.14295 0.551738 0 
-0.0347426 -0.00986855 0 
0.251558 0.626187 0 
-0.277557 0.131086 0 
-0.105808 0.193084 0 
-0.331287 0.189456 0 
-0.255163 0.722974 0 
-0.34758 0.58865 0 
0.226517 0.166976 0 
-0.343825 0.436944 0 
0.0237634 0.499894 0 
-0.0711896 0.447041 0 
-0.122561 0.511119 0 
-0.309033 0.471386 0 
-0.00518238 0.420561 0 
-0.174147 0.168537 0 
-0.0954024 0.338379 0 
0.122167 0.566058 0 
-0.115807 0.665791 0 
-0.706785 0.0148067 0 
-0.0461375 0.797327 0 
0.13277 0.10841 0 
0.374648 0.446089 0 
0.28269 -0.0882946 0 
0.459134 0.095287 0 
0.596666 0.554511 0 
0.278185 0.694588 0 
0.367384 0.362526 0 
0.43785 0.416495 0 
0.0715376 0.00718618 0 
0.450088 0.497192 0 
0.131511 0.16944 0 
0.636138 0.485194 0 
0.072878 0.526043 0 
0.554991 0.538489 0 
0.405938 -0.489308 0 
0.460075 0.00867985 0 
0.736567 -0.957588 0 
0.368754 -0.533481 0 
0.976865 0.506727 0 
0.367718 0.33338 0 
1.24459 0.627529 0 
0.577625 0.265759 0 
0.421287 0.041846 0 
0.610499 0.517602 0 
0.717498 -0.214989 0 
1.10245 0.108099 0 
0.230325 0.25508 0 
0.821364 0.636628 0 
0.545465 0.544851 0 
0.773418 0.328122 0 
SCALARS mass double 1
LOOKUP_TABLE default
0.625
0.625
0.625
0.625
0.625
0.625
0.625
0.625
0.625
0.625
0.625
0.625
0.625
0.625
0.625
0.625
0.625
0.625
0.625
0.625
0.625
0.625
0.625
0.625
0.625
0.625
0.625
0.625
0.625
0.625
0.625
0.625
0.625
0.625
0.625
0.625
0.625
0.625
0.625
0.625
0.625
0.625
0.625
0.625
0.625
0.625
0.625
0.625
0.625
0.625
0.625
0.625
0.625
0.625
0.625
0.625
0.625
0.625
0.625
0.625
0.625
0.625
0.625
0.625
SCALARS volume double 1
LOOKUP_TABLE default
0.000627181
0.000611575
0.000615916
0.000625212
0.000632992
0.00061976
0.000632153
0.000600742
0.000639269
0.000625733
0.000637903
0.000625767
0.000625532
0.000632085
0.000607838
0.000629704
0.000610549
0.000608995
0.000615916
0.000618379
0.000606353
0.000648508
0.00063536
0.000611264
0.000609481
0.000633069
0.000608098
0.000625937
0.000639887
0.000620311
0.000635751
0.000617019
0.000605375
0.000616721
0.00060409
0.000647274
0.000595894
0.000656454
0.000636396
0.000602246
0.000636313
0.000641448
0.000626179
0.000634876
0.000620007
0.000626298
0.000621059
0.000622544
0.000608161
0.00060026
0.000590511
0.000693605
0.000583413
0.000664191
0.000597696
0.000684346
0.000620118
0.000653609
0.000659091
0.000633383
0.000637538
0.000619439
0.000615817
0.000617528
VECTORS momentum double
-0.312005 0.225423 0 
-0.096273 0.201565 0 
-0.273017 -0.00635406 0 
-0.254884 0.258647 0 
-0.19067 0.216829 0 
-0.284985 0.442849 0 
-0.165648 0.208651 0 
0.0107864 0.202027 0 
-0.322454 0.142517 0 
0.127188 0.0741145 0 
-0.128858 0.478485 0 
0.0184667 0.111217 0 
-0.285562 0.17899 0 
-0.0893438 0.344836 0 
-0.0217141 -0.00616784 0 
0.157224 0.391367 0 
-0.173473 0.0819289 0 
-0.0661298 0.120677 0 
-0.207054 0.11841 0 
-0.159477 0.451859 0 
-0.217238 0.367906 0 
0.141573 0.10436 0 
-0.214891 0.27309 0 
0.0148521 0.312434 0 
-0.0444935 0.279401 0 
-0.0766005 0.31945 0 
-0.193146 0.294616 0 
-0.00323899 0.26285 0 
-0.108842 0.105335 0 
-0.0596265 0.211487 0 
0.0763543 0.353787 0 
-0.0723791 0.416119 0 
-0.441741 0.00925419 0 
-0.028836 0.498329 0 
0.0829815 0.0677561 0 
0.234155 0.278806 0 
0.176681 -0.0551841 0 
0.286959 0.0595544 0 
0.372916 0.346569 0 
0.173866 0.434118 0 
0.229615 0.226579 0 
0.273656 0.260309 0 
0.044711 0.00449136 0 
0.281305 0.310745 0 
0.0821941 0.1059 0 
0.397586 0.303246 0 
0.0455488 0.328777 0 
0.346869 0.336555 0 
0.253712 -0.305818 0 
0.287547 0.0054249 0 
0.460354 -0.598492 0 
0.230471 -0.333426 0 
0.610541 0.316704 0 
0.229824 0.208363 0 
0.77787 0.392205 0 
0.361016 0.1661 0 
0.263305 0.0261537 0 
0.381562 0.323501 0 
0.448436 -0.134368 0 
0.689031 0.0675617 0 
0.143953 0.159425 0 
0.513353 0.397892 0 
0.340916 0.340532 0 
0.483386 0.205076 0 
VECTORS body_force double
0 -9.81 0 
0 -9.81 0 
0 -9.81 0 
0 -9.81 0 
0 -9.81 0 
0 -9.81 0 
0 -9.81 0 
0 -9.81 0 
0 -9.81 0 
0 -9.81 0 
0 -9.81 0 
0 -9.81 0 
0 -9.81 0 
0 -9.81 0 
0 -9.81 0 
0 -9.81 0 
0 -9.81 0 
0 -9.81 0 
0 -9.81 0 
0 -9.81 0 
0 -9.81 0 
0 -9.81 0 
0 -9.81 0 
0 -9.81 0 
0 -9.81 0 
0 -9.81 0 
0 -9.81 0 
0 -9.81 0 
0 -9.81 0 
0 -9.81 0 
0 -9.81 0 
0 -9.81 0 
0 -9.81 0 
0 -9.81 0 
0 -9.81 0 
0 -9.81 0 
0 -9.81 0 
0 -9.81 0 
0 -9.81 0 
0 -9.81 0 
0 -9.81 0 
0 -9.81 0 
0 -9.81 0 
0 -9.81 0 
0 -9.81 0 
0 -9.81 0 
0 -9.81 0 
0 -9.81 0 
0 -9.81 0 
0 -9.81 0 
0 -9.81 0 
0 -9.81 0 
0 -9.81 0 
0 -9.81 0 
0 -9.81 0 
0 -9.81 0 
0 -9.81 0 
0 -9.81 0 
0 -9.81 0 
0 -9.81 0 
0 -9.81 0 
0 -9.81 0 
0 -9.81 0 
0 -9.81 0 
TENSORS cauchy_stress double
55.2888 144.06 0
144.06 614.537 0
0 0 0

-2692.59 1711.9 0
1711.9 -1483.3 0
0 0 0

-675.11 -3183.54 0
-3183.54 -2140.43 0
0 0 0

-1615.89 -1442.71 0
-1442.71 1681.02 0
0 0 0

46.5241 -1520.27 0
-1520.27 2396.83 0
0 0 0

-2877.38 -231.306 0
-231.306 1258.4 0
0 0 0

-1104.02 -2490.36 0
-2490.36 3292.45 0
0 0 0

-4234.16 -622.328 0
-622.328 -3378.71 0
0 0 0

3027.05 -1858.93 0
-1858.93 1314.09 0
0 0 0

316.761 -661.272 0
-661.272 -91.2227 0
0 0 0

552.82 -486.95 0
-486.95 3376.98 0
0 0 0

-963.893 -1962.11 0
-1962.11 1199.61 0
0 0 0

981.017 1248.49 0
1248.49 -817.413 0
0 0 0

907.227 -330.827 0
-330.827 1260.45 0
0 0 0

-1751.6 -1490.04 0
-1490.04 -3602.78 0
0 0 0

-45.3296 945.274 0
945.274 1487.24 0
0 0 0

-751.551 -448.96 0
-448.96 -3747.16 0
0 0 0

-950.513 -1616.28 0
-1616.28 -4038.23 0
0 0 0

2418.31 -3138.54 0
-3138.54 -5233.92 0
0 0 0

-2298.51 -3038.89 0
-3038.89 250.383 0
0 0 0

-4302.58 1537.74 0
1537.74 -1522.42 0
0 0 0

2471.48 915.082 0
915.082 4628.98 0
0 0 0

-453.245 -3308.79 0
-3308.79 3614.93 0
0 0 0

-1348.49 2222.15 0
2222.15 -2925.02 0
0 0 0

-1568.46 -365.342 0
-365.342 -3267.03 0
0 0 0

2271.53 2949.76 0
2949.76 195.377 0
0 0 0

-3759.57 2101.49 0
2101.49 -1512.82 0
0 0 0

1586.93 1616.72 0
1616.72 -1298.94 0
0 0 0

2538.55 1784.7 0
1784.7 1988.46 0
0 0 0

-2157.77 67.9684 0
67.9684 709.561 0
0 0 0

3820.89 2492.38 0
2492.38 -540.918 0
0 0 0

-2577.83 747 0
747 106.295 0
0 0 0

-2175.46 -1439.73 0
-1439.73 -3959.95 0
0 0 0

-5054.96 -1864.21 0
-1864.21 2490.69 0
0 0 0

-5166.22 -1883.76 0
-1883.76 -1377.6 0
0 0 0

3570.26 2600.46 0
2600.46 3164.05 0
0 0 0

-6048.33 1690.47 0
1690.47 -3122.55 0
0 0 0

6575.22 -2617.5 0
-2617.5 2867.32 0
0 0 0

2850.79 2377.72 0
2377.72 624.065 0
0 0 0

-6266.16 2314.16 0
2314.16 -865.77 0
0 0 0

2687.69 4632.3 0
4632.3 762.134 0
0 0 0

1948.33 -1885.4 0
-1885.4 3047.25 0
0 0 0

1617.86 217.707 0
217.707 -1255.5 0
0 0 0

2546.38 -355.902 0
-355.902 468.523 0
0 0 0

-1882.86 691.581 0
691.581 340.506 0
0 0 0

1121.42 -390.907 0
-390.907 -722.604 0
0 0 0

1529.53 4314.26 0
4314.26 -2745.92 0
0 0 0

864.199 -1175.64 0
-1175.64 -1621.42 0
0 0 0

-3100.17 -1557.77 0
-1557.77 -2152.07 0
0 0 0

-2634.27 -958.408 0
-958.408 -5132.69 0
0 0 0

-8905.3 -9463.23 0
-9463.23 -2010.86 0
0 0 0

14164 2399.12 0
2399.12 5865.17 0
0 0 0

-4378.94 -919.382 0
-919.382 -8862.54 0
0 0 0

7627.76 -680.497 0
-680.497 4067.9 0
0 0 0

-1367.99 1762.26 0
1762.26 -7222.2 0
0 0 0

14505.6 -2098.46 0
-2098.46 2939.08 0
0 0 0

-1422.75 1823.46 0
1823.46 -85.2298 0
0 0 0

5327.4 205.278 0
205.278 3279.72 0
0 0 0

7911.34 -1062.89 0
-1062.89 2302.02 0
0 0 0

-117.661 -1492.98 0
-1492.98 2679.79 0
0 0 0

3680.19 1262.7 0
1262.7 139.396 0
0 0 0

-1680.42 -2052.26 0
-2052.26 -38.1597 0
0 0 0

-212.123 294.349 0
294.349 -2634.42 0
0 0 0

-1532.47 -1005.02 0
-1005.02 -780.454 0
0 0 0

TENSORS velocity_gradient double
0.933492 -3.20768 0
2.11157 0.0875968 0
0 0 0

1.67557 -1.77481 0
1.81334 -0.798724 0
0 0 0

1.11728 -1.49545 0
3.07351 -0.275758 0
0 0 0

1.79634 -1.63184 0
1.73191 -0.933614 0
0 0 0

1.68427 -1.8739 0
1.7559 -0.793479 0
0 0 0

0.762881 -2.11927 0
-2.12197 -0.572569 0
0 0 0

1.88272 -1.81973 0
1.63456 -0.826595 0
0 0 0

1.07319 -2.69976 0
-1.7427 -0.216862 0
0 0 0

0.883949 -2.45728 0
-2.25856 -0.19123 0
0 0 0

-0.113114 -2.62563 0
1.0454 -0.277279 0
0 0 0

0.717124 -2.2722 0
-2.20994 -0.562016 0
0 0 0

0.248065 -1.47648 0
0.0685611 -1.16919 0
0 0 0

-0.0499884 -2.14163 0
1.12139 -0.835387 0
0 0 0

-0.358935 -2.76982 0
3.81034 -0.557549 0
0 0 0

0.373441 -1.82848 0
0.785967 -0.825909 0
0 0 0

0.890526 -2.45529 0
2.82478 -0.5125 0
0 0 0

1.21776 -1.46046 0
3.85507 -0.00351481 0
0 0 0

1.43867 -5.20251 0
3.3627 -0.757139 0
0 0 0

1.51128 -5.10064 0
4.09621 -0.774696 0
0 0 0

1.70494 -5.53223 0
4.10254 -0.788808 0
0 0 0

1.32378 -4.81187 0
1.24454 -0.310809 0
0 0 0

0.893769 -3.76427 0
0.991724 0.239815 0
0 0 0

0.266771 -5.26338 0
0.685018 -0.549809 0
0 0 0

-0.239955 -5.29398 0
0.412666 0.421129 0
0 0 0

-0.339544 -2.70111 0
-1.38575 -0.22747 0
0 0 0

-0.692786 -1.68475 0
-1.11023 -1.02022 0
0 0 0

-1.12126 -6.27174 0
-0.373707 1.35396 0
0 0 0

-1.20336 -6.07433 0
0.278228 -0.213536 0
0 0 0

0.676658 -3.38165 0
0.495255 -1.46148 0
0 0 0

0.521516 -4.56854 0
0.626581 -2.66455 0
0 0 0

0.00788177 -5.70787 0
1.05172 -1.66274 0
0 0 0

-0.297887 -4.91471 0
1.34236 -2.36216 0
0 0 0

1.74998 -5.18525 0
4.00784 -0.71248 0
0 0 0

1.84118 -9.05191 0
4.39898 0.575471 0
0 0 0

-1.80967 -12.5407 0
7.20061 4.98909 0
0 0 0

0.767072 -11.9376 0
6.00387 2.28547 0
0 0 0

0.0830647 -10.101 0
2.29221 0.150187 0
0 0 0

-2.00198 -8.37738 0
-0.561253 0.805939 0
0 0 0

0.206454 -10.7374 0
6.81101 0.557443 0
0 0 0

-3.64945 -8.10359 0
-1.42068 0.961875 0
0 0 0

-2.25349 -6.6494 0
-0.19158 1.61388 0
0 0 0

-1.41149 -6.15377 0
1.93085 0.417249 0
0 0 0

-3.65455 -5.01376 0
-1.17876 1.59496 0
0 0 0

-1.4441 -5.88975 0
2.76017 0.21803 0
0 0 0

-1.28627 -5.99914 0
2.29528 -0.755383 0
0 0 0

-0.266065 -7.37532 0
2.19558 -1.11123 0
0 0 0

-1.40506 -5.98468 0
2.87628 -0.0643055 0
0 0 0

1.33268 -6.61851 0
3.24471 -0.614594 0
0 0 0

-1.50512 -12.1596 0
13.7292 8.46407 0
0 0 0

-0.546367 -10.107 0
8.83826 2.22411 0
0 0 0

-0.671144 -5.9931 0
17.6021 0.213805 0
0 0 0

0.313234 -5.90606 0
16.7039 -0.947747 0
0 0 0

-1.2148 -3.87704 0
6.89315 2.74159 0
0 0 0

-2.54909 -2.52815 0
1.29835 4.45353 0
0 0 0

-3.09523 -4.86119 0
4.51942 1.49925 0
0 0 0

-4.19648 -2.85091 0
3.12926 4.03691 0
0 0 0

-1.95342 -4.14055 0
0.950973 2.46081 0
0 0 0

-1.33846 -5.68279 0
2.55291 0.525153 0
0 0 0

-0.762833 -3.96044 0
3.0584 0.636232 0
0 0 0

-1.22504 -2.30153 0
3.45089 -0.922069 0
0 0 0

-1.25665 -5.03069 0
3.05292 0.0614767 0
0 0 0

0.95718 -3.45583 0
4.06748 0.555919 0
0 0 0

-0.545652 -2.34215 0
2.09292 -0.386006 0
0 0 0

-0.305075 -3.24061 0
1.74149 0.926422 0
0 0 0

SCALARS active double 1
LOOKUP_TABLE default
1
1
1
1
1
1
1
1
1
1
1
1
1
1
1
1
1
1
1
1
1
1
1
1
1
1
1
1
1
1
1
1
1
1
1
1
1
1
1
1
1
1
1
1
1
1
1
1
1
1
1
1
1
1
1
1
1
1
1
1
1
1
1
1
SCALARS extent double 1
LOOKUP_TABLE default
0.0125
0.0125
0.0125
0.0125
0.0125
0.0125
0.0125
0.0125
0.0125
0.0125
0.0125
0.0125
0.0125
0.0125
0.0125
0.0125
0.0125
0.0125
0.0125
0.0125
0.0125
0.0125
0.0125
0.0125
0.0125
0.0125
0.0125
0.0125
0.0125
0.0125
0.0125
0.0125
0.0125
0.0125
0.0125
0.0125
0.0125
0.0125
0.0125
0.0125
0.0125
0.0125
0.0125
0.0125
0.0125
0.0125
0.0125
0.0125
0.0125
0.0125
0.0125
0.0125
0.0125
0.0125
0.0125
0.0125
0.0125
0.0125
0.0125
0.0125
0.0125
0.0125
0.0125
0.0125
SCALARS pressure double 1
LOOKUP_TABLE default
-334.913
2087.94
1407.77
-32.5676
-1221.67
809.491
-1094.21
3806.43
-2170.57
-112.769
-1964.9
-117.86
-81.8023
-1083.84
2677.19
-720.956
2249.36
2494.37
1407.8
1024.07
2912.5
-3550.23
-1580.84
2136.75
2417.74
-1233.45
2636.19
-143.994
-2263.5
724.105
-1639.99
1235.77
3067.7
1282.14
3271.91
-3367.16
4585.44
-4721.27
-1737.43
3565.96
-1724.91
-2497.79
-181.183
-1507.45
771.175
-199.409
608.195
378.612
2626.12
3883.48
5458.08
-10014.6
6620.74
-5847.83
4295.1
-8722.33
753.992
-4303.56
-5106.68
-1281.06
-1909.8
859.29
1423.27
1156.46
SCALARS density double 1
LOOKUP_TABLE default
996.523
1021.95
1014.75
999.661
987.375
1008.45
988.685
1040.38
977.679
998.828
979.772
998.775
999.15
988.791
1028.23
992.53
1023.67
1026.28
1014.75
1010.71
1030.75
963.751
983.694
1022.47
1025.46
987.254
1027.8
998.504
976.734
1007.56
983.089
1012.93
1032.42
1013.42
1034.61
965.588
1048.84
952.085
982.093
1037.78
982.221
974.357
998.117
984.445
1008.05
997.928
1006.35
1003.95
1027.69
1041.21
1058.41
901.089
1071.28
940.995
1045.68
913.28
1007.87
956.23
948.276
986.765
980.334
1008.98
1014.91
1012.1
