# vtk DataFile Version 3.0
Frame: 20, Time: 0.35
ASCII
DATASET UNSTRUCTURED_GRID
POINTS 64 double
0.362213 0.0540474 0 
0.367673 0.0795543 0 
0.386258 0.0489892 0 
0.391435 0.0745534 0 
0.37192 0.104071 0 
0.378435 0.128476 0 
0.395906 0.0990077 0 
0.401643 0.123242 0 
0.384822 0.154782 0 
0.391193 0.182233 0 
0.408135 0.149334 0 
0.413201 0.175368 0 
0.401462 0.209043 0 
0.410962 0.232394 0 
0.423371 0.200314 0 
0.434998 0.223695 0 
0.410658 0.0456218 0 
0.414702 0.0709545 0 
0.438292 0.0406217 0 
0.439085 0.0643256 0 
0.419569 0.0953398 0 
0.42484 0.119559 0 
0.443386 0.0876424 0 
0.447551 0.111055 0 
0.431122 0.144952 0 
0.436088 0.16964 0 
0.453483 0.136301 0 
0.460737 0.161528 0 
0.44489 0.192833 0 
0.460515 0.219006 0 
0.468687 0.186341 0 
0.48238 0.211597 0 
0.4689 0.0359224 0 
0.46494 0.0582866 0 
0.501379 0.0335871 0 
0.493213 0.0549925 0 
0.467168 0.0815653 0 
0.470282 0.105023 0 
0.493166 0.0780233 0 
0.495593 0.100997 0 
0.474838 0.130002 0 
0.48281 0.154628 0 
0.498602 0.124719 0 
0.505403 0.146467 0 
0.491932 0.179806 0 
0.504574 0.202442 0 
0.514042 0.16828 0 
0.525945 0.189142 0 
0.532293 0.0331532 0 
0.521152 0.0535731 0 
0.561441 0.0366114 0 
0.549193 0.0571149 0 
0.519189 0.0746937 0 
0.520774 0.0955466 0 
0.547166 0.0761715 0 
0.548237 0.0945717 0 
0.523413 0.117332 0 
0.529472 0.137963 0 
0.550795 0.114249 0 
0.556031 0.133847 0 
0.537511 0.15893 0 
0.548166 0.178872 0 
0.562771 0.154328 0 
0.571607 0.172166 0 
CELLS 64 128
1 0
1 1
1 2
1 3
1 4
1 5
1 6
1 7
1 8
1 9
1 10
1 11
1 12
1 13
1 14
1 15
1 16
1 17
1 18
1 19
1 20
1 21
1 22
1 23
1 24
1 25
1 26
1 27
1 28
1 29
1 30
1 31
1 32
1 33
1 34
1 35
1 36
1 37
1 38
1 39
1 40
1 41
1 42
1 43
1 44
1 45
1 46
1 47
1 48
1 49
1 50
1 51
1 52
1 53
1 54
1 55
1 56
1 57
1 58
1 59
1 60
1 61
1 62
1 63
CELL_TYPES 64
1
1
1
1
1
1
1
1
1
1
1
1
1
1
1
1
1
1
1
1
1
1
1
1
1
1
1
1
1
1
1
1
1
1
1
1
1
1
1
1
1
1
1
1
1
1
1
1
1
1
1
1
1
1
1
1
1
1
1
1
1
1
1
1
POINT_DATA 64
VECTORS displacement double
-0.0502874 -0.358453 0 
-0.0448273 -0.357946 0 
-0.0512418 -0.363511 0 
-0.0460654 -0.362947 0 
-0.0405797 -0.358429 0 
-0.0340647 -0.359024 0 
-0.0415942 -0.363492 0 
-0.0358569 -0.364258 0 
-0.027678 -0.357718 0 
-0.021307 -0.355267 0 
-0.0293654 -0.363166 0 
-0.0242994 -0.362132 0 
-0.0110384 -0.353457 0 
-0.00153803 -0.355106 0 
-0.0141286 -0.362186 0 
-0.00250189 -0.363805 0 
-0.051842 -0.366878 0 
-0.0477978 -0.366546 0 
-0.0492078 -0.371878 0 
-0.0484148 -0.373174 0 
-0.042931 -0.36716 0 
-0.0376597 -0.367941 0 
-0.0441142 -0.374858 0 
-0.0399486 -0.376445 0 
-0.0313784 -0.367548 0 
-0.0264121 -0.36786 0 
-0.0340167 -0.376199 0 
-0.0267627 -0.375972 0 
-0.0176096 -0.369667 0 
-0.00198507 -0.368494 0 
-0.0188133 -0.376159 0 
-0.00511966 -0.375903 0 
-0.0435998 -0.376578 0 
-0.0475602 -0.379213 0 
-0.0361212 -0.378913 0 
-0.0442868 -0.382508 0 
-0.0453317 -0.380935 0 
-0.0422177 -0.382477 0 
-0.0443342 -0.384477 0 
-0.0419072 -0.386503 0 
-0.0376624 -0.382498 0 
-0.0296903 -0.382872 0 
-0.0388977 -0.387781 0 
-0.0320967 -0.391033 0 
-0.0205683 -0.382694 0 
-0.00792625 -0.385058 0 
-0.0234578 -0.39422 0 
-0.0115547 -0.398358 0 
-0.0302071 -0.379347 0 
-0.041348 -0.383927 0 
-0.0260587 -0.375889 0 
-0.038307 -0.380385 0 
-0.0433111 -0.387806 0 
-0.0417256 -0.391953 0 
-0.0403343 -0.386328 0 
-0.0392627 -0.392928 0 
-0.0390869 -0.395168 0 
-0.0330284 -0.399537 0 
-0.0367049 -0.398251 0 
-0.0314695 -0.403653 0 
-0.0249892 -0.40357 0 
-0.0143339 -0.408628 0 
-0.024729 -0.408172 0 
-0.0158927 -0.415334 0 
VECTORS velocity double
-1.69532 0.649557 0 
-0.95329 1.26236 0 
-1.59795 0.0448585 0 
-1.0458 0.729328 0 
-1.49896 0.601227 0 
-1.20553 0.738042 0 
-1.15107 0.202126 0 
-1.06055 0.194127 0 
-0.346252 1.13908 0 
-0.302038 0.680862 0 
-0.579996 0.495304 0 
-0.568358 0.293833 0 
-0.748947 0.639879 0 
-1.74645 0.748794 0 
-1.13252 -0.0571335 0 
-2.08365 0.114679 0 
-1.47763 0.370325 0 
-1.17692 1.04986 0 
-1.69094 0.609746 0 
-1.57076 1.46205 0 
-1.00898 0.336406 0 
-0.729936 0.157935 0 
-1.21105 0.653492 0 
-0.855313 0.216013 0 
-0.311169 0.374702 0 
-0.248559 0.335986 0 
-0.563349 0.419687 0 
-0.386166 0.698729 0 
-0.989795 0.221695 0 
-1.16846 1.23272 0 
-0.671557 1.60705 0 
-0.80325 1.94782 0 
-1.50175 0.344257 0 
-1.89021 1.44526 0 
-1.06075 0.134975 0 
-2.24367 1.23809 0 
-1.37309 1.2649 0 
-0.518676 1.27546 0 
-1.75162 1.43659 0 
-0.426445 1.80092 0 
-0.500936 1.39673 0 
-0.887849 1.35703 0 
-0.132911 1.97654 0 
-0.701496 1.60956 0 
-1.23676 1.87885 0 
-0.469934 2.44347 0 
-1.15845 1.53949 0 
-0.0205813 2.22011 0 
-0.884875 -0.176131 0 
-2.67245 0.74979 0 
-2.01549 0.256297 0 
-3.63539 1.05181 0 
-2.41338 0.853141 0 
-1.25548 1.24275 0 
-2.92345 0.955373 0 
-1.33776 0.827887 0 
-0.552816 1.58838 0 
-0.725121 1.58123 0 
-0.357262 0.726966 0 
-0.553866 0.681125 0 
-0.869953 1.64641 0 
0.249334 1.82634 0 
-1.08254 1.15006 0 
0.213737 0.95061 0 
SCALARS mass double 1
LOOKUP_TABLE default
0.625
0.625
0.625
0.625
0.625
0.625
0.625
0.625
0.625
0.625
0.625
0.625
0.625
0.625
0.625
0.625
0.625
0.625
0.625
0.625
0.625
0.625
0.625
0.625
0.625
0.625
0.625
0.625
0.625
0.625
0.625
0.625
0.625
0.625
0.625
0.625
0.625
0.625
0.625
0.625
0.625
0.625
0.625
0.625
0.625
0.625
0.625
0.625
0.625
0.625
0.625
0.625
0.625
0.625
0.625
0.625
0.625
0.625
0.625
0.625
0.625
0.625
0.625
0.625
SCALARS volume double 1
LOOKUP_TABLE default
0.000663207
0.000641331
0.000626096
0.000623085
0.000634172
0.000669026
0.000585958
0.000598635
0.000656986
0.000660717
0.000636437
0.000603978
0.000668296
0.000580449
0.000613705
0.000632229
0.000627189
0.000670289
0.000607109
0.000649095
0.000621176
0.000642678
0.000560526
0.000584298
0.000673181
0.000597644
0.000601873
0.000625422
0.000669971
0.000655699
0.000673601
0.000627925
0.000596472
0.000673769
0.00053389
0.000671414
0.000589365
0.000611353
0.000582195
0.000601248
0.000611924
0.000597731
0.000590514
0.000570042
0.000654978
0.000573371
0.000622831
0.00057407
0.000534309
0.000657043
0.000577741
0.000619044
0.000549024
0.000571781
0.000495516
0.000537906
0.000577019
0.000557059
0.000569103
0.000560641
0.000593767
0.000503079
0.000567884
0.000392342
VECTORS momentum double
-1.05957 0.405973 0 
-0.595806 0.788975 0 
-0.998717 0.0280366 0 
-0.653627 0.45583 0 
-0.936847 0.375767 0 
-0.753454 0.461276 0 
-0.719419 0.126329 0 
-0.662843 0.12133 0 
-0.216407 0.711923 0 
-0.188774 0.425539 0 
-0.362498 0.309565 0 
-0.355224 0.183646 0 
-0.468092 0.399925 0 
-1.09153 0.467996 0 
-0.707825 -0.0357084 0 
-1.30228 0.0716741 0 
-0.923517 0.231453 0 
-0.735573 0.656161 0 
-1.05684 0.381091 0 
-0.981724 0.913778 0 
-0.630614 0.210254 0 
-0.45621 0.0987095 0 
-0.756909 0.408433 0 
-0.534571 0.135008 0 
-0.19448 0.234189 0 
-0.155349 0.209992 0 
-0.352093 0.262304 0 
-0.241354 0.436705 0 
-0.618622 0.138559 0 
-0.730288 0.770452 0 
-0.419723 1.00441 0 
-0.502031 1.21739 0 
-0.938593 0.215161 0 
-1.18138 0.903288 0 
-0.662967 0.0843597 0 
-1.40229 0.773805 0 
-0.858181 0.79056 0 
-0.324173 0.797164 0 
-1.09476 0.89787 0 
-0.266528 1.12557 0 
-0.313085 0.872955 0 
-0.554906 0.848146 0 
-0.0830694 1.23534 0 
-0.438435 1.00598 0 
-0.772975 1.17428 0 
-0.293709 1.52717 0 
-0.724032 0.962182 0 
-0.0128633 1.38757 0 
-0.553047 -0.110082 0 
-1.67028 0.468619 0 
-1.25968 0.160185 0 
-2.27212 0.65738 0 
-1.50836 0.533213 0 
-0.784673 0.776717 0 
-1.82716 0.597108 0 
-0.836103 0.517429 0 
-0.34551 0.99274 0 
-0.453201 0.98827 0 
-0.223289 0.454353 0 
-0.346166 0.425703 0 
-0.543721 1.02901 0 
0.155833 1.14146 0 
-0.676587 0.71879 0 
0.133586 0.594131 0 
VECTORS body_force double
0 -9.81 0 
0 -9.81 0 
0 -9.81 0 
0 -9.81 0 
0 -9.81 0 
0 -9.81 0 
0 -9.81 0 
0 -9.81 0 
0 -9.81 0 
0 -9.81 0 
0 -9.81 0 
0 -9.81 0 
0 -9.81 0 
0 -9.81 0 
0 -9.81 0 
0 -9.81 0 
0 -9.81 0 
0 -9.81 0 
0 -9.81 0 
0 -9.81 0 
0 -9.81 0 
0 -9.81 0 
0 -9.81 0 
0 -9.81 0 
0 -9.81 0 
0 -9.81 0 
0 -9.81 0 
0 -9.81 0 
0 -9.81 0 
0 -9.81 0 
0 -9.81 0 
0 -9.81 0 
0 -9.81 0 
0 -9.81 0 
0 -9.81 0 
0 -9.81 0 
0 -9.81 0 
0 -9.81 0 
0 -9.81 0 
0 -9.81 0 
0 -9.81 0 
0 -9.81 0 
0 -9.81 0 
0 -9.81 0 
0 -9.81 0 
0 -9.81 0 
0 -9.81 0 
0 -9.81 0 
0 -9.81 0 
0 -9.81 0 
0 -9.81 0 
0 -9.81 0 
0 -9.81 0 
0 -9.81 0 
0 -9.81 0 
0 -9.81 0 
0 -9.81 0 
0 -9.81 0 
0 -9.81 0 
0 -9.81 0 
0 -9.81 0 
0 -9.81 0 
0 -9.81 0 
0 -9.81 0 
TENSORS cauchy_stress double
4472.98 2830.61 0
2830.61 6937.69 0
0 0 0

587.35 -192.238 0
-192.238 4373 0
0 0 0

-262.354 105.727 0
105.727 599.149 0
0 0 0

-3528.46 -229.448 0
-229.448 2938.19 0
0 0 0

3423.04 2674.86 0
2674.86 -621.403 0
0 0 0

5118.24 4916.66 0
4916.66 7972.33 0
0 0 0

-6766.66 964.776 0
964.776 -5637.75 0
0 0 0

-6943.13 4081.26 0
4081.26 -1345.33 0
0 0 0

1245.85 2026.17 0
2026.17 8352.48 0
0 0 0

-1976.12 4426.34 0
4426.34 12663.5 0
0 0 0

-3201.33 4776.07 0
4776.07 6688.63 0
0 0 0

-7533.59 2872.76 0
2872.76 953.957 0
0 0 0

2806.28 2165.69 0
2165.69 10074.5 0
0 0 0

-5029.41 -2601.52 0
-2601.52 -9191.73 0
0 0 0

-3316.92 8517.51 0
8517.51 -190.271 0
0 0 0

5832.05 1853.02 0
1853.02 -3620.46 0
0 0 0

4275.61 -661.147 0
-661.147 -3603.32 0
0 0 0

5339 3067.21 0
3067.21 8114.32 0
0 0 0

9339.24 -8962.19 0
-8962.19 -14924.5 0
0 0 0

2326.96 -2883.28 0
-2883.28 4947.63 0
0 0 0

2732.81 1645.26 0
1645.26 -3912.91 0
0 0 0

3647.84 2064.58 0
2064.58 1716.18 0
0 0 0

-9727 -5545.06 0
-5545.06 -11210.8 0
0 0 0

-11124.9 -4577.86 0
-4577.86 -1825.33 0
0 0 0

5165.29 3923.71 0
3923.71 9116.02 0
0 0 0

-1799.08 -6423.39 0
-6423.39 -6808.03 0
0 0 0

-10562.9 1791.88 0
1791.88 3311.89 0
0 0 0

-3415.83 -2689.84 0
-2689.84 3545.56 0
0 0 0

8525.57 8956.94 0
8956.94 4836.44 0
0 0 0

5753.91 10643.6 0
10643.6 3467.42 0
0 0 0

7115.42 7382.74 0
7382.74 7285.83 0
0 0 0

677.761 10022.4 0
10022.4 220.151 0
0 0 0

17574.7 -7403.43 0
-7403.43 -26559 0
0 0 0

11288 -4911.67 0
-4911.67 3161.24 0
0 0 0

9160.8 -8770.97 0
-8770.97 -39461.2 0
0 0 0

13244.8 -12025.9 0
-12025.9 530.986 0
0 0 0

-1157.95 1128.15 0
1128.15 -10131.7 0
0 0 0

-822.3 1608.97 0
1608.97 -3423.35 0
0 0 0

-2591.21 -4408.69 0
-4408.69 -11052.2 0
0 0 0

-3826.29 -7535.73 0
-7535.73 -3624.4 0
0 0 0

-3614.29 8542.03 0
8542.03 -451.687 0
0 0 0

-5177.29 8425.46 0
8425.46 -3401.82 0
0 0 0

-6886.54 -6624.6 0
-6624.6 -4028.45 0
0 0 0

-9329.43 -7793.99 0
-7793.99 -8370.96 0
0 0 0

3332.02 8863.16 0
8863.16 5677.56 0
0 0 0

-2904.73 -3507.27 0
-3507.27 -13675.6 0
0 0 0

-3868.46 -5084.02 0
-5084.02 3199.9 0
0 0 0

-4759.36 -507.193 0
-507.193 -11586.8 0
0 0 0

7920.3 -2726.55 0
-2726.55 -38069.7 0
0 0 0

14234.6 -8250.01 0
-8250.01 -4619.49 0
0 0 0

7896.55 655.951 0
655.951 -23017.1 0
0 0 0

6782.5 422.87 0
422.87 -8623.89 0
0 0 0

-1699.8 474.049 0
474.049 -23225.2 0
0 0 0

-1677.6 -2106.32 0
-2106.32 -15436.8 0
0 0 0

-6562.72 8987.67 0
8987.67 -38082.1 0
0 0 0

-189.79 3873.45 0
3873.45 -28669.5 0
0 0 0

-750.603 -1694.99 0
-1694.99 -14610.1 0
0 0 0

-1867.5 1244.57 0
1244.57 -20263.5 0
0 0 0

3966.19 582.894 0
582.894 -21983.7 0
0 0 0

750.438 37.9578 0
37.9578 -21648.7 0
0 0 0

2365.46 4265.21 0
4265.21 -12224.1 0
0 0 0

-6221 4871.69 0
4871.69 -35510.6 0
0 0 0

-2760.79 1675.76 0
1675.76 -15669.1 0
0 0 0

-25907.4 -3040.47 0
-3040.47 -63634.5 0
0 0 0

TENSORS velocity_gradient double
2.84479 3.53035 0
-4.14703 3.16715 0
0 0 0

3.28858 4.44465 0
-5.43156 -0.288066 0
0 0 0

2.46542 4.29941 0
-3.8286 7.00375 0
0 0 0

3.24061 4.67773 0
-5.19475 -1.43867 0
0 0 0

3.35069 8.66091 0
-6.78113 3.14038 0
0 0 0

2.74034 9.71321 0
-8.7189 3.69222 0
0 0 0

3.21677 6.55684 0
-3.1179 -0.163535 0
0 0 0

2.70505 9.07269 0
0.617953 1.77991 0
0 0 0

1.22929 0.620825 0
-10.0456 -2.68028 0
0 0 0

-3.59991 -2.39918 0
-8.1075 -3.41285 0
0 0 0

1.77193 3.53743 0
2.54687 -0.0942571 0
0 0 0

0.17319 -4.78867 0
4.00923 -1.68037 0
0 0 0

-4.19187 -14.6972 0
3.23376 2.1493 0
0 0 0

-2.66523 -15.5818 0
6.28097 2.98637 0
0 0 0

-1.39832 -10.5274 0
5.78867 1.03262 0
0 0 0

-2.34387 -16.4545 0
6.21007 3.17889 0
0 0 0

-3.28817 6.0819 0
7.49008 11.3927 0
0 0 0

-0.614441 6.85426 0
7.61002 -2.46559 0
0 0 0

-3.43713 6.44469 0
6.75843 17.6786 0
0 0 0

-1.51631 10.0807 0
7.89801 -3.49589 0
0 0 0

2.52546 7.55686 0
6.55996 -2.43567 0
0 0 0

2.7423 8.39574 0
4.71645 -0.220653 0
0 0 0

1.3598 10.6287 0
7.09163 -3.54244 0
0 0 0

1.80346 7.69394 0
8.92264 -1.78788 0
0 0 0

1.9854 7.56343 0
2.56176 -0.72382 0
0 0 0

0.561407 -6.31291 0
3.54325 0.149203 0
0 0 0

-0.705823 7.48384 0
14.6081 -1.78926 0
0 0 0

-0.901693 -6.08904 0
19.0041 2.14182 0
0 0 0

-0.480935 -6.74697 0
7.97863 0.868294 0
0 0 0

4.66604 -15.8199 0
21.6228 2.89034 0
0 0 0

1.48606 -5.30377 0
21.0236 2.80598 0
0 0 0

3.90259 -13.7165 0
21.8912 2.15093 0
0 0 0

-2.64803 -0.930853 0
-0.68087 19.003 0
0 0 0

-6.82537 14.0786 0
1.19985 0.972338 0
0 0 0

-5.11528 -12.179 0
-3.91889 17.7527 0
0 0 0

-7.05423 13.7039 0
-0.208828 10.8474 0
0 0 0

-2.96731 14.3952 0
8.07032 1.53606 0
0 0 0

-0.155215 8.23711 0
13.9176 0.0258272 0
0 0 0

-3.90435 18.6902 0
6.0645 9.15081 0
0 0 0

-1.94612 12.818 0
8.45969 5.77208 0
0 0 0

-1.00813 6.5591 0
16.3074 -0.121352 0
0 0 0

-1.40529 -1.58423 0
18.3989 3.16561 0
0 0 0

-1.83561 6.17635 0
5.7346 1.81726 0
0 0 0

0.964653 5.92528 0
-5.11722 2.63762 0
0 0 0

0.807408 -3.05208 0
20.4496 4.71041 0
0 0 0

11.9834 -6.26609 0
4.82564 4.95051 0
0 0 0

5.39634 0.690262 0
-2.68387 7.58207 0
0 0 0

9.6747 3.12407 0
0.520133 9.40471 0
0 0 0

-6.15242 -19.4006 0
-4.97356 13.234 0
0 0 0

-9.43056 10.3971 0
-7.32934 12.0261 0
0 0 0

-12.7524 -19.657 0
0.185016 10.9043 0
0 0 0

-8.77212 22.7509 0
-4.04597 9.72099 0
0 0 0

-8.86847 20.6766 0
-7.55368 10.923 0
0 0 0

-7.80486 20.239 0
-7.50118 10.5688 0
0 0 0

-7.00604 22.451 0
-7.73126 10.1203 0
0 0 0

-4.64077 22.5317 0
-10.5371 10.0129 0
0 0 0

-4.51756 10.1236 0
-6.78571 3.07646 0
0 0 0

-0.5977 11.2374 0
-5.86342 3.33851 0
0 0 0

-1.28551 14.7497 0
-12.1575 4.44473 0
0 0 0

1.51926 15.2752 0
-13.4365 4.75853 0
0 0 0

3.49784 5.52549 0
-4.10563 11.2031 0
0 0 0

6.19951 7.35088 0
-4.34548 12.6659 0
0 0 0

2.45121 10.5197 0
-11.7929 11.9869 0
0 0 0

3.55198 9.4066 0
-10.2466 14.9886 0
0 0 0

SCALARS active double 1
LOOKUP_TABLE default
1
1
1
1
1
1
1
1
1
1
1
1
1
1
1
1
1
1
1
1
1
1
1
1
1
1
1
1
1
1
1
1
1
1
1
1
1
1
1
1
1
1
1
1
1
1
1
1
1
1
1
1
1
1
1
1
1
1
1
1
1
1
1
1
SCALARS extent double 1
LOOKUP_TABLE default
0.0125
0.0125
0.0125
0.0125
0.0125
0.0125
0.0125
0.0125
0.0125
0.0125
0.0125
0.0125
0.0125
0.0125
0.0125
0.0125
0.0125
0.0125
0.0125
0.0125
0.0125
0.0125
0.0125
0.0125
0.0125
0.0125
0.0125
0.0125
0.0125
0.0125
0.0125
0.0125
0.0125
0.0125
0.0125
0.0125
0.0125
0.0125
0.0125
0.0125
0.0125
0.0125
0.0125
0.0125
0.0125
0.0125
0.0125
0.0125
0.0125
0.0125
0.0125
0.0125
0.0125
0.0125
0.0125
0.0125
0.0125
0.0125
0.0125
0.0125
0.0125
0.0125
0.0125
0.0125
SCALARS pressure double 1
LOOKUP_TABLE default
-5705.34
-2480.18
-168.398
295.134
-1400.82
-6545.28
6202.21
4144.23
-4799.16
-5343.68
-1743.65
3289.82
-6440.39
7110.57
1753.6
-1105.79
-336.15
-6726.66
2792.62
-3637.3
590.054
-2682.01
10468.9
6475.11
-7140.65
4303.56
3625.49
-64.8628
-6681.01
-4610.66
-7200.63
-448.956
4492.18
-7224.64
15150.2
-6887.91
5644.84
2122.82
6821.7
3725.34
2032.99
4289.55
5457.5
8850.19
-4504.79
8290.18
334.282
8173.08
15074.7
-4807.55
7560.25
920.694
12462.5
8557.19
22322.4
14429.6
7680.35
11065.5
9008.74
10449.1
4929.33
20865.8
9214.93
44770.9
SCALARS density double 1
LOOKUP_TABLE default
942.391
974.536
998.25
1003.07
985.537
934.194
1066.63
1044.04
951.314
945.942
982.029
1034.81
935.214
1076.75
1018.4
988.566
996.51
932.434
1029.47
962.879
1006.16
972.492
1115.02
1069.66
928.428
1045.77
1038.42
999.326
932.876
953.181
927.849
995.342
1047.83
927.617
1170.65
930.871
1060.46
1022.32
1073.52
1039.5
1021.37
1045.62
1058.4
1096.41
954.231
1090.04
1003.48
1088.72
1169.73
951.231
1081.8
1009.62
1138.38
1093.07
1261.31
1161.91
1083.15
1121.96
1098.22
1114.8
1052.6
1242.35
1100.58
1593
