# vtk DataFile Version 3.0
Frame: 0, Time: 0
ASCII
DATASET UNSTRUCTURED_GRID
POINTS 64 double
0.5125 0.61249 0 
0.5125 0.63749 0 
0.5375 0.61249 0 
0.5375 0.63749 0 
0.5125 0.66249 0 
0.5125 0.68749 0 
0.5375 0.66249 0 
0.5375 0.68749 0 
0.5125 0.71249 0 
0.5125 0.73749 0 
0.5375 0.71249 0 
0.5375 0.73749 0 
0.5125 0.76249 0 
0.5125 0.78749 0 
0.5375 0.76249 0 
0.5375 0.78749 0 
0.5625 0.61249 0 
0.5625 0.63749 0 
0.5875 0.61249 0 
0.5875 0.63749 0 
0.5625 0.66249 0 
0.5625 0.68749 0 
0.5875 0.66249 0 
0.5875 0.68749 0 
0.5625 0.71249 0 
0.5625 0.73749 0 
0.5875 0.71249 0 
0.5875 0.73749 0 
0.5625 0.76249 0 
0.5625 0.78749 0 
0.5875 0.76249 0 
0.5875 0.78749 0 
0.6125 0.61249 0 
0.6125 0.63749 0 
0.6375 0.61249 0 
0.6375 0.63749 0 
0.6125 0.66249 0 
0.6125 0.68749 0 
0.6375 0.66249 0 
0.6375 0.68749 0 
0.6125 0.71249 0 
0.6125 0.73749 0 
0.6375 0.71249 0 
0.6375 0.73749 0 
0.6125 0.76249 0 
0.6125 0.78749 0 
0.6375 0.76249 0 
0.6375 0.78749 0 
0.6625 0.61249 0 
0.6625 0.63749 0 
0.6875 0.61249 0 
0.6875 0.63749 0 
0.6625 0.66249 0 
0.6625 0.68749 0 
0.6875 0.66249 0 
0.6875 0.68749 0 
0.6625 0.71249 0 
0.6625 0.73749 0 
0.6875 0.71249 0 
0.6875 0.73749 0 
0.6625 0.76249 0 
0.6625 0.78749 0 
0.6875 0.76249 0 
0.6875 0.78749 0 
CELLS 64 128
1 0
1 1
1 2
1 3
1 4
1 5
1 6
1 7
1 8
1 9
1 10
1 11
1 12
1 13
1 14
1 15
1 16
1 17
1 18
1 19
1 20
1 21
1 22
1 23
1 24
1 25
1 26
1 27
1 28
1 29
1 30
1 31
1 32
1 33
1 34
1 35
1 36
1 37
1 38
1 39
1 40
1 41
1 42
1 43
1 44
1 45
1 46
1 47
1 48
1 49
1 50
1 51
1 52
1 53
1 54
1 55
1 56
1 57
1 58
1 59
1 60
1 61
1 62
1 63
CELL_TYPES 64
1
1
1
1
1
1
1
1
1
1
1
1
1
1
1
1
1
1
1
1
1
1
1
1
1
1
1
1
1
1
1
1
1
1
1
1
1
1
1
1
1
1
1
1
1
1
1
1
1
1
1
1
1
1
1
1
1
1
1
1
1
1
1
1
POINT_DATA 64
VECTORS displacement double
0 -9.81e-06 0 
0 -9.81e-06 0 
0 -9.81e-06 0 
0 -9.81e-06 0 
0 -9.81e-06 0 
0 -9.81e-06 0 
0 -9.81e-06 0 
0 -9.81e-06 0 
0 -9.81e-06 0 
0 -9.81e-06 0 
0 -9.81e-06 0 
0 -9.81e-06 0 
0 -9.81e-06 0 
0 -9.81e-06 0 
0 -9.81e-06 0 
0 -9.81e-06 0 
5.48967e-23 -9.81e-06 0 
1.82989e-23 -9.81e-06 0 
1.6469e-22 -9.81e-06 0 
5.48967e-23 -9.81e-06 0 
0 -9.81e-06 0 
0 -9.81e-06 0 
0 -9.81e-06 0 
0 -9.81e-06 0 
0 -9.81e-06 0 
0 -9.81e-06 0 
0 -9.81e-06 0 
0 -9.81e-06 0 
0 -9.81e-06 0 
0 -9.81e-06 0 
0 -9.81e-06 0 
0 -9.81e-06 0 
1.6469e-22 -9.81e-06 0 
5.48967e-23 -9.81e-06 0 
5.48967e-23 -9.81e-06 0 
1.82989e-23 -9.81e-06 0 
0 -9.81e-06 0 
0 -9.81e-06 0 
0 -9.81e-06 0 
0 -9.81e-06 0 
0 -9.81e-06 0 
0 -9.81e-06 0 
0 -9.81e-06 0 
0 -9.81e-06 0 
0 -9.81e-06 0 
0 -9.81e-06 0 
0 -9.81e-06 0 
0 -9.81e-06 0 
0 -9.81e-06 0 
0 -9.81e-06 0 
0 -9.81e-06 0 
0 -9.81e-06 0 
0 -9.81e-06 0 
0 -9.81e-06 0 
0 -9.81e-06 0 
0 -9.81e-06 0 
0 -9.81e-06 0 
0 -9.81e-06 0 
0 -9.81e-06 0 
0 -9.81e-06 0 
0 -9.81e-06 0 
0 -9.81e-06 0 
0 -9.81e-06 0 
0 -9.81e-06 0 
VECTORS velocity double
0 -0.00981 0 
0 -0.00981 0 
0 -0.00981 0 
0 -0.00981 0 
0 -0.00981 0 
0 -0.00981 0 
0 -0.00981 0 
0 -0.00981 0 
0 -0.00981 0 
0 -0.00981 0 
0 -0.00981 0 
0 -0.00981 0 
0 -0.00981 0 
0 -0.00981 0 
0 -0.00981 0 
0 -0.00981 0 
5.48967e-20 -0.00981 0 
1.82989e-20 -0.00981 0 
1.6469e-19 -0.00981 0 
5.48967e-20 -0.00981 0 
0 -0.00981 0 
0 -0.00981 0 
0 -0.00981 0 
0 -0.00981 0 
0 -0.00981 0 
0 -0.00981 0 
0 -0.00981 0 
0 -0.00981 0 
0 -0.00981 0 
0 -0.00981 0 
0 -0.00981 0 
0 -0.00981 0 
1.6469e-19 -0.00981 0 
5.48967e-20 -0.00981 0 
5.48967e-20 -0.00981 0 
1.82989e-20 -0.00981 0 
0 -0.00981 0 
0 -0.00981 0 
0 -0.00981 0 
0 -0.00981 0 
0 -0.00981 0 
0 -0.00981 0 
0 -0.00981 0 
0 -0.00981 0 
0 -0.00981 0 
0 -0.00981 0 
0 -0.00981 0 
0 -0.00981 0 
0 -0.00981 0 
0 -0.00981 0 
0 -0.00981 0 
0 -0.00981 0 
0 -0.00981 0 
0 -0.00981 0 
0 -0.00981 0 
0 -0.00981 0 
0 -0.00981 0 
0 -0.00981 0 
0 -0.00981 0 
0 -0.00981 0 
0 -0.00981 0 
0 -0.00981 0 
0 -0.00981 0 
0 -0.00981 0 
SCALARS mass double 1
LOOKUP_TABLE default
0.625
0.625
0.625
0.625
0.625
0.625
0.625
0.625
0.625
0.625
0.625
0.625
0.625
0.625
0.625
0.625
0.625
0.625
0.625
0.625
0.625
0.625
0.625
0.625
0.625
0.625
0.625
0.625
0.625
0.625
0.625
0.625
0.625
0.625
0.625
0.625
0.625
0.625
0.625
0.625
0.625
0.625
0.625
0.625
0.625
0.625
0.625
0.625
0.625
0.625
0.625
0.625
0.625
0.625
0.625
0.625
0.625
0.625
0.625
0.625
0.625
0.625
0.625
0.625
SCALARS volume double 1
LOOKUP_TABLE default
0.000625
0.000625
0.000625
0.000625
0.000625
0.000625
0.000625
0.000625
0.000625
0.000625
0.000625
0.000625
0.000625
0.000625
0.000625
0.000625
0.000625
0.000625
0.000625
0.000625
0.000625
0.000625
0.000625
0.000625
0.000625
0.000625
0.000625
0.000625
0.000625
0.000625
0.000625
0.000625
0.000625
0.000625
0.000625
0.000625
0.000625
0.000625
0.000625
0.000625
0.000625
0.000625
0.000625
0.000625
0.000625
0.000625
0.000625
0.000625
0.000625
0.000625
0.000625
0.000625
0.000625
0.000625
0.000625
0.000625
0.000625
0.000625
0.000625
0.000625
0.000625
0.000625
0.000625
0.000625
VECTORS momentum double
0 -0.00613125 0 
0 -0.00613125 0 
0 -0.00613125 0 
0 -0.00613125 0 
0 -0.00613125 0 
0 -0.00613125 0 
0 -0.00613125 0 
0 -0.00613125 0 
0 -0.00613125 0 
0 -0.00613125 0 
0 -0.00613125 0 
0 -0.00613125 0 
0 -0.00613125 0 
0 -0.00613125 0 
0 -0.00613125 0 
0 -0.00613125 0 
3.43104e-20 -0.00613125 0 
1.14368e-20 -0.00613125 0 
1.02931e-19 -0.00613125 0 
3.43104e-20 -0.00613125 0 
0 -0.00613125 0 
0 -0.00613125 0 
0 -0.00613125 0 
0 -0.00613125 0 
0 -0.00613125 0 
0 -0.00613125 0 
0 -0.00613125 0 
0 -0.00613125 0 
0 -0.00613125 0 
0 -0.00613125 0 
0 -0.00613125 0 
0 -0.00613125 0 
1.02931e-19 -0.00613125 0 
3.43104e-20 -0.00613125 0 
3.43104e-20 -0.00613125 0 
1.14368e-20 -0.00613125 0 
0 -0.00613125 0 
0 -0.00613125 0 
0 -0.00613125 0 
0 -0.00613125 0 
0 -0.00613125 0 
0 -0.00613125 0 
0 -0.00613125 0 
0 -0.00613125 0 
0 -0.00613125 0 
0 -0.00613125 0 
0 -0.00613125 0 
0 -0.00613125 0 
0 -0.00613125 0 
0 -0.00613125 0 
0 -0.00613125 0 
0 -0.00613125 0 
0 -0.00613125 0 
0 -0.00613125 0 
0 -0.00613125 0 
0 -0.00613125 0 
0 -0.00613125 0 
0 -0.00613125 0 
0 -0.00613125 0 
0 -0.00613125 0 
0 -0.00613125 0 
0 -0.00613125 0 
0 -0.00613125 0 
0 -0.00613125 0 
VECTORS body_force double
0 -9.81 0 
0 -9.81 0 
0 -9.81 0 
0 -9.81 0 
0 -9.81 0 
0 -9.81 0 
0 -9.81 0 
0 -9.81 0 
0 -9.81 0 
0 -9.81 0 
0 -9.81 0 
0 -9.81 0 
0 -9.81 0 
0 -9.81 0 
0 -9.81 0 
0 -9.81 0 
0 -9.81 0 
0 -9.81 0 
0 -9.81 0 
0 -9.81 0 
0 -9.81 0 
0 -9.81 0 
0 -9.81 0 
0 -9.81 0 
0 -9.81 0 
0 -9.81 0 
0 -9.81 0 
0 -9.81 0 
0 -9.81 0 
0 -9.81 0 
0 -9.81 0 
0 -9.81 0 
0 -9.81 0 
0 -9.81 0 
0 -9.81 0 
0 -9.81 0 
0 -9.81 0 
0 -9.81 0 
0 -9.81 0 
0 -9.81 0 
0 -9.81 0 
0 -9.81 0 
0 -9.81 0 
0 -9.81 0 
0 -9.81 0 
0 -9.81 0 
0 -9.81 0 
0 -9.81 0 
0 -9.81 0 
0 -9.81 0 
0 -9.81 0 
0 -9.81 0 
0 -9.81 0 
0 -9.81 0 
0 -9.81 0 
0 -9.81 0 
0 -9.81 0 
0 -9.81 0 
0 -9.81 0 
0 -9.81 0 
0 -9.81 0 
0 -9.81 0 
0 -9.81 0 
0 -9.81 0 
TENSORS cauchy_stress double
-2.40192e-15 -5.87137e-15 0
-5.87137e-15 -5.60449e-15 0
0 0 0

-1.60128e-15 -7.47265e-15 0
-7.47265e-15 -3.73633e-15 0
0 0 0

-4.80385e-15 -7.47265e-15 0
-7.47265e-15 -1.1209e-14 0
0 0 0

-3.20257e-15 -6.40513e-15 0
-6.40513e-15 -7.47265e-15 0
0 0 0

-2.0016e-15 -5.60449e-15 0
-5.60449e-15 -4.67041e-15 0
0 0 0

-3.20257e-15 -8.54018e-15 0
-8.54018e-15 -7.47265e-15 0
0 0 0

-3.20257e-15 -4.27009e-15 0
-4.27009e-15 -7.47265e-15 0
0 0 0

6.40513e-15 -4.27009e-15 0
-4.27009e-15 1.49453e-14 0
0 0 0

-8.80706e-15 -8.00642e-15 0
-8.00642e-15 -2.05498e-14 0
0 0 0

-1.60128e-15 -5.33761e-15 0
-5.33761e-15 -3.73633e-15 0
0 0 0

-6.40513e-15 -8.54018e-15 0
-8.54018e-15 -1.49453e-14 0
0 0 0

9.6077e-15 -4.27009e-15 0
-4.27009e-15 2.2418e-14 0
0 0 0

-5.60449e-15 -5.87137e-15 0
-5.87137e-15 -1.30771e-14 0
0 0 0

4.80385e-15 -5.33761e-15 0
-5.33761e-15 1.1209e-14 0
0 0 0

6.40513e-15 0 0
0 1.49453e-14 0
0 0 0

9.6077e-15 -8.54018e-15 0
-8.54018e-15 2.2418e-14 0
0 0 0

5.91195e-16 -5.63043e-17 0
-5.63043e-17 2.53369e-16 0
0 0 0

-7.80935e-15 -1.12383e-15 0
-1.12383e-15 -1.85972e-14 0
0 0 0

5.91195e-16 -1.68913e-16 0
-1.68913e-16 2.53369e-16 0
0 0 0

1.97065e-16 -1.68913e-16 0
-1.68913e-16 8.44564e-17 0
0 0 0

-6.80545e-15 1.86816e-15 0
1.86816e-15 -1.58794e-14 0
0 0 0

-4.80385e-15 -1.06752e-15 0
-1.06752e-15 -1.1209e-14 0
0 0 0

-9.6077e-15 4.27009e-15 0
4.27009e-15 -2.2418e-14 0
0 0 0

-3.20257e-15 -2.13504e-15 0
-2.13504e-15 -7.47265e-15 0
0 0 0

-4.80385e-15 -1.06752e-15 0
-1.06752e-15 -1.1209e-14 0
0 0 0

1.60128e-15 -1.06752e-15 0
-1.06752e-15 3.73633e-15 0
0 0 0

1.60128e-15 -1.06752e-15 0
-1.06752e-15 3.73633e-15 0
0 0 0

3.20257e-15 0 0
0 7.47265e-15 0
0 0 0

-3.20257e-15 0 0
0 -7.47265e-15 0
0 0 0

3.20257e-15 -4.27009e-15 0
-4.27009e-15 7.47265e-15 0
0 0 0

-1.60128e-15 1.06752e-15 0
1.06752e-15 -3.73633e-15 0
0 0 0

3.20257e-15 2.13504e-15 0
2.13504e-15 7.47265e-15 0
0 0 0

1.02175e-14 2.76677e-15 0
2.76677e-15 2.49668e-14 0
0 0 0

9.41063e-15 -6.57405e-15 0
-6.57405e-15 2.23335e-14 0
0 0 0

-8.59761e-15 -1.12383e-15 0
-1.12383e-15 -1.8935e-14 0
0 0 0

3.0055e-15 -2.19135e-15 0
-2.19135e-15 7.3882e-15 0
0 0 0

-1.44115e-14 -5.33761e-15 0
-5.33761e-15 -3.36269e-14 0
0 0 0

-1.1209e-14 -3.20257e-15 0
-3.20257e-15 -2.61543e-14 0
0 0 0

3.20257e-15 0 0
0 7.47265e-15 0
0 0 0

-3.20257e-15 -2.13504e-15 0
-2.13504e-15 -7.47265e-15 0
0 0 0

-4.00321e-15 1.60128e-15 0
1.60128e-15 -9.34082e-15 0
0 0 0

0 -4.27009e-15 0
-4.27009e-15 0 0
0 0 0

-1.28103e-14 -2.13504e-15 0
-2.13504e-15 -2.98906e-14 0
0 0 0

6.40513e-15 -8.54018e-15 0
-8.54018e-15 1.49453e-14 0
0 0 0

-1.60128e-15 -3.20257e-15 0
-3.20257e-15 -3.73633e-15 0
0 0 0

1.60128e-15 -3.20257e-15 0
-3.20257e-15 3.73633e-15 0
0 0 0

9.6077e-15 -2.13504e-15 0
-2.13504e-15 2.2418e-14 0
0 0 0

9.6077e-15 -6.40513e-15 0
-6.40513e-15 2.2418e-14 0
0 0 0

-4.00321e-15 1.60128e-15 0
1.60128e-15 -9.34082e-15 0
0 0 0

-1.44115e-14 3.20257e-15 0
3.20257e-15 -3.36269e-14 0
0 0 0

-3.20257e-15 2.13504e-15 0
2.13504e-15 -7.47265e-15 0
0 0 0

3.20257e-15 2.13504e-15 0
2.13504e-15 7.47265e-15 0
0 0 0

-3.20257e-15 2.13504e-15 0
2.13504e-15 -7.47265e-15 0
0 0 0

-4.80385e-15 -3.20257e-15 0
-3.20257e-15 -1.1209e-14 0
0 0 0

-6.40513e-15 4.27009e-15 0
4.27009e-15 -1.49453e-14 0
0 0 0

3.20257e-15 0 0
0 7.47265e-15 0
0 0 0

-4.00321e-15 1.60128e-15 0
1.60128e-15 -9.34082e-15 0
0 0 0

-1.76141e-14 5.33761e-15 0
5.33761e-15 -4.10996e-14 0
0 0 0

-1.60128e-15 3.20257e-15 0
3.20257e-15 -3.73633e-15 0
0 0 0

6.40513e-15 6.40513e-15 0
6.40513e-15 1.49453e-14 0
0 0 0

-4.80385e-15 5.33761e-15 0
5.33761e-15 -1.1209e-14 0
0 0 0

0 -4.27009e-15 0
-4.27009e-15 0 0
0 0 0

4.80385e-15 5.33761e-15 0
5.33761e-15 1.1209e-14 0
0 0 0

3.20257e-15 0 0
0 7.47265e-15 0
0 0 0

TENSORS velocity_gradient double
0 0 0
-1.52656e-16 -4.16334e-17 0
0 0 0

0 0 0
-1.94289e-16 -2.77556e-17 0
0 0 0

0 0 0
-1.94289e-16 -8.32667e-17 0
0 0 0

0 0 0
-1.66533e-16 -5.55112e-17 0
0 0 0

0 0 0
-1.45717e-16 -3.46945e-17 0
0 0 0

0 0 0
-2.22045e-16 -5.55112e-17 0
0 0 0

0 0 0
-1.11022e-16 -5.55112e-17 0
0 0 0

0 0 0
-1.11022e-16 1.11022e-16 0
0 0 0

0 0 0
-2.08167e-16 -1.52656e-16 0
0 0 0

0 0 0
-1.38778e-16 -2.77556e-17 0
0 0 0

0 0 0
-2.22045e-16 -1.11022e-16 0
0 0 0

0 0 0
-1.11022e-16 1.66533e-16 0
0 0 0

0 0 0
-1.52656e-16 -9.71445e-17 0
0 0 0

0 0 0
-1.38778e-16 8.32667e-17 0
0 0 0

0 0 0
0 1.11022e-16 0
0 0 0

0 0 0
-2.22045e-16 1.66533e-16 0
0 0 0

4.39173e-18 -1.46391e-18 0
0 0 0
0 0 0

1.46391e-18 -1.46391e-18 0
-2.77556e-17 -1.38778e-16 0
0 0 0

4.39173e-18 -4.39173e-18 0
0 0 0
0 0 0

1.46391e-18 -4.39173e-18 0
0 0 0
0 0 0

0 0 0
4.85723e-17 -1.17961e-16 0
0 0 0

0 0 0
-2.77556e-17 -8.32667e-17 0
0 0 0

0 0 0
1.11022e-16 -1.66533e-16 0
0 0 0

0 0 0
-5.55112e-17 -5.55112e-17 0
0 0 0

0 0 0
-2.77556e-17 -8.32667e-17 0
0 0 0

0 0 0
-2.77556e-17 2.77556e-17 0
0 0 0

0 0 0
-2.77556e-17 2.77556e-17 0
0 0 0

0 0 0
0 5.55112e-17 0
0 0 0

0 0 0
0 -5.55112e-17 0
0 0 0

0 0 0
-1.11022e-16 5.55112e-17 0
0 0 0

0 0 0
2.77556e-17 -2.77556e-17 0
0 0 0

0 0 0
5.55112e-17 5.55112e-17 0
0 0 0

-4.39173e-18 -4.39173e-18 0
7.63278e-17 1.8735e-16 0
0 0 0

-1.46391e-18 -4.39173e-18 0
-1.66533e-16 1.66533e-16 0
0 0 0

-4.39173e-18 -1.46391e-18 0
-2.77556e-17 -1.38778e-16 0
0 0 0

-1.46391e-18 -1.46391e-18 0
-5.55112e-17 5.55112e-17 0
0 0 0

0 0 0
-1.38778e-16 -2.498e-16 0
0 0 0

0 0 0
-8.32667e-17 -1.94289e-16 0
0 0 0

0 0 0
0 5.55112e-17 0
0 0 0

0 0 0
-5.55112e-17 -5.55112e-17 0
0 0 0

0 0 0
4.16334e-17 -6.93889e-17 0
0 0 0

0 0 0
-1.11022e-16 0 0
0 0 0

0 0 0
-5.55112e-17 -2.22045e-16 0
0 0 0

0 0 0
-2.22045e-16 1.11022e-16 0
0 0 0

0 0 0
-8.32667e-17 -2.77556e-17 0
0 0 0

0 0 0
-8.32667e-17 2.77556e-17 0
0 0 0

0 0 0
-5.55112e-17 1.66533e-16 0
0 0 0

0 0 0
-1.66533e-16 1.66533e-16 0
0 0 0

0 0 0
4.16334e-17 -6.93889e-17 0
0 0 0

0 0 0
8.32667e-17 -2.498e-16 0
0 0 0

0 0 0
5.55112e-17 -5.55112e-17 0
0 0 0

0 0 0
5.55112e-17 5.55112e-17 0
0 0 0

0 0 0
5.55112e-17 -5.55112e-17 0
0 0 0

0 0 0
-8.32667e-17 -8.32667e-17 0
0 0 0

0 0 0
1.11022e-16 -1.11022e-16 0
0 0 0

0 0 0
0 5.55112e-17 0
0 0 0

0 0 0
4.16334e-17 -6.93889e-17 0
0 0 0

0 0 0
1.38778e-16 -3.05311e-16 0
0 0 0

0 0 0
8.32667e-17 -2.77556e-17 0
0 0 0

0 0 0
1.66533e-16 1.11022e-16 0
0 0 0

0 0 0
1.38778e-16 -8.32667e-17 0
0 0 0

0 0 0
-1.11022e-16 0 0
0 0 0

0 0 0
1.38778e-16 8.32667e-17 0
0 0 0

0 0 0
0 5.55112e-17 0
0 0 0

SCALARS active double 1
LOOKUP_TABLE default
1
1
1
1
1
1
1
1
1
1
1
1
1
1
1
1
1
1
1
1
1
1
1
1
1
1
1
1
1
1
1
1
1
1
1
1
1
1
1
1
1
1
1
1
1
1
1
1
1
1
1
1
1
1
1
1
1
1
1
1
1
1
1
1
SCALARS extent double 1
LOOKUP_TABLE default
0.0125
0.0125
0.0125
0.0125
0.0125
0.0125
0.0125
0.0125
0.0125
0.0125
0.0125
0.0125
0.0125
0.0125
0.0125
0.0125
0.0125
0.0125
0.0125
0.0125
0.0125
0.0125
0.0125
0.0125
0.0125
0.0125
0.0125
0.0125
0.0125
0.0125
0.0125
0.0125
0.0125
0.0125
0.0125
0.0125
0.0125
0.0125
0.0125
0.0125
0.0125
0.0125
0.0125
0.0125
0.0125
0.0125
0.0125
0.0125
0.0125
0.0125
0.0125
0.0125
0.0125
0.0125
0.0125
0.0125
0.0125
0.0125
0.0125
0.0125
0.0125
0.0125
0.0125
0.0125
SCALARS pressure double 1
LOOKUP_TABLE default
4.00321e-15
2.66881e-15
8.00642e-15
5.33761e-15
3.33601e-15
5.33761e-15
5.33761e-15
-1.06752e-14
1.46784e-14
2.66881e-15
1.06752e-14
-1.60128e-14
9.34082e-15
-8.00642e-15
-1.06752e-14
-1.60128e-14
-4.22282e-16
1.32033e-14
-4.22282e-16
-1.40761e-16
1.13424e-14
8.00642e-15
1.60128e-14
5.33761e-15
8.00642e-15
-2.66881e-15
-2.66881e-15
-5.33761e-15
5.33761e-15
-5.33761e-15
2.66881e-15
-5.33761e-15
-1.75922e-14
-1.58721e-14
1.37663e-14
-5.19685e-15
2.40192e-14
1.86816e-14
-5.33761e-15
5.33761e-15
6.67201e-15
-0
2.13504e-14
-1.06752e-14
2.66881e-15
-2.66881e-15
-1.60128e-14
-1.60128e-14
6.67201e-15
2.40192e-14
5.33761e-15
-5.33761e-15
5.33761e-15
8.00642e-15
1.06752e-14
-5.33761e-15
6.67201e-15
2.93569e-14
2.66881e-15
-1.06752e-14
8.00642e-15
-0
-8.00642e-15
-5.33761e-15
SCALARS density double 1
LOOKUP_TABLE default
1000
1000
1000
1000
1000
1000
1000
1000
1000
1000
1000
1000
1000
1000
1000
1000
1000
1000
1000
1000
1000
1000
1000
1000
1000
1000
1000
1000
1000
1000
1000
1000
1000
1000
1000
1000
1000
1000
1000
1000
1000
1000
1000
1000
1000
1000
1000
1000
1000
1000
1000
1000
1000
1000
1000
1000
1000
1000
1000
1000
1000
1000
1000
1000
