# vtk DataFile Version 3.0
Frame: 17, Time: 0.3
ASCII
DATASET UNSTRUCTURED_GRID
POINTS 64 double
0.393349 0.0295684 0 
0.394091 0.0478334 0 
0.423791 0.0278216 0 
0.423819 0.0452625 0 
0.39681 0.066723 0 
0.399788 0.0851416 0 
0.425677 0.0638979 0 
0.427981 0.0822823 0 
0.402085 0.104932 0 
0.404841 0.125277 0 
0.429806 0.102107 0 
0.431711 0.122785 0 
0.407193 0.146873 0 
0.408712 0.170161 0 
0.433333 0.144597 0 
0.434492 0.168154 0 
0.453892 0.0265988 0 
0.453729 0.0433861 0 
0.484464 0.0261695 0 
0.484379 0.0426916 0 
0.454819 0.0618371 0 
0.456311 0.0801562 0 
0.484631 0.0609169 0 
0.484975 0.079023 0 
0.457502 0.099897 0 
0.458566 0.120549 0 
0.485207 0.098483 0 
0.485419 0.11863 0 
0.459452 0.142188 0 
0.460167 0.165258 0 
0.485586 0.139632 0 
0.485776 0.161434 0 
0.5151 0.0260438 0 
0.515096 0.0424859 0 
0.545784 0.0262213 0 
0.545865 0.042769 0 
0.514539 0.0605861 0 
0.513764 0.0785504 0 
0.544517 0.0608434 0 
0.542658 0.0787447 0 
0.513068 0.0978019 0 
0.512441 0.117481 0 
0.541065 0.097858 0 
0.539616 0.11711 0 
0.511894 0.13791 0 
0.511672 0.158956 0 
0.538367 0.137039 0 
0.537831 0.157763 0 
0.576042 0.027297 0 
0.575977 0.0444068 0 
0.606662 0.0289453 0 
0.60593 0.0468113 0 
0.57396 0.0625197 0 
0.571414 0.0803114 0 
0.603176 0.0651095 0 
0.600122 0.0828466 0 
0.56929 0.0992069 0 
0.566988 0.117929 0 
0.597648 0.101478 0 
0.594481 0.11963 0 
0.564937 0.137324 0 
0.563926 0.157398 0 
0.591568 0.138574 0 
0.589969 0.157771 0 
CELLS 64 128
1 0
1 1
1 2
1 3
1 4
1 5
1 6
1 7
1 8
1 9
1 10
1 11
1 12
1 13
1 14
1 15
1 16
1 17
1 18
1 19
1 20
1 21
1 22
1 23
1 24
1 25
1 26
1 27
1 28
1 29
1 30
1 31
1 32
1 33
1 34
1 35
1 36
1 37
1 38
1 39
1 40
1 41
1 42
1 43
1 44
1 45
1 46
1 47
1 48
1 49
1 50
1 51
1 52
1 53
1 54
1 55
1 56
1 57
1 58
1 59
1 60
1 61
1 62
1 63
CELL_TYPES 64
1
1
1
1
1
1
1
1
1
1
1
1
1
1
1
1
1
1
1
1
1
1
1
1
1
1
1
1
1
1
1
1
1
1
1
1
1
1
1
1
1
1
1
1
1
1
1
1
1
1
1
1
1
1
1
1
1
1
1
1
1
1
1
1
POINT_DATA 64
VECTORS displacement double
-0.019151 -0.382932 0 
-0.0184087 -0.389667 0 
-0.0137087 -0.384678 0 
-0.013681 -0.392238 0 
-0.0156896 -0.395777 0 
-0.0127123 -0.402358 0 
-0.0118232 -0.398602 0 
-0.00951893 -0.405218 0 
-0.0104147 -0.407568 0 
-0.00765914 -0.412223 0 
-0.00769382 -0.410393 0 
-0.0057889 -0.414715 0 
-0.00530685 -0.415627 0 
-0.00378793 -0.417339 0 
-0.00416708 -0.417903 0 
-0.00300831 -0.419346 0 
-0.00860842 -0.385901 0 
-0.00877114 -0.394114 0 
-0.00303626 -0.386331 0 
-0.00312086 -0.394808 0 
-0.00768145 -0.400663 0 
-0.00618905 -0.407344 0 
-0.00286874 -0.401583 0 
-0.00252463 -0.408477 0 
-0.00499785 -0.412603 0 
-0.00393431 -0.416951 0 
-0.0022927 -0.414017 0 
-0.00208108 -0.41887 0 
-0.00304752 -0.420312 0 
-0.00233254 -0.422242 0 
-0.00191386 -0.422868 0 
-0.0017235 -0.426066 0 
0.00259987 -0.386456 0 
0.00259638 -0.395014 0 
0.00828446 -0.386279 0 
0.00836499 -0.394731 0 
0.00203852 -0.401914 0 
0.00126379 -0.40895 0 
0.00701684 -0.401657 0 
0.00515759 -0.408755 0 
0.000567649 -0.414698 0 
-5.93404e-05 -0.420019 0 
0.00356504 -0.414642 0 
0.00211609 -0.42039 0 
-0.00060562 -0.42459 0 
-0.000827536 -0.428544 0 
0.00086727 -0.425461 0 
0.000330719 -0.429737 0 
0.0135421 -0.385203 0 
0.0134772 -0.393093 0 
0.0191619 -0.383555 0 
0.0184298 -0.390689 0 
0.0114598 -0.39998 0 
0.00891413 -0.407189 0 
0.0156756 -0.397391 0 
0.0126221 -0.404653 0 
0.00679018 -0.413293 0 
0.00448805 -0.419571 0 
0.0101478 -0.411022 0 
0.00698142 -0.41787 0 
0.00243722 -0.425176 0 
0.00142609 -0.430102 0 
0.00406818 -0.423926 0 
0.00246941 -0.429729 0 
VECTORS velocity double
-0.611746 -0.138255 0 
-0.829071 0.653065 0 
-0.447328 -0.335677 0 
-0.818782 0.38089 0 
-0.848584 0.612967 0 
-0.877778 0.701307 0 
-0.807896 0.222808 0 
-0.698475 0.265315 0 
-0.875868 0.930863 0 
-0.608595 0.866814 0 
-0.627722 0.48584 0 
-0.497401 0.477611 0 
-0.383689 0.98075 0 
-0.08181 0.88227 0 
-0.398879 0.569923 0 
-0.105252 0.663061 0 
-0.463932 -0.374829 0 
-0.676757 0.33235 0 
-0.193842 -0.424642 0 
-0.267898 0.247123 0 
-0.630793 0.102888 0 
-0.508422 0.0604328 0 
-0.276402 -0.0234406 0 
-0.271689 -0.0811464 0 
-0.438899 0.230408 0 
-0.404332 0.189388 0 
-0.286798 0.0709566 0 
-0.300558 -0.0219103 0 
-0.385304 0.195031 0 
-0.175066 0.054572 0 
-0.312637 -0.129283 0 
-0.258801 -0.917926 0 
0.0934134 -0.451237 0 
0.15419 0.203542 0 
0.401698 -0.454401 0 
0.592962 0.202253 0 
0.0954469 -0.0896366 0 
-0.00839886 -0.165801 0 
0.486424 -0.0935375 0 
0.283481 -0.191321 0 
-0.10093 -0.0384348 0 
-0.168703 -0.193797 0 
0.121142 -0.0975982 0 
-0.00627544 -0.328163 0 
-0.218887 -0.403677 0 
-0.206478 -1.42471 0 
-0.10229 -0.633548 0 
-0.0392941 -1.54796 0 
0.410787 -0.445605 0 
0.771871 0.196625 0 
0.620792 -0.260738 0 
0.846762 0.447048 0 
0.741328 -0.0521113 0 
0.60101 -0.0951224 0 
0.892782 0.310446 0 
0.952868 0.291849 0 
0.476151 0.0132616 0 
0.233921 -0.218372 0 
0.932031 0.350014 0 
0.544488 0.108889 0 
0.0143375 -0.532367 0 
0.0367219 -1.63017 0 
0.135959 -0.139048 0 
0.0388519 -1.6707 0 
SCALARS mass double 1
LOOKUP_TABLE default
0.625
0.625
0.625
0.625
0.625
0.625
0.625
0.625
0.625
0.625
0.625
0.625
0.625
0.625
0.625
0.625
0.625
0.625
0.625
0.625
0.625
0.625
0.625
0.625
0.625
0.625
0.625
0.625
0.625
0.625
0.625
0.625
0.625
0.625
0.625
0.625
0.625
0.625
0.625
0.625
0.625
0.625
0.625
0.625
0.625
0.625
0.625
0.625
0.625
0.625
0.625
0.625
0.625
0.625
0.625
0.625
0.625
0.625
0.625
0.625
0.625
0.625
0.625
0.625
SCALARS volume double 1
LOOKUP_TABLE default
0.000462653
0.000594545
0.000437921
0.000602557
0.000524056
0.000545092
0.000531328
0.000544648
0.000569015
0.000561456
0.000575399
0.000568538
0.000599959
0.000608961
0.000601794
0.000617259
0.000420298
0.0005957
0.000414316
0.000587904
0.00053819
0.000545584
0.000531435
0.000538439
0.000570666
0.000563028
0.000559479
0.000547468
0.000590498
0.000598822
0.000569233
0.000560422
0.000413856
0.000587331
0.000416032
0.000589799
0.000529887
0.000538304
0.000527963
0.000536739
0.000555644
0.000538804
0.000546944
0.000525593
0.000558178
0.000549199
0.000544556
0.000544585
0.000432142
0.00059553
0.000455601
0.000584932
0.000520268
0.000536686
0.000511392
0.000534892
0.000545412
0.000521738
0.000526325
0.000508809
0.000536951
0.000523637
0.000525254
0.000493811
VECTORS momentum double
-0.382341 -0.0864096 0 
-0.518169 0.408165 0 
-0.27958 -0.209798 0 
-0.511739 0.238056 0 
-0.530365 0.383104 0 
-0.548612 0.438317 0 
-0.504935 0.139255 0 
-0.436547 0.165822 0 
-0.547418 0.581789 0 
-0.380372 0.541759 0 
-0.392326 0.30365 0 
-0.310876 0.298507 0 
-0.239806 0.612969 0 
-0.0511312 0.551419 0 
-0.249299 0.356202 0 
-0.0657827 0.414413 0 
-0.289958 -0.234268 0 
-0.422973 0.207719 0 
-0.121151 -0.265401 0 
-0.167436 0.154452 0 
-0.394246 0.0643047 0 
-0.317764 0.0377705 0 
-0.172751 -0.0146504 0 
-0.169806 -0.0507165 0 
-0.274312 0.144005 0 
-0.252707 0.118367 0 
-0.179249 0.0443479 0 
-0.187849 -0.0136939 0 
-0.240815 0.121895 0 
-0.109416 0.0341075 0 
-0.195398 -0.0808017 0 
-0.161751 -0.573704 0 
0.0583834 -0.282023 0 
0.0963688 0.127214 0 
0.251061 -0.284 0 
0.370602 0.126408 0 
0.0596543 -0.0560229 0 
-0.00524929 -0.103626 0 
0.304015 -0.0584609 0 
0.177175 -0.119576 0 
-0.0630812 -0.0240217 0 
-0.105439 -0.121123 0 
0.0757135 -0.0609989 0 
-0.00392215 -0.205102 0 
-0.136804 -0.252298 0 
-0.129049 -0.890441 0 
-0.0639311 -0.395968 0 
-0.0245588 -0.967475 0 
0.256742 -0.278503 0 
0.48242 0.122891 0 
0.387995 -0.162961 0 
0.529226 0.279405 0 
0.46333 -0.0325696 0 
0.375631 -0.0594515 0 
0.557989 0.194029 0 
0.595543 0.182406 0 
0.297594 0.00828849 0 
0.146201 -0.136482 0 
0.582519 0.218758 0 
0.340305 0.0680554 0 
0.00896091 -0.33273 0 
0.0229512 -1.01885 0 
0.0849746 -0.0869047 0 
0.0242824 -1.04419 0 
VECTORS body_force double
0 -9.81 0 
0 -9.81 0 
0 -9.81 0 
0 -9.81 0 
0 -9.81 0 
0 -9.81 0 
0 -9.81 0 
0 -9.81 0 
0 -9.81 0 
0 -9.81 0 
0 -9.81 0 
0 -9.81 0 
0 -9.81 0 
0 -9.81 0 
0 -9.81 0 
0 -9.81 0 
0 -9.81 0 
0 -9.81 0 
0 -9.81 0 
0 -9.81 0 
0 -9.81 0 
0 -9.81 0 
0 -9.81 0 
0 -9.81 0 
0 -9.81 0 
0 -9.81 0 
0 -9.81 0 
0 -9.81 0 
0 -9.81 0 
0 -9.81 0 
0 -9.81 0 
0 -9.81 0 
0 -9.81 0 
0 -9.81 0 
0 -9.81 0 
0 -9.81 0 
0 -9.81 0 
0 -9.81 0 
0 -9.81 0 
0 -9.81 0 
0 -9.81 0 
0 -9.81 0 
0 -9.81 0 
0 -9.81 0 
0 -9.81 0 
0 -9.81 0 
0 -9.81 0 
0 -9.81 0 
0 -9.81 0 
0 -9.81 0 
0 -9.81 0 
0 -9.81 0 
0 -9.81 0 
0 -9.81 0 
0 -9.81 0 
0 -9.81 0 
0 -9.81 0 
0 -9.81 0 
0 -9.81 0 
0 -9.81 0 
0 -9.81 0 
0 -9.81 0 
0 -9.81 0 
0 -9.81 0 
TENSORS cauchy_stress double
-2597.31 -3367.56 0
-3367.56 -55244 0
0 0 0

7796.79 -2929.75 0
-2929.75 -17403.4 0
0 0 0

-5375.99 -3722.12 0
-3722.12 -63030.4 0
0 0 0

11987 -4048.19 0
-4048.19 -19019.7 0
0 0 0

-406.525 -1811.14 0
-1811.14 -33468.9 0
0 0 0

1028 -2464.3 0
-2464.3 -27335.2 0
0 0 0

2480.83 -2239.47 0
-2239.47 -33706.1 0
0 0 0

1650.26 -2562.06 0
-2562.06 -28114.1 0
0 0 0

2610.59 -1747.06 0
-1747.06 -20657.7 0
0 0 0

-344.818 -744.711 0
-744.711 -20274 0
0 0 0

3387.06 -2510.66 0
-2510.66 -19288.7 0
0 0 0

339.318 -1802.61 0
-1802.61 -18547.8 0
0 0 0

1195.63 -1003.63 0
-1003.63 -9059.16 0
0 0 0

938.654 -1208.63 0
-1208.63 -5938.05 0
0 0 0

1351.52 -1837.77 0
-1837.77 -8627.71 0
0 0 0

1694.34 -1610.02 0
-1610.02 -4090.94 0
0 0 0

-7465.58 -1153.48 0
-1153.48 -68839.6 0
0 0 0

12841 -1208.2 0
-1208.2 -22074.4 0
0 0 0

-8153.09 -1052.04 0
-1052.04 -70909.1 0
0 0 0

12232.8 -1289.21 0
-1289.21 -23999.8 0
0 0 0

5023.01 106.032 0
106.032 -33780.8 0
0 0 0

2777.24 -366.379 0
-366.379 -28911 0
0 0 0

4272.06 -1342.34 0
-1342.34 -35458.6 0
0 0 0

1968.96 -1769.73 0
-1769.73 -30637.8 0
0 0 0

2684.11 -1150.63 0
-1150.63 -20174.1 0
0 0 0

-548.878 -2030.08 0
-2030.08 -19532.2 0
0 0 0

1532.34 -2328.96 0
-2328.96 -22829.7 0
0 0 0

-2164.74 -3169.63 0
-3169.63 -23306 0
0 0 0

-15.5724 -3313.78 0
-3313.78 -10904.5 0
0 0 0

-1007.22 -5351.55 0
-5351.55 -7221.09 0
0 0 0

-2085.41 -4188.77 0
-4188.77 -15888 0
0 0 0

-4722.45 -6070.09 0
-6070.09 -16251 0
0 0 0

-7930.81 426.497 0
426.497 -71345 0
0 0 0

12481.6 410.418 0
410.418 -24435.9 0
0 0 0

-7739.87 543.245 0
543.245 -70527.3 0
0 0 0

12612.5 356.321 0
356.321 -23760.4 0
0 0 0

4546.95 -419.193 0
-419.193 -36294.7 0
0 0 0

2596.96 -562.913 0
-562.913 -31314 0
0 0 0

4406.79 -1789.71 0
-1789.71 -36854 0
0 0 0

2492.3 -1877.49 0
-1877.49 -31769.3 0
0 0 0

1976.97 -767.544 0
-767.544 -24597 0
0 0 0

-2135.01 -1534.85 0
-1534.85 -26403.5 0
0 0 0

1105.04 -1868.42 0
-1868.42 -26760.1 0
0 0 0

-3522.59 -2653.4 0
-2653.4 -29789.7 0
0 0 0

-2169.36 -2236.39 0
-2236.39 -19575.5 0
0 0 0

-4019.32 -2239.46 0
-2239.46 -20844.3 0
0 0 0

-3554.35 -3072.75 0
-3072.75 -22942 0
0 0 0

-4517.1 -2425.12 0
-2425.12 -21968.9 0
0 0 0

-5694.09 3473.19 0
3473.19 -65266.8 0
0 0 0

11919.7 3716.04 0
3716.04 -21208.1 0
0 0 0

-3023.67 3520.22 0
3520.22 -57771.2 0
0 0 0

7404.57 3113.45 0
3113.45 -20146.2 0
0 0 0

2247.87 1577.61 0
1577.61 -37518.5 0
0 0 0

2256.02 1702.87 0
1702.87 -31551.8 0
0 0 0

-956.035 2031.7 0
2031.7 -37623.7 0
0 0 0

1314.78 2419.33 0
2419.33 -31254.4 0
0 0 0

2203.48 1413.79 0
1413.79 -28397.9 0
0 0 0

-2730.19 237.656 0
237.656 -31997.9 0
0 0 0

-178.331 859.167 0
859.167 -32866.6 0
0 0 0

-4152.84 -951.517 0
-951.517 -35400.9 0
0 0 0

-3681.13 -162.521 0
-162.521 -25519.9 0
0 0 0

-7046.96 -2.04818 0
-2.04818 -26982.5 0
0 0 0

-4894.05 -1299.13 0
-1299.13 -28542.2 0
0 0 0

-10403.1 -651.856 0
-651.856 -34904.5 0
0 0 0

TENSORS velocity_gradient double
-1.70346 -0.83154 0
1.10824 5.80483 0
0 0 0

-4.62793 -0.726124 0
0.970791 6.73949 0
0 0 0

4.03536 -2.04445 0
-2.65031 3.7359 0
0 0 0

4.19673 -1.76462 0
-4.29257 3.98743 0
0 0 0

-1.91414 -0.106791 0
-2.71239 8.54954 0
0 0 0

1.33938 0.0913155 0
-6.20194 8.14021 0
0 0 0

4.30854 0.564275 0
-5.69805 6.0016 0
0 0 0

4.39167 0.574655 0
-6.92812 5.848 0
0 0 0

2.92593 6.0441 0
-8.97984 4.53991 0
0 0 0

2.33047 7.16792 0
-10.3843 3.25406 0
0 0 0

4.11943 3.43013 0
-8.24529 3.03309 0
0 0 0

2.53461 4.92 0
-9.58598 1.35799 0
0 0 0

0.572328 6.88194 0
-10.9744 2.34202 0
0 0 0

0.151783 6.12401 0
-10.187 -0.180982 0
0 0 0

0.657559 4.82925 0
-10.971 1.26242 0
0 0 0

0.149889 6.15205 0
-10.2936 1.39688 0
0 0 0

8.19952 -1.67636 0
-1.81367 1.04305 0
0 0 0

8.52891 -1.67869 0
-2.97325 1.05368 0
0 0 0

8.93471 -0.923035 0
-1.66004 -0.908112 0
0 0 0

9.35398 -0.924776 0
-2.7081 -0.903759 0
0 0 0

8.51006 0.331329 0
-4.0666 4.05855 0
0 0 0

7.78258 0.274443 0
-5.15118 3.96043 0
0 0 0

8.89793 -1.36896 0
-3.89186 2.1049 0
0 0 0

7.84022 -1.39038 0
-5.0861 2.08071 0
0 0 0

6.54589 1.3804 0
-6.87754 1.34797 0
0 0 0

4.84089 2.59338 0
-10.7383 -1.67196 0
0 0 0

6.63523 -0.768484 0
-6.70833 -1.43144 0
0 0 0

4.9839 0.268807 0
-10.3938 -7.27104 0
0 0 0

2.95441 2.52135 0
-15.2821 -1.84546 0
0 0 0

0.517138 4.96928 0
-22.3219 -1.36139 0
0 0 0

3.14346 0.254801 0
-14.8268 -7.30477 0
0 0 0

0.895512 2.02189 0
-21.157 -10.4352 0
0 0 0

9.82281 -0.154488 0
-0.14285 -1.96231 0
0 0 0

10.2394 -0.154511 0
-0.233035 -1.9623 0
0 0 0

9.25689 0.62174 0
0.117963 -2.06639 0
0 0 0

9.67353 0.623826 0
0.210386 -2.06415 0
0 0 0

10.0393 -2.78165 0
-0.487258 0.814772 0
0 0 0

9.38681 -2.75555 0
-0.846306 0.829136 0
0 0 0

9.92561 -3.84066 0
-0.346081 0.231781 0
0 0 0

9.37887 -3.79613 0
-0.850675 0.256512 0
0 0 0

8.60059 -2.48986 0
-1.4492 -3.3779 0
0 0 0

7.22615 -1.95426 0
-3.49644 -11.8402 0
0 0 0

8.59504 -3.88441 0
-1.45625 -5.02142 0
0 0 0

7.24807 -4.05775 0
-3.46124 -15.2191 0
0 0 0

5.61454 -1.91503 0
-6.08519 -11.7772 0
0 0 0

4.92265 0.669306 0
-7.37773 -15.1974 0
0 0 0

5.67083 -3.9673 0
-5.99478 -15.0738 0
0 0 0

4.90063 1.23345 0
-7.39422 -14.775 0
0 0 0

5.55226 1.61183 0
1.90648 -0.375552 0
0 0 0

6.15247 1.38164 0
3.08829 -0.313672 0
0 0 0

-0.228174 1.07289 0
-0.667261 1.17203 0
0 0 0

-2.95965 0.827392 0
-0.295139 1.75563 0
0 0 0

7.06179 -2.72075 0
3.87589 0.823352 0
0 0 0

8.08931 -2.86385 0
4.42237 0.747247 0
0 0 0

0.496705 -0.504805 0
4.01998 3.12402 0
0 0 0

4.84768 -0.867078 0
7.13986 2.54061 0
0 0 0

8.66381 -4.90445 0
4.9418 -6.83888 0
0 0 0

6.84061 -7.05943 0
5.17431 -16.3947 0
0 0 0

6.55267 -7.75207 0
7.43141 -9.40411 0
0 0 0

6.2433 -10.715 0
5.29983 -16.2235 0
0 0 0

4.26161 -6.81061 0
5.33372 -16.4101 0
0 0 0

2.84268 1.74875 0
3.17773 -18.2976 0
0 0 0

4.11431 -10.2787 0
5.34282 -16.1957 0
0 0 0

2.8481 2.2215 0
3.098 -25.2585 0
0 0 0

SCALARS active double 1
LOOKUP_TABLE default
1
1
1
1
1
1
1
1
1
1
1
1
1
1
1
1
1
1
1
1
1
1
1
1
1
1
1
1
1
1
1
1
1
1
1
1
1
1
1
1
1
1
1
1
1
1
1
1
1
1
1
1
1
1
1
1
1
1
1
1
1
1
1
1
SCALARS extent double 1
LOOKUP_TABLE default
0.0125
0.0125
0.0125
0.0125
0.0125
0.0125
0.0125
0.0125
0.0125
0.0125
0.0125
0.0125
0.0125
0.0125
0.0125
0.0125
0.0125
0.0125
0.0125
0.0125
0.0125
0.0125
0.0125
0.0125
0.0125
0.0125
0.0125
0.0125
0.0125
0.0125
0.0125
0.0125
0.0125
0.0125
0.0125
0.0125
0.0125
0.0125
0.0125
0.0125
0.0125
0.0125
0.0125
0.0125
0.0125
0.0125
0.0125
0.0125
0.0125
0.0125
0.0125
0.0125
0.0125
0.0125
0.0125
0.0125
0.0125
0.0125
0.0125
0.0125
0.0125
0.0125
0.0125
0.0125
SCALARS pressure double 1
LOOKUP_TABLE default
28920.6
4803.31
34203.2
3516.36
16937.7
13153.6
15612.6
13231.9
9023.54
10309.4
7950.84
9104.22
3931.76
2499.7
3638.09
1198.3
38152.6
4616.7
39531.1
5883.52
14378.9
13066.9
15593.3
14334.4
8745.01
10040.5
10648.7
12735.4
5460.05
4114.15
8986.71
10486.7
39637.9
5977.18
39133.6
5573.95
15873.9
14358.5
16223.6
14638.5
11310
14269.2
12827.5
16656.2
10872.4
12431.8
13248.2
13243
35480.4
4644.22
30397.4
6370.81
17635.3
14647.9
19289.9
14969.8
13097.2
17364
16522.4
19776.9
14600.5
17014.7
16718.2
22653.8
SCALARS density double 1
LOOKUP_TABLE default
1350.9
1051.22
1427.2
1037.25
1192.62
1146.6
1176.3
1147.53
1098.39
1113.18
1086.2
1099.31
1041.74
1026.34
1038.56
1012.54
1487.04
1049.19
1508.51
1063.1
1161.3
1145.56
1176.06
1160.76
1095.21
1110.07
1117.11
1141.62
1058.43
1043.72
1097.97
1115.23
1510.19
1064.14
1502.29
1059.68
1179.5
1161.05
1183.79
1164.44
1124.82
1159.98
1142.71
1189.13
1119.71
1138.02
1147.72
1147.66
1446.28
1049.49
1371.81
1068.5
1201.3
1164.55
1222.15
1168.46
1145.92
1197.92
1187.48
1228.36
1163.98
1193.58
1189.9
1265.67
