# vtk DataFile Version 3.0
Frame: 13, Time: 0.234
ASCII
DATASET UNSTRUCTURED_GRID
POINTS 64 double
0.4125 0.140469 0 
0.4125 0.165469 0 
0.4375 0.140469 0 
0.4375 0.165469 0 
0.4125 0.190469 0 
0.4125 0.215469 0 
0.4375 0.190469 0 
0.4375 0.215469 0 
0.4125 0.240469 0 
0.4125 0.265469 0 
0.4375 0.240469 0 
0.4375 0.265469 0 
0.4125 0.290469 0 
0.4125 0.315469 0 
0.4375 0.290469 0 
0.4375 0.315469 0 
0.4625 0.140469 0 
0.4625 0.165469 0 
0.4875 0.140469 0 
0.4875 0.165469 0 
0.4625 0.190469 0 
0.4625 0.215469 0 
0.4875 0.190469 0 
0.4875 0.215469 0 
0.4625 0.240469 0 
0.4625 0.265469 0 
0.4875 0.240469 0 
0.4875 0.265469 0 
0.4625 0.290469 0 
0.4625 0.315469 0 
0.4875 0.290469 0 
0.4875 0.315469 0 
0.5125 0.140469 0 
0.5125 0.165469 0 
0.5375 0.140469 0 
0.5375 0.165469 0 
0.5125 0.190469 0 
0.5125 0.215469 0 
0.5375 0.190469 0 
0.5375 0.215469 0 
0.5125 0.240469 0 
0.5125 0.265469 0 
0.5375 0.240469 0 
0.5375 0.265469 0 
0.5125 0.290469 0 
0.5125 0.315469 0 
0.5375 0.290469 0 
0.5375 0.315469 0 
0.5625 0.140469 0 
0.5625 0.165469 0 
0.5875 0.140469 0 
0.5875 0.165469 0 
0.5625 0.190469 0 
0.5625 0.215469 0 
0.5875 0.190469 0 
0.5875 0.215469 0 
0.5625 0.240469 0 
0.5625 0.265469 0 
0.5875 0.240469 0 
0.5875 0.265469 0 
0.5625 0.290469 0 
0.5625 0.315469 0 
0.5875 0.290469 0 
0.5875 0.315469 0 
CELLS 64 128
1 0
1 1
1 2
1 3
1 4
1 5
1 6
1 7
1 8
1 9
1 10
1 11
1 12
1 13
1 14
1 15
1 16
1 17
1 18
1 19
1 20
1 21
1 22
1 23
1 24
1 25
1 26
1 27
1 28
1 29
1 30
1 31
1 32
1 33
1 34
1 35
1 36
1 37
1 38
1 39
1 40
1 41
1 42
1 43
1 44
1 45
1 46
1 47
1 48
1 49
1 50
1 51
1 52
1 53
1 54
1 55
1 56
1 57
1 58
1 59
1 60
1 61
1 62
1 63
CELL_TYPES 64
1
1
1
1
1
1
1
1
1
1
1
1
1
1
1
1
1
1
1
1
1
1
1
1
1
1
1
1
1
1
1
1
1
1
1
1
1
1
1
1
1
1
1
1
1
1
1
1
1
1
1
1
1
1
1
1
1
1
1
1
1
1
1
1
POINT_DATA 64
VECTORS displacement double
-1.45376e-16 -0.272031 0 
-1.13473e-16 -0.272031 0 
-1.37937e-16 -0.272031 0 
-1.08373e-16 -0.272031 0 
-8.32189e-17 -0.272031 0 
-6.05592e-17 -0.272031 0 
-8.15352e-17 -0.272031 0 
-6.30517e-17 -0.272031 0 
-5.252e-17 -0.272031 0 
-5.65752e-17 -0.272031 0 
-5.51145e-17 -0.272031 0 
-5.56325e-17 -0.272031 0 
-5.09032e-17 -0.272031 0 
-4.85961e-17 -0.272031 0 
-5.09413e-17 -0.272031 0 
-4.81241e-17 -0.272031 0 
-1.27272e-16 -0.272031 0 
-1.03832e-16 -0.272031 0 
-1.1338e-16 -0.272031 0 
-9.98491e-17 -0.272031 0 
-8.21913e-17 -0.272031 0 
-6.71254e-17 -0.272031 0 
-8.51873e-17 -0.272031 0 
-7.27803e-17 -0.272031 0 
-5.92055e-17 -0.272031 0 
-5.68201e-17 -0.272031 0 
-6.47929e-17 -0.272031 0 
-6.0138e-17 -0.272031 0 
-5.24245e-17 -0.272031 0 
-4.84028e-17 -0.272031 0 
-5.53526e-17 -0.272031 0 
-4.94321e-17 -0.272031 0 
-9.9396e-17 -0.272031 0 
-9.47856e-17 -0.272031 0 
-8.53189e-17 -0.272031 0 
-8.86418e-17 -0.272031 0 
-8.76138e-17 -0.272031 0 
-7.91071e-17 -0.272031 0 
-8.94709e-17 -0.272031 0 
-8.61057e-17 -0.272031 0 
-7.19038e-17 -0.272031 0 
-6.45168e-17 -0.272031 0 
-8.05381e-17 -0.272031 0 
-6.99567e-17 -0.272031 0 
-5.7961e-17 -0.272031 0 
-4.97327e-17 -0.272031 0 
-6.02496e-17 -0.272031 0 
-4.93045e-17 -0.272031 0 
-7.47738e-17 -0.272031 0 
-8.32399e-17 -0.272031 0 
-6.77607e-17 -0.272031 0 
-7.85802e-17 -0.272031 0 
-8.99601e-17 -0.272031 0 
-9.2431e-17 -0.272031 0 
-8.90812e-17 -0.272031 0 
-9.8083e-17 -0.272031 0 
-8.81187e-17 -0.272031 0 
-7.32708e-17 -0.272031 0 
-9.46453e-17 -0.272031 0 
-7.44589e-17 -0.272031 0 
-6.1156e-17 -0.272031 0 
-4.86973e-17 -0.272031 0 
-6.06804e-17 -0.272031 0 
-4.79111e-17 -0.272031 0 
VECTORS velocity double
5.84143e-15 -2.30535 0 
-2.31106e-15 -2.30535 0 
8.1917e-16 -2.30535 0 
-1.2545e-15 -2.30535 0 
-5.32612e-15 -2.30535 0 
5.49753e-17 -2.30535 0 
-2.03563e-15 -2.30535 0 
8.07493e-16 -2.30535 0 
3.62501e-15 -2.30535 0 
2.54263e-15 -2.30535 0 
2.3942e-15 -2.30535 0 
2.52126e-15 -2.30535 0 
-1.49036e-16 -2.30535 0 
-2.96373e-15 -2.30535 0 
6.89185e-16 -2.30535 0 
-7.40804e-16 -2.30535 0 
-9.4814e-16 -2.30535 0 
-6.11108e-16 -2.30535 0 
5.39496e-16 -2.30535 0 
-3.80898e-16 -2.30535 0 
-6.92387e-16 -2.30535 0 
5.09395e-16 -2.30535 0 
-1.29639e-15 -2.30535 0 
-8.3932e-16 -2.30535 0 
1.27907e-15 -2.30535 0 
1.82218e-15 -2.30535 0 
2.79619e-16 -2.30535 0 
4.45397e-16 -2.30535 0 
8.80642e-16 -2.30535 0 
3.55053e-16 -2.30535 0 
4.25335e-16 -2.30535 0 
3.23837e-16 -2.30535 0 
1.39213e-15 -2.30535 0 
-1.85436e-16 -2.30535 0 
1.60975e-15 -2.30535 0 
-2.47239e-17 -2.30535 0 
-1.37498e-15 -2.30535 0 
-1.49671e-15 -2.30535 0 
-9.28133e-16 -2.30535 0 
-1.46277e-15 -2.30535 0 
-7.79615e-16 -2.30535 0 
-1.10343e-15 -2.30535 0 
-1.89863e-15 -2.30535 0 
-2.82431e-15 -2.30535 0 
-1.79542e-16 -2.30535 0 
4.56322e-17 -2.30535 0 
-9.33989e-16 -2.30535 0 
-4.79561e-16 -2.30535 0 
-1.42572e-15 -2.30535 0 
5.11029e-16 -2.30535 0 
-7.71427e-15 -2.30535 0 
1.42182e-15 -2.30535 0 
1.19707e-15 -2.30535 0 
-8.09206e-16 -2.30535 0 
5.00064e-15 -2.30535 0 
4.63972e-16 -2.30535 0 
-3.05206e-15 -2.30535 0 
-3.80909e-15 -2.30535 0 
-4.23991e-15 -2.30535 0 
-4.05776e-15 -2.30535 0 
-1.75737e-15 -2.30535 0 
-2.86208e-16 -2.30535 0 
-2.64968e-15 -2.30535 0 
6.25692e-16 -2.30535 0 
SCALARS mass double 1
LOOKUP_TABLE default
0.625
0.625
0.625
0.625
0.625
0.625
0.625
0.625
0.625
0.625
0.625
0.625
0.625
0.625
0.625
0.625
0.625
0.625
0.625
0.625
0.625
0.625
0.625
0.625
0.625
0.625
0.625
0.625
0.625
0.625
0.625
0.625
0.625
0.625
0.625
0.625
0.625
0.625
0.625
0.625
0.625
0.625
0.625
0.625
0.625
0.625
0.625
0.625
0.625
0.625
0.625
0.625
0.625
0.625
0.625
0.625
0.625
0.625
0.625
0.625
0.625
0.625
0.625
0.625
SCALARS volume double 1
LOOKUP_TABLE default
0.000625
0.000625
0.000625
0.000625
0.000625
0.000625
0.000625
0.000625
0.000625
0.000625
0.000625
0.000625
0.000625
0.000625
0.000625
0.000625
0.000625
0.000625
0.000625
0.000625
0.000625
0.000625
0.000625
0.000625
0.000625
0.000625
0.000625
0.000625
0.000625
0.000625
0.000625
0.000625
0.000625
0.000625
0.000625
0.000625
0.000625
0.000625
0.000625
0.000625
0.000625
0.000625
0.000625
0.000625
0.000625
0.000625
0.000625
0.000625
0.000625
0.000625
0.000625
0.000625
0.000625
0.000625
0.000625
0.000625
0.000625
0.000625
0.000625
0.000625
0.000625
0.000625
0.000625
0.000625
VECTORS momentum double
3.65089e-15 -1.44084 0 
-1.44441e-15 -1.44084 0 
5.11981e-16 -1.44084 0 
-7.8406e-16 -1.44084 0 
-3.32883e-15 -1.44084 0 
3.43595e-17 -1.44084 0 
-1.27227e-15 -1.44084 0 
5.04683e-16 -1.44084 0 
2.26563e-15 -1.44084 0 
1.58914e-15 -1.44084 0 
1.49638e-15 -1.44084 0 
1.57579e-15 -1.44084 0 
-9.31475e-17 -1.44084 0 
-1.85233e-15 -1.44084 0 
4.30741e-16 -1.44084 0 
-4.63002e-16 -1.44084 0 
-5.92588e-16 -1.44084 0 
-3.81943e-16 -1.44084 0 
3.37185e-16 -1.44084 0 
-2.38061e-16 -1.44084 0 
-4.32742e-16 -1.44084 0 
3.18372e-16 -1.44084 0 
-8.10247e-16 -1.44084 0 
-5.24575e-16 -1.44084 0 
7.99419e-16 -1.44084 0 
1.13886e-15 -1.44084 0 
1.74762e-16 -1.44084 0 
2.78373e-16 -1.44084 0 
5.50401e-16 -1.44084 0 
2.21908e-16 -1.44084 0 
2.65834e-16 -1.44084 0 
2.02398e-16 -1.44084 0 
8.70079e-16 -1.44084 0 
-1.15898e-16 -1.44084 0 
1.00609e-15 -1.44084 0 
-1.54525e-17 -1.44084 0 
-8.5936e-16 -1.44084 0 
-9.35442e-16 -1.44084 0 
-5.80083e-16 -1.44084 0 
-9.14229e-16 -1.44084 0 
-4.87259e-16 -1.44084 0 
-6.89647e-16 -1.44084 0 
-1.18664e-15 -1.44084 0 
-1.7652e-15 -1.44084 0 
-1.12214e-16 -1.44084 0 
2.85201e-17 -1.44084 0 
-5.83743e-16 -1.44084 0 
-2.99726e-16 -1.44084 0 
-8.91072e-16 -1.44084 0 
3.19393e-16 -1.44084 0 
-4.82142e-15 -1.44084 0 
8.88639e-16 -1.44084 0 
7.48171e-16 -1.44084 0 
-5.05754e-16 -1.44084 0 
3.1254e-15 -1.44084 0 
2.89983e-16 -1.44084 0 
-1.90754e-15 -1.44084 0 
-2.38068e-15 -1.44084 0 
-2.64995e-15 -1.44084 0 
-2.5361e-15 -1.44084 0 
-1.09835e-15 -1.44084 0 
-1.7888e-16 -1.44084 0 
-1.65605e-15 -1.44084 0 
3.91058e-16 -1.44084 0 
VECTORS body_force double
0 -9.81 0 
0 -9.81 0 
0 -9.81 0 
0 -9.81 0 
0 -9.81 0 
0 -9.81 0 
0 -9.81 0 
0 -9.81 0 
0 -9.81 0 
0 -9.81 0 
0 -9.81 0 
0 -9.81 0 
0 -9.81 0 
0 -9.81 0 
0 -9.81 0 
0 -9.81 0 
0 -9.81 0 
0 -9.81 0 
0 -9.81 0 
0 -9.81 0 
0 -9.81 0 
0 -9.81 0 
0 -9.81 0 
0 -9.81 0 
0 -9.81 0 
0 -9.81 0 
0 -9.81 0 
0 -9.81 0 
0 -9.81 0 
0 -9.81 0 
0 -9.81 0 
0 -9.81 0 
0 -9.81 0 
0 -9.81 0 
0 -9.81 0 
0 -9.81 0 
0 -9.81 0 
0 -9.81 0 
0 -9.81 0 
0 -9.81 0 
0 -9.81 0 
0 -9.81 0 
0 -9.81 0 
0 -9.81 0 
0 -9.81 0 
0 -9.81 0 
0 -9.81 0 
0 -9.81 0 
0 -9.81 0 
0 -9.81 0 
0 -9.81 0 
0 -9.81 0 
0 -9.81 0 
0 -9.81 0 
0 -9.81 0 
0 -9.81 0 
0 -9.81 0 
0 -9.81 0 
0 -9.81 0 
0 -9.81 0 
0 -9.81 0 
0 -9.81 0 
0 -9.81 0 
0 -9.81 0 
TENSORS cauchy_stress double
4.78716e-11 -1.95761e-11 0
-1.95761e-11 3.54037e-11 0
0 0 0

1.22853e-11 3.5179e-13 0
3.5179e-13 -2.36342e-11 0
0 0 0

3.90012e-11 -1.30328e-11 0
-1.30328e-11 1.47064e-11 0
0 0 0

4.01844e-11 -1.4752e-11 0
-1.4752e-11 4.14638e-11 0
0 0 0

-4.58558e-11 -2.31785e-12 0
-2.31785e-12 -1.24266e-10 0
0 0 0

-5.69101e-11 2.36808e-12 0
2.36808e-12 -1.07227e-10 0
0 0 0

-3.73903e-11 -7.94019e-12 0
-7.94019e-12 -1.04513e-10 0
0 0 0

-3.72415e-11 -5.23632e-12 0
-5.23632e-12 -6.13334e-11 0
0 0 0

5.65614e-11 -1.33413e-11 0
-1.33413e-11 1.58587e-10 0
0 0 0

1.17019e-11 -1.56207e-11 0
-1.56207e-11 1.76362e-11 0
0 0 0

3.76234e-11 -2.18818e-12 0
-2.18818e-12 1.14399e-10 0
0 0 0

6.19986e-12 1.24658e-12 0
1.24658e-12 4.79823e-12 0
0 0 0

-4.08726e-11 -1.79762e-12 0
-1.79762e-12 -9.49785e-11 0
0 0 0

2.11685e-12 -2.50708e-12 0
-2.50708e-12 9.89545e-14 0
0 0 0

-4.42085e-11 -1.03419e-11 0
-1.03419e-11 -1.02762e-10 0
0 0 0

8.53639e-12 2.03552e-12 0
2.03552e-12 1.50779e-11 0
0 0 0

8.87037e-11 9.14791e-12 0
9.14791e-12 6.44973e-11 0
0 0 0

3.8123e-11 1.78329e-11 0
1.78329e-11 4.81018e-11 0
0 0 0

7.59034e-11 7.973e-12 0
7.973e-12 3.463e-11 0
0 0 0

5.25121e-11 -3.15311e-12 0
-3.15311e-12 8.16764e-11 0
0 0 0

-3.90924e-11 -3.03027e-13 0
-3.03027e-13 -6.0488e-11 0
0 0 0

-1.31014e-11 1.93845e-12 0
1.93845e-12 2.74295e-11 0
0 0 0

-6.38542e-11 1.56451e-12 0
1.56451e-12 -1.18266e-10 0
0 0 0

-3.99933e-11 3.1216e-12 0
3.1216e-12 -3.53184e-11 0
0 0 0

6.06773e-11 -1.76736e-11 0
-1.76736e-11 1.98887e-10 0
0 0 0

-2.61679e-11 -7.30278e-12 0
-7.30278e-12 -2.70294e-11 0
0 0 0

4.44947e-11 6.31823e-13 0
6.31823e-13 1.61127e-10 0
0 0 0

1.25175e-11 -3.88731e-12 0
-3.88731e-12 6.32365e-11 0
0 0 0

-2.25121e-11 2.54914e-12 0
2.54914e-12 -2.24957e-11 0
0 0 0

-1.10972e-11 -8.33662e-12 0
-8.33662e-12 -1.53366e-11 0
0 0 0

-4.67007e-11 1.15279e-11 0
1.15279e-11 -7.89357e-11 0
0 0 0

3.26472e-12 1.56149e-11 0
1.56149e-11 1.81745e-11 0
0 0 0

7.72078e-11 -8.2474e-12 0
-8.2474e-12 3.57716e-11 0
0 0 0

4.39021e-11 8.36993e-12 0
8.36993e-12 3.94245e-11 0
0 0 0

7.42655e-11 -1.5506e-11 0
-1.5506e-11 2.89061e-11 0
0 0 0

4.16075e-11 -5.31038e-13 0
-5.31038e-13 3.40703e-11 0
0 0 0

-3.49624e-11 1.12351e-11 0
1.12351e-11 -6.25313e-11 0
0 0 0

-4.22227e-11 4.47721e-13 0
4.47721e-13 -2.67393e-11 0
0 0 0

-4.36942e-11 5.91308e-12 0
5.91308e-12 -8.29055e-11 0
0 0 0

-5.8543e-11 -1.55049e-12 0
-1.55049e-12 -6.482e-11 0
0 0 0

7.05758e-11 4.50668e-12 0
4.50668e-12 2.53235e-10 0
0 0 0

-3.3359e-11 6.00411e-12 0
6.00411e-12 -2.20439e-11 0
0 0 0

4.63511e-11 1.29873e-11 0
1.29873e-11 1.9671e-10 0
0 0 0

-7.94339e-12 7.59163e-12 0
7.59163e-12 3.72591e-11 0
0 0 0

-3.73872e-11 -1.57926e-11 0
-1.57926e-11 -6.37642e-11 0
0 0 0

3.52396e-12 -8.24508e-12 0
-8.24508e-12 3.83136e-12 0
0 0 0

-4.17387e-11 -3.54154e-12 0
-3.54154e-12 -7.39177e-11 0
0 0 0

5.33821e-12 -7.93887e-13 0
-7.93887e-13 8.06462e-12 0
0 0 0

5.26816e-11 1.81637e-11 0
1.81637e-11 5.09937e-11 0
0 0 0

3.95988e-11 1.7514e-12 0
1.7514e-12 4.46045e-11 0
0 0 0

3.3218e-11 1.94642e-11 0
1.94642e-11 5.57867e-12 0
0 0 0

2.47965e-11 1.52738e-11 0
1.52738e-11 1.00659e-11 0
0 0 0

-3.99107e-11 1.08448e-12 0
1.08448e-12 -1.02139e-10 0
0 0 0

-2.83717e-11 1.95711e-12 0
1.95711e-12 -8.23081e-12 0
0 0 0

-5.68355e-11 -6.10687e-12 0
-6.10687e-12 -1.4163e-10 0
0 0 0

-6.16527e-11 -9.25259e-12 0
-9.25259e-12 -8.58866e-11 0
0 0 0

4.87721e-11 2.02635e-13 0
2.02635e-13 1.80742e-10 0
0 0 0

-1.72274e-11 -5.69982e-13 0
-5.69982e-13 -2.80108e-11 0
0 0 0

3.71736e-11 1.9341e-11 0
1.9341e-11 1.53678e-10 0
0 0 0

-3.87113e-12 -2.29176e-12 0
-2.29176e-12 3.15394e-12 0
0 0 0

-4.80869e-11 -3.7761e-12 0
-3.7761e-12 -1.17081e-10 0
0 0 0

-1.80159e-12 -2.47958e-12 0
-2.47958e-12 -1.22678e-11 0
0 0 0

-2.57662e-11 -1.5069e-12 0
-1.5069e-12 -6.49998e-11 0
0 0 0

9.07913e-12 2.63807e-12 0
2.63807e-12 1.31205e-11 0
0 0 0

TENSORS velocity_gradient double
-3.95646e-14 -1.85946e-14 0
2.84217e-14 1.56319e-13 0
0 0 0

-8.58733e-15 -7.64444e-14 0
-2.84217e-14 1.13687e-13 0
0 0 0

-3.95646e-14 -1.52705e-14 0
1.42109e-14 7.10543e-14 0
0 0 0

-8.58733e-15 -3.42249e-14 0
-2.13163e-14 9.23706e-14 0
0 0 0

3.36322e-14 -7.64444e-14 0
-9.23706e-14 1.77636e-13 0
0 0 0

2.01786e-14 9.95663e-14 0
-8.88178e-14 -3.30402e-13 0
0 0 0

3.36322e-14 -3.42249e-14 0
-9.9476e-14 9.9476e-14 0
0 0 0

2.01786e-14 6.34792e-14 0
-9.23706e-14 -2.4869e-13 0
0 0 0

-1.59086e-14 9.95663e-14 0
-2.84217e-14 -2.70006e-13 0
0 0 0

-7.0651e-15 -6.15418e-14 0
1.77636e-14 4.61853e-14 0
0 0 0

-1.59086e-14 6.34792e-14 0
-1.42109e-14 -1.98952e-13 0
0 0 0

-7.0651e-15 -3.4432e-14 0
-1.42109e-14 7.10543e-14 0
0 0 0

2.00447e-14 -6.15418e-14 0
7.10543e-15 3.55271e-14 0
0 0 0

2.77466e-14 -2.18799e-14 0
2.4869e-14 -6.03961e-14 0
0 0 0

2.00447e-14 -3.4432e-14 0
4.26326e-14 9.9476e-14 0
0 0 0

2.77466e-14 -2.20682e-14 0
2.84217e-14 -2.84217e-14 0
0 0 0

4.69895e-15 -1.25862e-14 0
-4.9738e-14 1.20792e-13 0
0 0 0

1.11439e-15 -1.60517e-14 0
-6.39488e-14 7.81597e-14 0
0 0 0

4.69895e-15 -1.05416e-14 0
-8.52651e-14 4.26326e-14 0
0 0 0

1.11439e-15 -2.19248e-14 0
-7.81597e-14 1.06581e-13 0
0 0 0

-4.75866e-15 -1.60517e-14 0
-5.68434e-14 8.52651e-14 0
0 0 0

-1.89453e-14 3.66523e-14 0
-5.68434e-14 -2.13163e-13 0
0 0 0

-4.75866e-15 -2.19248e-14 0
-2.84217e-14 8.52651e-14 0
0 0 0

-1.89453e-14 1.90858e-14 0
-4.26326e-14 -1.84741e-13 0
0 0 0

-3.65119e-14 3.66523e-14 0
-5.68434e-14 -1.98952e-13 0
0 0 0

-3.0517e-14 -1.30902e-14 0
-5.32907e-14 8.88178e-14 0
0 0 0

-3.65119e-14 1.90858e-14 0
-7.10543e-14 -2.13163e-13 0
0 0 0

-3.0517e-14 2.48338e-15 0
-4.9738e-14 7.81597e-14 0
0 0 0

-1.49434e-14 -1.30902e-14 0
-2.84217e-14 1.13687e-13 0
0 0 0

-1.25229e-15 -1.56994e-14 0
-1.77636e-14 -3.55271e-15 0
0 0 0

-1.49434e-14 2.48338e-15 0
-5.68434e-14 1.13687e-13 0
0 0 0

-1.25229e-15 -2.77362e-15 0
-7.10543e-15 2.13163e-14 0
0 0 0

-1.27408e-14 -5.78757e-15 0
1.42109e-14 4.26326e-14 0
0 0 0

-1.71629e-15 -1.86252e-14 0
1.77636e-14 1.1724e-13 0
0 0 0

-1.27408e-14 1.67597e-15 0
0 8.52651e-14 0
0 0 0

-1.71629e-15 -6.15295e-15 0
2.13163e-14 3.55271e-14 0
0 0 0

1.07559e-14 -1.86252e-14 0
1.42109e-14 9.9476e-14 0
0 0 0

-4.39248e-15 -2.88623e-15 0
-1.42109e-14 -2.41585e-13 0
0 0 0

1.07559e-14 -6.15295e-15 0
0 1.42109e-13 0
0 0 0

-4.39248e-15 -2.92637e-14 0
7.10543e-15 -2.62901e-13 0
0 0 0

-3.07699e-14 -2.88623e-15 0
-2.13163e-14 -2.34479e-13 0
0 0 0

-3.43518e-14 1.3113e-14 0
-2.84217e-14 1.27898e-13 0
0 0 0

-3.07699e-14 -2.92637e-14 0
-2.84217e-14 -2.41585e-13 0
0 0 0

-3.43518e-14 1.87986e-14 0
-3.55271e-14 1.06581e-13 0
0 0 0

-2.86662e-14 1.3113e-14 0
-2.84217e-14 1.13687e-13 0
0 0 0

-2.06153e-14 8.19548e-15 0
-3.19744e-14 -3.19744e-14 0
0 0 0

-2.86662e-14 1.87986e-14 0
-2.84217e-14 5.68434e-14 0
0 0 0

-2.06153e-14 1.72079e-14 0
-4.26326e-14 -4.26326e-14 0
0 0 0

-6.1935e-14 1.0332e-14 0
-1.42109e-14 5.68434e-14 0
0 0 0

-1.6593e-14 2.9969e-14 0
1.77636e-14 1.45661e-13 0
0 0 0

-6.1935e-14 2.01804e-14 0
-2.84217e-14 1.42109e-13 0
0 0 0

-1.6593e-14 8.97407e-14 0
1.42109e-14 1.27898e-13 0
0 0 0

4.31787e-14 2.9969e-14 0
-7.10543e-15 1.06581e-13 0
0 0 0

2.98287e-14 -6.39911e-14 0
3.55271e-14 -2.4869e-13 0
0 0 0

4.31787e-14 8.97407e-14 0
2.84217e-14 1.56319e-13 0
0 0 0

2.98287e-14 -1.07068e-13 0
2.13163e-14 -2.77112e-13 0
0 0 0

-1.32486e-14 -6.39911e-14 0
1.42109e-14 -2.70006e-13 0
0 0 0

-1.71459e-14 2.76569e-14 0
-3.55271e-15 1.10134e-13 0
0 0 0

-1.32486e-14 -1.07068e-13 0
1.42109e-14 -3.2685e-13 0
0 0 0

-1.71459e-14 3.9688e-14 0
0 1.13687e-13 0
0 0 0

-5.11491e-15 2.76569e-14 0
-2.84217e-14 1.13687e-13 0
0 0 0

8.38596e-16 2.34554e-14 0
-1.06581e-14 -3.90799e-14 0
0 0 0

-5.11491e-15 3.9688e-14 0
0 1.13687e-13 0
0 0 0

8.38596e-16 2.69382e-14 0
7.10543e-15 -3.55271e-14 0
0 0 0

SCALARS active double 1
LOOKUP_TABLE default
1
1
1
1
1
1
1
1
1
1
1
1
1
1
1
1
1
1
1
1
1
1
1
1
1
1
1
1
1
1
1
1
1
1
1
1
1
1
1
1
1
1
1
1
1
1
1
1
1
1
1
1
1
1
1
1
1
1
1
1
1
1
1
1
SCALARS extent double 1
LOOKUP_TABLE default
0.0125
0.0125
0.0125
0.0125
0.0125
0.0125
0.0125
0.0125
0.0125
0.0125
0.0125
0.0125
0.0125
0.0125
0.0125
0.0125
0.0125
0.0125
0.0125
0.0125
0.0125
0.0125
0.0125
0.0125
0.0125
0.0125
0.0125
0.0125
0.0125
0.0125
0.0125
0.0125
0.0125
0.0125
0.0125
0.0125
0.0125
0.0125
0.0125
0.0125
0.0125
0.0125
0.0125
0.0125
0.0125
0.0125
0.0125
0.0125
0.0125
0.0125
0.0125
0.0125
0.0125
0.0125
0.0125
0.0125
0.0125
0.0125
0.0125
0.0125
0.0125
0.0125
0.0125
0.0125
SCALARS pressure double 1
LOOKUP_TABLE default
-4.16376e-11
5.67449e-12
-2.68538e-11
-4.08241e-11
8.50609e-11
8.20684e-11
7.09515e-11
4.92875e-11
-1.07574e-10
-1.46691e-11
-7.60111e-11
-5.49905e-12
6.79256e-11
-1.1079e-12
7.34854e-11
-1.18071e-11
-7.66005e-11
-4.31124e-11
-5.52667e-11
-6.70943e-11
4.97902e-11
-7.16405e-12
9.10599e-11
3.76559e-11
-1.29782e-10
2.65987e-11
-1.02811e-10
-3.7877e-11
2.25039e-11
1.32169e-11
6.28182e-11
-1.07196e-11
-5.64897e-11
-4.16633e-11
-5.15858e-11
-3.78389e-11
4.87468e-11
3.4481e-11
6.32998e-11
6.16815e-11
-1.61905e-10
2.77014e-11
-1.21531e-10
-1.46579e-11
5.05757e-11
-3.67766e-12
5.78282e-11
-6.70142e-12
-5.18377e-11
-4.21016e-11
-1.93983e-11
-1.74312e-11
7.10248e-11
1.83012e-11
9.92327e-11
7.37697e-11
-1.14757e-10
2.26191e-11
-9.5426e-11
3.58595e-13
8.25842e-11
7.0347e-12
4.5383e-11
-1.10998e-11
SCALARS density double 1
LOOKUP_TABLE default
1000
1000
1000
1000
1000
1000
1000
1000
1000
1000
1000
1000
1000
1000
1000
1000
1000
1000
1000
1000
1000
1000
1000
1000
1000
1000
1000
1000
1000
1000
1000
1000
1000
1000
1000
1000
1000
1000
1000
1000
1000
1000
1000
1000
1000
1000
1000
1000
1000
1000
1000
1000
1000
1000
1000
1000
1000
1000
1000
1000
1000
1000
1000
1000
