# vtk DataFile Version 3.0
Frame: 19, Time: 0.334
ASCII
DATASET UNSTRUCTURED_GRID
POINTS 64 double
0.386578 0.0465745 0 
0.389635 0.0713401 0 
0.411327 0.0427162 0 
0.413652 0.0672905 0 
0.391045 0.095493 0 
0.393072 0.119744 0 
0.415003 0.0913436 0 
0.41658 0.115101 0 
0.394918 0.146077 0 
0.40032 0.17314 0 
0.418515 0.140498 0 
0.4227 0.165787 0 
0.41158 0.199424 0 
0.423782 0.222714 0 
0.433395 0.190097 0 
0.447509 0.213438 0 
0.436199 0.039158 0 
0.437624 0.0629886 0 
0.464019 0.0338005 0 
0.46362 0.0551031 0 
0.438873 0.086923 0 
0.440067 0.110261 0 
0.463975 0.0778134 0 
0.464157 0.100195 0 
0.44187 0.134423 0 
0.445445 0.158358 0 
0.465848 0.123333 0 
0.469954 0.145603 0 
0.454239 0.180511 0 
0.468785 0.202267 0 
0.475981 0.167135 0 
0.486237 0.186825 0 
0.493167 0.0297597 0 
0.490307 0.0487409 0 
0.524496 0.0280405 0 
0.519245 0.0459337 0 
0.489077 0.0697892 0 
0.4882 0.0908512 0 
0.516333 0.0654739 0 
0.514668 0.0849419 0 
0.488946 0.113038 0 
0.493494 0.13389 0 
0.514239 0.10571 0 
0.517438 0.125316 0 
0.498973 0.154813 0 
0.506724 0.174077 0 
0.521727 0.145142 0 
0.528395 0.164511 0 
0.55607 0.0278531 0 
0.549275 0.0451382 0 
0.587207 0.0299718 0 
0.578657 0.0477975 0 
0.544976 0.0636585 0 
0.542467 0.0820389 0 
0.573647 0.0658287 0 
0.570774 0.0833356 0 
0.541094 0.10151 0 
0.54251 0.120256 0 
0.569001 0.101744 0 
0.568966 0.119633 0 
0.54528 0.139321 0 
0.550797 0.157856 0 
0.570113 0.138364 0 
0.574491 0.155169 0 
CELLS 64 128
1 0
1 1
1 2
1 3
1 4
1 5
1 6
1 7
1 8
1 9
1 10
1 11
1 12
1 13
1 14
1 15
1 16
1 17
1 18
1 19
1 20
1 21
1 22
1 23
1 24
1 25
1 26
1 27
1 28
1 29
1 30
1 31
1 32
1 33
1 34
1 35
1 36
1 37
1 38
1 39
1 40
1 41
1 42
1 43
1 44
1 45
1 46
1 47
1 48
1 49
1 50
1 51
1 52
1 53
1 54
1 55
1 56
1 57
1 58
1 59
1 60
1 61
1 62
1 63
CELL_TYPES 64
1
1
1
1
1
1
1
1
1
1
1
1
1
1
1
1
1
1
1
1
1
1
1
1
1
1
1
1
1
1
1
1
1
1
1
1
1
1
1
1
1
1
1
1
1
1
1
1
1
1
1
1
1
1
1
1
1
1
1
1
1
1
1
1
POINT_DATA 64
VECTORS displacement double
-0.0259217 -0.365926 0 
-0.0228648 -0.36616 0 
-0.0261727 -0.369784 0 
-0.0238481 -0.370209 0 
-0.0214547 -0.367007 0 
-0.0194278 -0.367756 0 
-0.0224971 -0.371156 0 
-0.0209198 -0.372399 0 
-0.0175819 -0.366423 0 
-0.0121802 -0.36436 0 
-0.0189849 -0.372002 0 
-0.0147998 -0.371713 0 
-0.000920282 -0.363076 0 
0.0112823 -0.364786 0 
-0.00410487 -0.372403 0 
0.0100093 -0.374062 0 
-0.0263005 -0.373342 0 
-0.0248764 -0.374511 0 
-0.0234808 -0.378699 0 
-0.02388 -0.382397 0 
-0.023627 -0.375577 0 
-0.0224335 -0.377239 0 
-0.0235253 -0.384687 0 
-0.0233425 -0.387305 0 
-0.0206304 -0.378077 0 
-0.0170549 -0.379142 0 
-0.0216522 -0.389167 0 
-0.0175464 -0.391897 0 
-0.00826122 -0.381989 0 
0.00628459 -0.385233 0 
-0.0115187 -0.395365 0 
-0.00126339 -0.400675 0 
-0.0193326 -0.38274 0 
-0.0221933 -0.388759 0 
-0.0130036 -0.38446 0 
-0.018255 -0.391566 0 
-0.0234228 -0.392711 0 
-0.0243001 -0.396649 0 
-0.021167 -0.397026 0 
-0.022832 -0.402558 0 
-0.0235539 -0.399462 0 
-0.019006 -0.40361 0 
-0.0232606 -0.40679 0 
-0.0200622 -0.412184 0 
-0.0135269 -0.407687 0 
-0.00577572 -0.413423 0 
-0.0157728 -0.417358 0 
-0.00910459 -0.422989 0 
-0.00642976 -0.384647 0 
-0.0132253 -0.392362 0 
-0.000292793 -0.382528 0 
-0.00884306 -0.389703 0 
-0.0175242 -0.398842 0 
-0.0200326 -0.405461 0 
-0.0138534 -0.396671 0 
-0.0167264 -0.404164 0 
-0.0214057 -0.41099 0 
-0.0199898 -0.417244 0 
-0.0184989 -0.410756 0 
-0.0185339 -0.417867 0 
-0.0172203 -0.423179 0 
-0.0117034 -0.429644 0 
-0.0173872 -0.424136 0 
-0.0130089 -0.432331 0 
VECTORS velocity double
-1.22428 0.273756 0 
-0.576253 1.02317 0 
-1.60721 -0.123704 0 
-1.02863 0.816016 0 
-1.28758 0.399462 0 
-1.26887 0.0824283 0 
-1.02493 0.644519 0 
-0.968371 0.643317 0 
-0.561933 0.330647 0 
-0.338779 0.671011 0 
-0.641042 0.901479 0 
-0.576959 0.888877 0 
-0.323787 1.16011 0 
0.0999119 0.583657 0 
-0.76456 0.675825 0 
0.0710806 -0.0240887 0 
-1.4411 -0.166722 0 
-1.05684 0.788755 0 
-1.34693 -0.37657 0 
-1.44395 0.429663 0 
-0.719056 0.785224 0 
-0.541678 0.899663 0 
-1.07861 0.476427 0 
-0.805382 0.680657 0 
-0.480008 1.17064 0 
-0.488942 1.22831 0 
-0.70463 1.00194 0 
-0.442255 1.28175 0 
-0.773419 0.947802 0 
1.06759 0.930613 0 
-0.14123 1.73085 0 
1.08837 1.19492 0 
-1.06155 -0.38165 0 
-1.93546 0.373348 0 
-0.390884 -0.374864 0 
-1.90808 0.396787 0 
-1.80824 0.438459 0 
-1.35002 0.738716 0 
-2.20045 0.415683 0 
-1.69165 0.633474 0 
-1.03588 1.13692 0 
-0.734767 1.30922 0 
-1.1945 1.02186 0 
-0.958328 1.06015 0 
-0.274174 1.63079 0 
1.18639 1.43962 0 
-0.681597 1.09195 0 
1.04936 1.21353 0 
-0.275908 -0.454386 0 
-1.77846 0.0947203 0 
-0.345292 0.327005 0 
-2.42288 0.960337 0 
-2.08489 -0.142847 0 
-1.67392 -0.0605646 0 
-2.55765 0.586969 0 
-1.8041 0.258489 0 
-1.25696 0.339875 0 
-1.12863 0.678167 0 
-1.27453 0.239497 0 
-1.24117 0.439588 0 
-1.01101 0.925565 0 
0.75298 0.649928 0 
-1.33519 0.85946 0 
0.618835 -0.31795 0 
SCALARS mass double 1
LOOKUP_TABLE default
0.625
0.625
0.625
0.625
0.625
0.625
0.625
0.625
0.625
0.625
0.625
0.625
0.625
0.625
0.625
0.625
0.625
0.625
0.625
0.625
0.625
0.625
0.625
0.625
0.625
0.625
0.625
0.625
0.625
0.625
0.625
0.625
0.625
0.625
0.625
0.625
0.625
0.625
0.625
0.625
0.625
0.625
0.625
0.625
0.625
0.625
0.625
0.625
0.625
0.625
0.625
0.625
0.625
0.625
0.625
0.625
0.625
0.625
0.625
0.625
0.625
0.625
0.625
0.625
SCALARS volume double 1
LOOKUP_TABLE default
0.000619161
0.000622049
0.000554649
0.000607735
0.000599339
0.000644737
0.00056237
0.000575736
0.000651407
0.000677735
0.00061562
0.000598443
0.000678987
0.000613873
0.000623602
0.000657461
0.000546991
0.000671083
0.000495356
0.000645734
0.000605731
0.000605225
0.000547917
0.000547671
0.000635916
0.000605598
0.000570645
0.000586515
0.000619599
0.000585655
0.000579894
0.000515385
0.000467986
0.000612407
0.000455213
0.000605641
0.000534378
0.00055075
0.000520155
0.000537274
0.000562321
0.000540835
0.000541637
0.000493543
0.000556325
0.000460841
0.000507449
0.000463779
0.000456638
0.0006095
0.000491662
0.000572881
0.000527854
0.000544672
0.000470157
0.000495948
0.000538911
0.000492032
0.000485511
0.000476909
0.000488228
0.000423382
0.000481142
0.000341187
VECTORS momentum double
-0.765175 0.171097 0 
-0.360158 0.639483 0 
-1.00451 -0.0773148 0 
-0.642895 0.51001 0 
-0.804736 0.249664 0 
-0.793044 0.0515177 0 
-0.640584 0.402825 0 
-0.605232 0.402073 0 
-0.351208 0.206654 0 
-0.211737 0.419382 0 
-0.400651 0.563424 0 
-0.360599 0.555548 0 
-0.202367 0.725068 0 
0.0624449 0.364786 0 
-0.47785 0.422391 0 
0.0444254 -0.0150554 0 
-0.900686 -0.104202 0 
-0.660526 0.492972 0 
-0.841832 -0.235356 0 
-0.902466 0.268539 0 
-0.44941 0.490765 0 
-0.338548 0.56229 0 
-0.674133 0.297767 0 
-0.503364 0.425411 0 
-0.300005 0.73165 0 
-0.305589 0.767694 0 
-0.440394 0.626211 0 
-0.27641 0.801092 0 
-0.483387 0.592376 0 
0.667241 0.581633 0 
-0.0882688 1.08178 0 
0.680229 0.746825 0 
-0.663471 -0.238531 0 
-1.20966 0.233342 0 
-0.244303 -0.23429 0 
-1.19255 0.247992 0 
-1.13015 0.274037 0 
-0.843764 0.461697 0 
-1.37528 0.259802 0 
-1.05728 0.395921 0 
-0.647425 0.710574 0 
-0.459229 0.818263 0 
-0.746563 0.638663 0 
-0.598955 0.662595 0 
-0.171359 1.01924 0 
0.741496 0.899761 0 
-0.425998 0.68247 0 
0.655847 0.758457 0 
-0.172443 -0.283991 0 
-1.11154 0.0592002 0 
-0.215808 0.204378 0 
-1.5143 0.60021 0 
-1.30306 -0.0892796 0 
-1.0462 -0.0378529 0 
-1.59853 0.366855 0 
-1.12756 0.161556 0 
-0.785598 0.212422 0 
-0.705397 0.423854 0 
-0.796581 0.149685 0 
-0.77573 0.274742 0 
-0.631882 0.578478 0 
0.470612 0.406205 0 
-0.834494 0.537162 0 
0.386772 -0.198719 0 
VECTORS body_force double
0 -9.81 0 
0 -9.81 0 
0 -9.81 0 
0 -9.81 0 
0 -9.81 0 
0 -9.81 0 
0 -9.81 0 
0 -9.81 0 
0 -9.81 0 
0 -9.81 0 
0 -9.81 0 
0 -9.81 0 
0 -9.81 0 
0 -9.81 0 
0 -9.81 0 
0 -9.81 0 
0 -9.81 0 
0 -9.81 0 
0 -9.81 0 
0 -9.81 0 
0 -9.81 0 
0 -9.81 0 
0 -9.81 0 
0 -9.81 0 
0 -9.81 0 
0 -9.81 0 
0 -9.81 0 
0 -9.81 0 
0 -9.81 0 
0 -9.81 0 
0 -9.81 0 
0 -9.81 0 
0 -9.81 0 
0 -9.81 0 
0 -9.81 0 
0 -9.81 0 
0 -9.81 0 
0 -9.81 0 
0 -9.81 0 
0 -9.81 0 
0 -9.81 0 
0 -9.81 0 
0 -9.81 0 
0 -9.81 0 
0 -9.81 0 
0 -9.81 0 
0 -9.81 0 
0 -9.81 0 
0 -9.81 0 
0 -9.81 0 
0 -9.81 0 
0 -9.81 0 
0 -9.81 0 
0 -9.81 0 
0 -9.81 0 
0 -9.81 0 
0 -9.81 0 
0 -9.81 0 
0 -9.81 0 
0 -9.81 0 
0 -9.81 0 
0 -9.81 0 
0 -9.81 0 
0 -9.81 0 
TENSORS cauchy_stress double
1663.51 1531.67 0
1531.67 -3468.51 0
0 0 0

-1767.06 -2524.69 0
-2524.69 856.887 0
0 0 0

-7452.52 -2243.31 0
-2243.31 -15512.1 0
0 0 0

-5371.56 -5026.02 0
-5026.02 -15.6153 0
0 0 0

-2467.42 -279.419 0
-279.419 -5594.88 0
0 0 0

560.057 -182.821 0
-182.821 5418.89 0
0 0 0

-10639.5 -4673.14 0
-4673.14 -9666.59 0
0 0 0

-10736.9 -5250.68 0
-5250.68 -5052.04 0
0 0 0

513.253 573.02 0
573.02 7444.96 0
0 0 0

3373.08 5447.26 0
5447.26 12204.6 0
0 0 0

-6289.78 -4510.6 0
-4510.6 3381.87 0
0 0 0

-7894.89 869.08 0
869.08 -455.217 0
0 0 0

6325.59 5083.54 0
5083.54 9607.1 0
0 0 0

1546.57 1070.2 0
1070.2 -5001.23 0
0 0 0

-554.506 8684.63 0
8684.63 123.865 0
0 0 0

9151.66 4376.89 0
4376.89 585.624 0
0 0 0

-2485.09 -4275.79 0
-4275.79 -23153.1 0
0 0 0

6688.47 -4562.17 0
-4562.17 6992.63 0
0 0 0

-4368.88 -10892.9 0
-10892.9 -40337.7 0
0 0 0

3845.15 -11662.2 0
-11662.2 2430.9 0
0 0 0

501.644 -5549.38 0
-5549.38 -6523.76 0
0 0 0

-1092.06 -6762.04 0
-6762.04 -5090.98 0
0 0 0

-10348.7 -15810.9 0
-15810.9 -14964.5 0
0 0 0

-15000.8 -17294.5 0
-17294.5 -10398.5 0
0 0 0

694.898 -5995.71 0
-5995.71 2634.86 0
0 0 0

-2162.9 -8792.13 0
-8792.13 -3901.49 0
0 0 0

-12878.6 -12940.8 0
-12940.8 -4618.42 0
0 0 0

-8628.54 -14799.1 0
-14799.1 -3593.14 0
0 0 0

-1745.63 573.414 0
573.414 76.5759 0
0 0 0

-13458 2607.84 0
2607.84 954.091 0
0 0 0

-9031.65 -8505.63 0
-8505.63 -5373.29 0
0 0 0

-23324.3 -5268.43 0
-5268.43 -13759.8 0
0 0 0

-1209.63 -5593.3 0
-5593.3 -54427.6 0
0 0 0

6792.59 -8117.1 0
-8117.1 -10707 0
0 0 0

73.4411 -5812.69 0
-5812.69 -61032.3 0
0 0 0

11556.3 -11020.8 0
-11020.8 -17607.2 0
0 0 0

-6182.78 -8785.99 0
-8785.99 -23942 0
0 0 0

-7043.78 -10910.6 0
-10910.6 -17277.3 0
0 0 0

-3315.15 -9744.97 0
-9744.97 -31997.2 0
0 0 0

-4372.72 -12530.3 0
-12530.3 -24712.5 0
0 0 0

-7373.71 -5772.63 0
-5772.63 -12949.2 0
0 0 0

-9164.81 -6468.19 0
-6468.19 -18650.1 0
0 0 0

-7572.34 -10289.4 0
-10289.4 -19957.5 0
0 0 0

-17191.5 -9944.44 0
-9944.44 -28220.5 0
0 0 0

-9166.64 -5978.46 0
-5978.46 -13217.9 0
0 0 0

-22174 -5038.46 0
-5038.46 -36421.7 0
0 0 0

-18941.4 -9433.12 0
-9433.12 -21126.9 0
0 0 0

-23434.1 -3558.28 0
-3558.28 -33939.6 0
0 0 0

200.953 255.776 0
255.776 -60558.7 0
0 0 0

14972.4 -5220.45 0
-5220.45 -19801.7 0
0 0 0

2880.23 4086.9 0
4086.9 -49026.4 0
0 0 0

3307.11 -2343.56 0
-2343.56 -20051.9 0
0 0 0

2670.29 -1761.35 0
-1761.35 -35157.3 0
0 0 0

2385.89 -3351.74 0
-3351.74 -28841.2 0
0 0 0

-12349.5 5884.11 0
5884.11 -42397.7 0
0 0 0

-8686.38 4165.98 0
4165.98 -35790.8 0
0 0 0

-307.052 -2417.79 0
-2417.79 -28193 0
0 0 0

-9744.62 -192.321 0
-192.321 -36257 0
0 0 0

-9898.56 2227.14 0
2227.14 -38668.5 0
0 0 0

-12488.1 643.413 0
643.413 -39516.8 0
0 0 0

-14608.4 1915.57 0
1915.57 -32885.6 0
0 0 0

-22498.5 6096.85 0
6096.85 -52401 0
0 0 0

-15676.5 805.964 0
805.964 -34629.1 0
0 0 0

-35963.2 2052.97 0
2052.97 -80444.9 0
0 0 0

TENSORS velocity_gradient double
-5.29108 3.098 0
-1.99365 7.64057 0
0 0 0

-1.35741 1.97514 0
-0.712276 2.96047 0
0 0 0

-2.20485 4.7015 0
-2.12879 7.62091 0
0 0 0

-1.06474 5.03487 0
-0.680174 5.28483 0
0 0 0

2.05545 2.76752 0
1.13006 2.78503 0
0 0 0

1.11717 8.29907 0
2.52892 0.187555 0
0 0 0

1.67019 5.17531 0
1.92267 5.41849 0
0 0 0

2.90775 7.91796 0
4.8148 2.75926 0
0 0 0

-0.728312 8.05636 0
4.37288 0.941691 0
0 0 0

0.717682 6.87829 0
3.05588 3.87202 0
0 0 0

3.22419 7.93957 0
8.12665 2.98546 0
0 0 0

3.32874 6.7605 0
5.77248 -1.23352 0
0 0 0

2.91694 6.926 0
-2.14573 -0.720901 0
0 0 0

0.000836302 5.37053 0
-4.71423 -5.28373 0
0 0 0

3.28992 6.74375 0
-0.242834 -3.82717 0
0 0 0

6.79436 2.04401 0
0.509475 -7.71407 0
0 0 0

-1.84617 2.13365 0
-1.95389 6.3688 0
0 0 0

-1.55082 7.78193 0
-1.14278 7.89922 0
0 0 0

-1.10945 -3.56145 0
-0.447594 5.53696 0
0 0 0

-5.61473 7.53953 0
-0.28545 9.58193 0
0 0 0

1.16366 7.9035 0
1.4406 8.01491 0
0 0 0

2.8462 8.21121 0
4.17059 5.82847 0
0 0 0

-5.89871 9.00977 0
1.16653 10.1336 0
0 0 0

-5.36086 10.1557 0
2.53499 8.8872 0
0 0 0

3.14635 8.23123 0
7.31198 6.03793 0
0 0 0

3.9339 7.04378 0
7.29103 -6.3572 0
0 0 0

-1.22522 11.8383 0
3.24197 7.42547 0
0 0 0

3.49597 12.6629 0
3.8517 6.88292 0
0 0 0

12.0499 8.32562 0
9.13925 -6.48737 0
0 0 0

18.7587 5.19821 0
12.9876 -9.69516 0
0 0 0

9.44338 14.5669 0
7.37897 -2.21667 0
0 0 0

15.347 17.5216 0
11.6306 -0.0887827 0
0 0 0

0.143785 -11.8657 0
-0.472709 5.13249 0
0 0 0

-4.70089 -3.56016 0
-0.455254 7.73235 0
0 0 0

2.02127 -17.5289 0
-1.59268 3.60732 0
0 0 0

-0.702894 -12.9432 0
-2.66121 4.89691 0
0 0 0

-5.87221 8.92547 0
0.631527 11.8357 0
0 0 0

-5.94152 8.92903 0
2.03081 11.7638 0
0 0 0

-2.77725 7.30988 0
-4.51723 10.5059 0
0 0 0

-4.48424 7.4707 0
-6.64106 10.706 0
0 0 0

-3.40841 16.7828 0
2.99053 7.99493 0
0 0 0

0.892113 17.6565 0
3.15782 8.08394 0
0 0 0

-5.25628 19.097 0
-8.65936 7.60818 0
0 0 0

-3.44358 20.7456 0
-9.96765 7.04821 0
0 0 0

3.00675 20.349 0
-2.01096 3.59398 0
0 0 0

0.572288 22.1807 0
-9.95264 3.44558 0
0 0 0

-1.48955 21.1977 0
-11.2342 6.72342 0
0 0 0

-0.0292362 23.5957 0
-10.6439 5.07165 0
0 0 0

0.671717 -21.531 0
4.89607 3.50973 0
0 0 0

-0.141053 -18.4267 0
3.23853 3.35603 0
0 0 0

0.617594 -22.3965 0
5.2398 9.00626 0
0 0 0

0.198897 -14.1724 0
7.65362 5.49399 0
0 0 0

-1.9805 4.90649 0
-1.98544 7.19426 0
0 0 0

-4.15566 5.00582 0
-6.18172 7.61227 0
0 0 0

0.244661 4.77232 0
5.5577 1.63424 0
0 0 0

0.46028 4.73587 0
1.87062 2.25743 0
0 0 0

-5.27741 15.5667 0
-8.31282 6.44174 0
0 0 0

-3.91884 23.2571 0
-9.65391 5.39026 0
0 0 0

0.360512 15.423 0
-1.81445 2.06653 0
0 0 0

-0.746017 22.4285 0
-4.81494 1.74087 0
0 0 0

-2.05693 23.3102 0
-10.4125 5.13861 0
0 0 0

-2.19261 24.5831 0
-10.5097 6.34709 0
0 0 0

-2.12773 22.3746 0
-7.82962 1.62341 0
0 0 0

-3.33345 23.1711 0
-9.86482 5.13748 0
0 0 0

SCALARS active double 1
LOOKUP_TABLE default
1
1
1
1
1
1
1
1
1
1
1
1
1
1
1
1
1
1
1
1
1
1
1
1
1
1
1
1
1
1
1
1
1
1
1
1
1
1
1
1
1
1
1
1
1
1
1
1
1
1
1
1
1
1
1
1
1
1
1
1
1
1
1
1
SCALARS extent double 1
LOOKUP_TABLE default
0.0125
0.0125
0.0125
0.0125
0.0125
0.0125
0.0125
0.0125
0.0125
0.0125
0.0125
0.0125
0.0125
0.0125
0.0125
0.0125
0.0125
0.0125
0.0125
0.0125
0.0125
0.0125
0.0125
0.0125
0.0125
0.0125
0.0125
0.0125
0.0125
0.0125
0.0125
0.0125
0.0125
0.0125
0.0125
0.0125
0.0125
0.0125
0.0125
0.0125
0.0125
0.0125
0.0125
0.0125
0.0125
0.0125
0.0125
0.0125
0.0125
0.0125
0.0125
0.0125
0.0125
0.0125
0.0125
0.0125
0.0125
0.0125
0.0125
0.0125
0.0125
0.0125
0.0125
0.0125
SCALARS pressure double 1
LOOKUP_TABLE default
902.502
455.085
11482.3
2693.59
4031.15
-2989.47
10153
7894.45
-3979.11
-7788.86
1453.96
4175.05
-7966.34
1727.33
215.321
-4868.64
12819.1
-6840.55
22353.3
-3138.03
3011.06
3091.52
12656.6
12699.6
-1664.88
3032.19
8748.52
6110.84
834.528
6251.96
7202.47
18542
27818.6
1957.23
30479.4
3025.42
15062.4
12160.6
17656.2
14542.6
10161.5
13907.4
13764.9
22706
11192.3
29297.9
20034.1
28686.9
30178.9
2414.66
23073.1
8372.39
16243.5
13227.7
27373.6
22238.6
14250
23000.8
24283.5
26002.5
23747
37449.8
25152.8
58204
SCALARS density double 1
LOOKUP_TABLE default
1009.43
1004.74
1126.84
1028.41
1042.82
969.388
1111.37
1085.57
959.462
922.19
1015.24
1044.38
920.489
1018.13
1002.24
950.627
1142.61
931.33
1261.72
967.891
1031.81
1032.67
1140.68
1141.2
982.834
1032.04
1095.25
1065.62
1008.72
1067.18
1077.78
1212.69
1335.51
1020.56
1372.98
1031.96
1169.58
1134.82
1201.56
1163.28
1111.47
1155.62
1153.91
1266.35
1123.44
1356.22
1231.65
1347.62
1368.7
1025.43
1271.2
1090.98
1184.04
1147.48
1329.34
1260.21
1159.75
1270.24
1287.3
1310.52
1280.14
1476.21
1298.99
1831.84
