# vtk DataFile Version 3.0
Frame: 6, Time: 0.117
ASCII
DATASET UNSTRUCTURED_GRID
POINTS 64 double
0.4125 0.343624 0 
0.4125 0.368624 0 
0.4375 0.343624 0 
0.4375 0.368624 0 
0.4125 0.393624 0 
0.4125 0.418624 0 
0.4375 0.393624 0 
0.4375 0.418624 0 
0.4125 0.443624 0 
0.4125 0.468624 0 
0.4375 0.443624 0 
0.4375 0.468624 0 
0.4125 0.493624 0 
0.4125 0.518624 0 
0.4375 0.493624 0 
0.4375 0.518624 0 
0.4625 0.343624 0 
0.4625 0.368624 0 
0.4875 0.343624 0 
0.4875 0.368624 0 
0.4625 0.393624 0 
0.4625 0.418624 0 
0.4875 0.393624 0 
0.4875 0.418624 0 
0.4625 0.443624 0 
0.4625 0.468624 0 
0.4875 0.443624 0 
0.4875 0.468624 0 
0.4625 0.493624 0 
0.4625 0.518624 0 
0.4875 0.493624 0 
0.4875 0.518624 0 
0.5125 0.343624 0 
0.5125 0.368624 0 
0.5375 0.343624 0 
0.5375 0.368624 0 
0.5125 0.393624 0 
0.5125 0.418624 0 
0.5375 0.393624 0 
0.5375 0.418624 0 
0.5125 0.443624 0 
0.5125 0.468624 0 
0.5375 0.443624 0 
0.5375 0.468624 0 
0.5125 0.493624 0 
0.5125 0.518624 0 
0.5375 0.493624 0 
0.5375 0.518624 0 
0.5625 0.343624 0 
0.5625 0.368624 0 
0.5875 0.343624 0 
0.5875 0.368624 0 
0.5625 0.393624 0 
0.5625 0.418624 0 
0.5875 0.393624 0 
0.5875 0.418624 0 
0.5625 0.443624 0 
0.5625 0.468624 0 
0.5875 0.443624 0 
0.5875 0.468624 0 
0.5625 0.493624 0 
0.5625 0.518624 0 
0.5875 0.493624 0 
0.5875 0.518624 0 
CELLS 64 128
1 0
1 1
1 2
1 3
1 4
1 5
1 6
1 7
1 8
1 9
1 10
1 11
1 12
1 13
1 14
1 15
1 16
1 17
1 18
1 19
1 20
1 21
1 22
1 23
1 24
1 25
1 26
1 27
1 28
1 29
1 30
1 31
1 32
1 33
1 34
1 35
1 36
1 37
1 38
1 39
1 40
1 41
1 42
1 43
1 44
1 45
1 46
1 47
1 48
1 49
1 50
1 51
1 52
1 53
1 54
1 55
1 56
1 57
1 58
1 59
1 60
1 61
1 62
1 63
CELL_TYPES 64
1
1
1
1
1
1
1
1
1
1
1
1
1
1
1
1
1
1
1
1
1
1
1
1
1
1
1
1
1
1
1
1
1
1
1
1
1
1
1
1
1
1
1
1
1
1
1
1
1
1
1
1
1
1
1
1
1
1
1
1
1
1
1
1
POINT_DATA 64
VECTORS displacement double
-4.04073e-17 -0.068876 0 
-3.18084e-17 -0.068876 0 
-3.49215e-17 -0.068876 0 
-3.214e-17 -0.068876 0 
-3.37557e-17 -0.068876 0 
-4.02579e-17 -0.068876 0 
-3.23916e-17 -0.068876 0 
-3.51708e-17 -0.068876 0 
-3.81485e-17 -0.068876 0 
-3.16356e-17 -0.068876 0 
-3.51775e-17 -0.068876 0 
-3.23185e-17 -0.068876 0 
-2.99147e-17 -0.068876 0 
-3.31437e-17 -0.068876 0 
-3.19779e-17 -0.068876 0 
-3.35783e-17 -0.068876 0 
-2.99881e-17 -0.068876 0 
-3.05587e-17 -0.068876 0 
-2.56071e-17 -0.068876 0 
-2.70644e-17 -0.068876 0 
-2.98783e-17 -0.068876 0 
-3.02258e-17 -0.068876 0 
-2.62157e-17 -0.068876 0 
-2.5423e-17 -0.068876 0 
-3.13606e-17 -0.068876 0 
-3.04398e-17 -0.068876 0 
-2.66979e-17 -0.068876 0 
-2.59996e-17 -0.068876 0 
-3.09079e-17 -0.068876 0 
-3.10305e-17 -0.068876 0 
-2.67047e-17 -0.068876 0 
-2.55004e-17 -0.068876 0 
-2.15549e-17 -0.068876 0 
-2.34541e-17 -0.068876 0 
-1.78316e-17 -0.068876 0 
-1.97278e-17 -0.068876 0 
-2.28815e-17 -0.068876 0 
-2.15002e-17 -0.068876 0 
-1.98755e-17 -0.068876 0 
-1.84576e-17 -0.068876 0 
-2.24485e-17 -0.068876 0 
-2.20077e-17 -0.068876 0 
-1.86125e-17 -0.068876 0 
-1.84641e-17 -0.068876 0 
-2.30667e-17 -0.068876 0 
-2.08877e-17 -0.068876 0 
-1.99939e-17 -0.068876 0 
-1.71925e-17 -0.068876 0 
-1.34804e-17 -0.068876 0 
-1.7684e-17 -0.068876 0 
-8.50129e-18 -0.068876 0 
-1.73225e-17 -0.068876 0 
-1.75638e-17 -0.068876 0 
-1.54085e-17 -0.068876 0 
-1.59466e-17 -0.068876 0 
-1.23529e-17 -0.068876 0 
-1.58919e-17 -0.068876 0 
-1.71448e-17 -0.068876 0 
-1.42868e-17 -0.068876 0 
-1.80498e-17 -0.068876 0 
-1.93259e-17 -0.068876 0 
-1.64433e-17 -0.068876 0 
-2.10627e-17 -0.068876 0 
-1.86403e-17 -0.068876 0 
VECTORS velocity double
-3.88207e-15 -1.15758 0 
7.0042e-16 -1.15758 0 
-2.37507e-15 -1.15758 0 
-9.41798e-16 -1.15758 0 
4.65585e-16 -1.15758 0 
-3.95219e-16 -1.15758 0 
-4.94355e-16 -1.15758 0 
-4.95362e-16 -1.15758 0 
8.70733e-16 -1.15758 0 
1.91508e-15 -1.15758 0 
-2.41873e-17 -1.15758 0 
4.1909e-16 -1.15758 0 
2.0732e-15 -1.15758 0 
-4.7855e-16 -1.15758 0 
3.30248e-16 -1.15758 0 
-6.36223e-16 -1.15758 0 
-1.27852e-15 -1.15758 0 
-1.47717e-15 -1.15758 0 
-5.92424e-16 -1.15758 0 
-9.05703e-16 -1.15758 0 
-8.11194e-16 -1.15758 0 
-5.30425e-16 -1.15758 0 
-4.84932e-16 -1.15758 0 
-5.00408e-16 -1.15758 0 
-4.61076e-16 -1.15758 0 
-3.42343e-16 -1.15758 0 
-4.39933e-16 -1.15758 0 
-3.69222e-16 -1.15758 0 
-6.07093e-16 -1.15758 0 
-6.1873e-16 -1.15758 0 
-7.38823e-16 -1.15758 0 
-4.2607e-16 -1.15758 0 
1.05673e-16 -1.15758 0 
-1.28384e-16 -1.15758 0 
8.15764e-16 -1.15758 0 
8.54783e-16 -1.15758 0 
-1.48305e-16 -1.15758 0 
-4.30558e-16 -1.15758 0 
1.98686e-16 -1.15758 0 
-3.20875e-16 -1.15758 0 
-4.27736e-16 -1.15758 0 
-5.39718e-16 -1.15758 0 
-4.24483e-16 -1.15758 0 
-8.53832e-16 -1.15758 0 
-8.58093e-16 -1.15758 0 
-2.94439e-16 -1.15758 0 
-9.64902e-16 -1.15758 0 
-2.23838e-16 -1.15758 0 
1.74029e-15 -1.15758 0 
6.61834e-16 -1.15758 0 
2.87926e-15 -1.15758 0 
-7.07231e-16 -1.15758 0 
7.105e-17 -1.15758 0 
-3.18085e-16 -1.15758 0 
-5.31214e-16 -1.15758 0 
-4.22185e-16 -1.15758 0 
-9.94808e-16 -1.15758 0 
-1.80117e-15 -1.15758 0 
-2.13871e-15 -1.15758 0 
-3.38175e-15 -1.15758 0 
-1.56885e-15 -1.15758 0 
-3.58521e-16 -1.15758 0 
-2.66994e-15 -1.15758 0 
-6.98489e-16 -1.15758 0 
SCALARS mass double 1
LOOKUP_TABLE default
0.625
0.625
0.625
0.625
0.625
0.625
0.625
0.625
0.625
0.625
0.625
0.625
0.625
0.625
0.625
0.625
0.625
0.625
0.625
0.625
0.625
0.625
0.625
0.625
0.625
0.625
0.625
0.625
0.625
0.625
0.625
0.625
0.625
0.625
0.625
0.625
0.625
0.625
0.625
0.625
0.625
0.625
0.625
0.625
0.625
0.625
0.625
0.625
0.625
0.625
0.625
0.625
0.625
0.625
0.625
0.625
0.625
0.625
0.625
0.625
0.625
0.625
0.625
0.625
SCALARS volume double 1
LOOKUP_TABLE default
0.000625
0.000625
0.000625
0.000625
0.000625
0.000625
0.000625
0.000625
0.000625
0.000625
0.000625
0.000625
0.000625
0.000625
0.000625
0.000625
0.000625
0.000625
0.000625
0.000625
0.000625
0.000625
0.000625
0.000625
0.000625
0.000625
0.000625
0.000625
0.000625
0.000625
0.000625
0.000625
0.000625
0.000625
0.000625
0.000625
0.000625
0.000625
0.000625
0.000625
0.000625
0.000625
0.000625
0.000625
0.000625
0.000625
0.000625
0.000625
0.000625
0.000625
0.000625
0.000625
0.000625
0.000625
0.000625
0.000625
0.000625
0.000625
0.000625
0.000625
0.000625
0.000625
0.000625
0.000625
VECTORS momentum double
-2.42629e-15 -0.723487 0 
4.37762e-16 -0.723488 0 
-1.48442e-15 -0.723488 0 
-5.88624e-16 -0.723488 0 
2.9099e-16 -0.723488 0 
-2.47012e-16 -0.723487 0 
-3.08972e-16 -0.723488 0 
-3.09601e-16 -0.723487 0 
5.44208e-16 -0.723487 0 
1.19692e-15 -0.723487 0 
-1.51171e-17 -0.723487 0 
2.61931e-16 -0.723487 0 
1.29575e-15 -0.723488 0 
-2.99094e-16 -0.723488 0 
2.06405e-16 -0.723488 0 
-3.97639e-16 -0.723488 0 
-7.99078e-16 -0.723488 0 
-9.23232e-16 -0.723488 0 
-3.70265e-16 -0.723487 0 
-5.66064e-16 -0.723488 0 
-5.06996e-16 -0.723488 0 
-3.31516e-16 -0.723487 0 
-3.03083e-16 -0.723488 0 
-3.12755e-16 -0.723487 0 
-2.88173e-16 -0.723487 0 
-2.13964e-16 -0.723488 0 
-2.74958e-16 -0.723487 0 
-2.30764e-16 -0.723488 0 
-3.79433e-16 -0.723488 0 
-3.86706e-16 -0.723488 0 
-4.61764e-16 -0.723488 0 
-2.66294e-16 -0.723488 0 
6.60453e-17 -0.723487 0 
-8.02403e-17 -0.723488 0 
5.09853e-16 -0.723488 0 
5.3424e-16 -0.723488 0 
-9.26909e-17 -0.723488 0 
-2.69099e-16 -0.723488 0 
1.24179e-16 -0.723488 0 
-2.00547e-16 -0.723488 0 
-2.67335e-16 -0.723487 0 
-3.37324e-16 -0.723487 0 
-2.65302e-16 -0.723487 0 
-5.33645e-16 -0.723488 0 
-5.36308e-16 -0.723488 0 
-1.84025e-16 -0.723488 0 
-6.03064e-16 -0.723488 0 
-1.39899e-16 -0.723488 0 
1.08768e-15 -0.723488 0 
4.13647e-16 -0.723488 0 
1.79954e-15 -0.723488 0 
-4.42019e-16 -0.723488 0 
4.44063e-17 -0.723488 0 
-1.98803e-16 -0.723488 0 
-3.32009e-16 -0.723488 0 
-2.63866e-16 -0.723487 0 
-6.21755e-16 -0.723487 0 
-1.12573e-15 -0.723488 0 
-1.33669e-15 -0.723487 0 
-2.11359e-15 -0.723487 0 
-9.80532e-16 -0.723488 0 
-2.24076e-16 -0.723488 0 
-1.66871e-15 -0.723488 0 
-4.36556e-16 -0.723488 0 
VECTORS body_force double
0 -9.81 0 
0 -9.81 0 
0 -9.81 0 
0 -9.81 0 
0 -9.81 0 
0 -9.81 0 
0 -9.81 0 
0 -9.81 0 
0 -9.81 0 
0 -9.81 0 
0 -9.81 0 
0 -9.81 0 
0 -9.81 0 
0 -9.81 0 
0 -9.81 0 
0 -9.81 0 
0 -9.81 0 
0 -9.81 0 
0 -9.81 0 
0 -9.81 0 
0 -9.81 0 
0 -9.81 0 
0 -9.81 0 
0 -9.81 0 
0 -9.81 0 
0 -9.81 0 
0 -9.81 0 
0 -9.81 0 
0 -9.81 0 
0 -9.81 0 
0 -9.81 0 
0 -9.81 0 
0 -9.81 0 
0 -9.81 0 
0 -9.81 0 
0 -9.81 0 
0 -9.81 0 
0 -9.81 0 
0 -9.81 0 
0 -9.81 0 
0 -9.81 0 
0 -9.81 0 
0 -9.81 0 
0 -9.81 0 
0 -9.81 0 
0 -9.81 0 
0 -9.81 0 
0 -9.81 0 
0 -9.81 0 
0 -9.81 0 
0 -9.81 0 
0 -9.81 0 
0 -9.81 0 
0 -9.81 0 
0 -9.81 0 
0 -9.81 0 
0 -9.81 0 
0 -9.81 0 
0 -9.81 0 
0 -9.81 0 
0 -9.81 0 
0 -9.81 0 
0 -9.81 0 
0 -9.81 0 
TENSORS cauchy_stress double
1.49182e-11 1.06456e-11 0
1.06456e-11 -2.14551e-11 0
0 0 0

-1.18977e-11 1.57124e-11 0
1.57124e-11 -2.43602e-11 0
0 0 0

2.35091e-11 4.67157e-13 0
4.67157e-13 -1.40968e-12 0
0 0 0

-5.12911e-12 4.46923e-12 0
4.46923e-12 -8.56672e-12 0
0 0 0

1.95624e-11 -1.06432e-11 0
-1.06432e-11 3.16551e-11 0
0 0 0

2.44152e-11 -1.59747e-12 0
-1.59747e-12 4.7936e-12 0
0 0 0

2.57982e-11 -8.00843e-13 0
-8.00843e-13 4.62053e-11 0
0 0 0

2.70846e-11 1.6004e-12 0
1.6004e-12 1.10221e-11 0
0 0 0

2.63343e-11 1.94312e-11 0
1.94312e-11 3.09751e-11 0
0 0 0

-1.05851e-11 6.71945e-12 0
6.71945e-12 -1.76945e-11 0
0 0 0

8.90314e-12 6.00709e-12 0
6.00709e-12 -9.69768e-12 0
0 0 0

-1.09759e-11 9.70555e-12 0
9.70555e-12 -1.86061e-11 0
0 0 0

2.62503e-11 3.34108e-13 0
3.34108e-13 8.24119e-11 0
0 0 0

-2.14803e-11 -5.06867e-12 0
-5.06867e-12 -4.56633e-11 0
0 0 0

2.5595e-11 -1.33193e-12 0
-1.33193e-12 8.08828e-11 0
0 0 0

-1.74563e-11 -1.38298e-12 0
-1.38298e-12 -3.62739e-11 0
0 0 0

1.53127e-11 4.80419e-12 0
4.80419e-12 -9.20395e-12 0
0 0 0

1.72653e-11 5.11676e-12 0
5.11676e-12 4.44695e-12 0
0 0 0

1.59432e-11 5.78881e-12 0
5.78881e-12 -7.73277e-12 0
0 0 0

1.9206e-11 -9.08144e-13 0
-9.08144e-13 8.97537e-12 0
0 0 0

3.49876e-11 -1.09844e-12 0
-1.09844e-12 4.40732e-11 0
0 0 0

2.05645e-11 5.31922e-12 0
5.31922e-12 -1.27626e-12 0
0 0 0

3.18215e-11 3.43872e-12 0
3.43872e-12 3.66856e-11 0
0 0 0

2.27166e-11 4.25232e-12 0
4.25232e-12 3.74536e-12 0
0 0 0

2.57044e-11 6.59892e-12 0
6.59892e-12 1.21539e-11 0
0 0 0

1.93854e-11 4.3981e-12 0
4.3981e-12 -3.08404e-13 0
0 0 0

2.69494e-11 6.14478e-12 0
6.14478e-12 1.50589e-11 0
0 0 0

1.65976e-11 6.2516e-12 0
6.2516e-12 -6.81335e-12 0
0 0 0

4.77235e-11 -1.19816e-12 0
-1.19816e-12 6.82451e-11 0
0 0 0

6.24354e-12 -6.78751e-12 0
-6.78751e-12 -4.2151e-11 0
0 0 0

4.37039e-11 1.6727e-12 0
1.6727e-12 5.8866e-11 0
0 0 0

5.40606e-12 2.98745e-13 0
2.98745e-13 -4.41051e-11 0
0 0 0

1.83618e-11 -7.40114e-12 0
-7.40114e-12 4.6561e-12 0
0 0 0

1.14128e-11 -4.66586e-12 0
-4.66586e-12 -1.15883e-11 0
0 0 0

1.65804e-11 -5.29006e-12 0
-5.29006e-12 4.99433e-13 0
0 0 0

1.71886e-11 -5.61728e-12 0
-5.61728e-12 1.88863e-12 0
0 0 0

3.79988e-11 3.84461e-12 0
3.84461e-12 5.78332e-11 0
0 0 0

4.56903e-12 -5.91435e-12 0
-5.91435e-12 -2.05452e-11 0
0 0 0

4.24024e-11 5.84943e-12 0
5.84943e-12 6.81081e-11 0
0 0 0

1.20438e-11 -7.36169e-12 0
-7.36169e-12 -3.10403e-12 0
0 0 0

2.44203e-11 -6.55084e-12 0
-6.55084e-12 1.76373e-11 0
0 0 0

9.29059e-12 -7.70335e-13 0
-7.70335e-13 -1.46664e-11 0
0 0 0

2.89467e-11 -2.73238e-12 0
-2.73238e-12 2.8199e-11 0
0 0 0

1.13562e-11 -1.14485e-12 0
-1.14485e-12 -9.84654e-12 0
0 0 0

4.38973e-11 -1.94332e-12 0
-1.94332e-12 7.09113e-11 0
0 0 0

-1.41601e-11 1.23953e-11 0
1.23953e-11 -7.09404e-11 0
0 0 0

4.99982e-11 8.8546e-13 0
8.8546e-13 8.51467e-11 0
0 0 0

4.03527e-12 1.27335e-11 0
1.27335e-11 -2.84845e-11 0
0 0 0

2.30482e-11 -4.09216e-12 0
-4.09216e-12 2.71166e-12 0
0 0 0

-1.73027e-12 -1.43527e-11 0
-1.43527e-11 -7.74449e-12 0
0 0 0

1.34421e-11 -8.89791e-12 0
-8.89791e-12 -1.97026e-11 0
0 0 0

-6.29712e-12 -1.3667e-11 0
-1.3667e-11 -1.84005e-11 0
0 0 0

2.92592e-11 2.04142e-12 0
2.04142e-12 5.16842e-11 0
0 0 0

1.31291e-11 -4.81965e-12 0
-4.81965e-12 -7.05167e-13 0
0 0 0

1.90078e-11 8.02348e-12 0
8.02348e-12 2.77642e-11 0
0 0 0

9.58708e-12 -3.89911e-12 0
-3.89911e-12 -8.96992e-12 0
0 0 0

1.16131e-11 -8.17262e-12 0
-8.17262e-12 1.06342e-11 0
0 0 0

-1.38611e-11 -9.61341e-12 0
-9.61341e-12 -2.30605e-11 0
0 0 0

1.87072e-11 -9.81845e-12 0
-9.81845e-12 2.7187e-11 0
0 0 0

-5.17738e-12 -8.67185e-12 0
-8.67185e-12 -2.79839e-12 0
0 0 0

1.86044e-11 -2.9285e-12 0
-2.9285e-12 6.12236e-11 0
0 0 0

-3.05154e-11 -7.15828e-12 0
-7.15828e-12 -4.86692e-11 0
0 0 0

2.14639e-11 -4.61416e-12 0
-4.61416e-12 6.78958e-11 0
0 0 0

-3.51031e-11 -4.35071e-12 0
-4.35071e-12 -5.93738e-11 0
0 0 0

TENSORS velocity_gradient double
7.09429e-15 6.2415e-15 0
2.33147e-14 9.10383e-15 0
0 0 0

-3.08481e-15 3.79282e-14 0
1.24345e-14 -8.88178e-15 0
0 0 0

7.09429e-15 5.41444e-15 0
1.9762e-14 -8.65974e-15 0
0 0 0

-3.08481e-15 2.46318e-14 0
1.06581e-14 -1.77636e-14 0
0 0 0

-1.61078e-14 3.56191e-14 0
6.77236e-15 -7.43849e-15 0
0 0 0

-1.91887e-14 9.94822e-15 0
0 9.9476e-14 0
0 0 0

-1.61078e-14 2.34167e-14 0
8.10463e-15 -6.10623e-15 0
0 0 0

-1.91887e-14 9.90782e-15 0
-3.55271e-15 1.10134e-13 0
0 0 0

-1.92114e-14 9.2086e-15 0
2.05391e-15 7.31082e-14 0
0 0 0

-1.85933e-14 9.85861e-16 0
-5.32907e-15 -1.19016e-13 0
0 0 0

-1.92114e-14 9.23872e-15 0
-5.55112e-15 7.26086e-14 0
0 0 0

-1.85933e-14 1.80004e-15 0
-7.10543e-15 -1.27898e-13 0
0 0 0

-1.74274e-14 -1.67814e-15 0
-1.40998e-14 -1.40998e-14 0
0 0 0

-3.47761e-15 -3.1295e-14 0
-2.30926e-14 -2.30926e-14 0
0 0 0

-1.74274e-14 5.4272e-16 0
-1.83187e-14 -2.54241e-14 0
0 0 0

-3.47761e-15 -1.34355e-14 0
-3.19744e-14 -2.4869e-14 0
0 0 0

2.368e-14 3.7439e-15 0
8.88178e-15 -2.66454e-14 0
0 0 0

1.57537e-14 1.31183e-14 0
3.55271e-15 -3.90799e-14 0
0 0 0

2.368e-14 1.22987e-15 0
5.21805e-15 -2.32037e-14 0
0 0 0

1.57537e-14 3.38782e-15 0
-1.06581e-14 -3.19744e-14 0
0 0 0

6.10412e-15 1.26121e-14 0
-3.13638e-14 -2.94209e-15 0
0 0 0

-6.03143e-16 6.9839e-15 0
-1.06581e-14 1.03029e-13 0
0 0 0

6.10412e-15 3.20533e-15 0
7.43849e-15 -6.77236e-15 0
0 0 0

-6.03143e-16 1.17646e-15 0
-2.84217e-14 1.13687e-13 0
0 0 0

-6.34164e-15 6.48795e-15 0
-1.34337e-14 7.89369e-14 0
0 0 0

-9.57385e-15 9.74271e-16 0
-1.59872e-14 -1.29674e-13 0
0 0 0

-6.34164e-15 9.56285e-16 0
-7.10543e-15 8.52651e-14 0
0 0 0

-9.57385e-15 -1.49145e-15 0
-1.77636e-14 -1.45661e-13 0
0 0 0

-1.18773e-14 7.44773e-16 0
-4.09117e-14 -1.95954e-14 0
0 0 0

-8.28287e-15 -1.80667e-15 0
-4.08562e-14 -5.32907e-15 0
0 0 0

-1.18773e-14 -1.07198e-15 0
-4.94049e-14 -4.22995e-14 0
0 0 0

-8.28287e-15 3.59153e-15 0
-6.39488e-14 -4.9738e-14 0
0 0 0

2.59992e-14 7.80693e-16 0
-7.82707e-15 -1.49325e-14 0
0 0 0

1.90478e-14 -6.38091e-15 0
1.95399e-14 -1.77636e-15 0
0 0 0

2.59992e-14 2.39637e-15 0
1.66533e-15 1.66533e-15 0
0 0 0

1.90478e-14 -1.61879e-14 0
0 -2.84217e-14 0
0 0 0

9.27526e-15 -6.33273e-15 0
6.99441e-15 -1.43219e-14 0
0 0 0

7.53246e-16 -5.79704e-15 0
-1.42109e-14 8.52651e-14 0
0 0 0

9.27526e-15 -1.60021e-14 0
1.85407e-14 -9.88098e-15 0
0 0 0

7.53246e-16 -1.39366e-14 0
-3.55271e-15 6.03961e-14 0
0 0 0

-7.25169e-15 -5.61009e-15 0
-6.05072e-15 6.50036e-14 0
0 0 0

-1.03629e-14 -3.53164e-15 0
-2.13163e-14 -1.49214e-13 0
0 0 0

-7.25169e-15 -1.32112e-14 0
-1.45439e-14 5.65104e-14 0
0 0 0

-1.03629e-14 -5.1463e-15 0
0 -1.35003e-13 0
0 0 0

-1.19015e-14 -2.63541e-15 0
5.55112e-15 -2.28706e-14 0
0 0 0

-1.06722e-14 7.32846e-15 0
1.95399e-14 -5.15143e-14 0
0 0 0

-1.19015e-14 -3.94551e-15 0
3.21965e-15 -1.80966e-14 0
0 0 0

-1.06722e-14 9.40412e-15 0
2.13163e-14 -2.13163e-14 0
0 0 0

5.48047e-15 2.05872e-15 0
-1.31006e-14 1.11022e-15 0
0 0 0

-1.62321e-15 -2.54453e-14 0
-1.59872e-14 -8.88178e-15 0
0 0 0

5.48047e-15 -2.32265e-16 0
-9.21485e-15 3.34177e-14 0
0 0 0

-1.62321e-15 -3.41533e-14 0
3.55271e-15 -1.77636e-14 0
0 0 0

-1.02493e-14 -2.50272e-14 0
-1.27121e-14 -5.60663e-15 0
0 0 0

-1.59024e-14 -2.03783e-14 0
3.55271e-15 7.4607e-14 0
0 0 0

-1.02493e-14 -3.3408e-14 0
-1.03251e-14 1.80966e-14 0
0 0 0

-1.59024e-14 -2.51221e-14 0
0 9.9476e-14 0
0 0 0

-2.04316e-14 -1.89543e-14 0
3.00315e-14 7.26641e-14 0
0 0 0

-1.71565e-14 -3.12272e-15 0
2.30926e-14 -1.33227e-13 0
0 0 0

-2.04316e-14 -2.28394e-14 0
2.88658e-14 8.57092e-14 0
0 0 0

-1.71565e-14 2.53908e-15 0
2.84217e-14 -1.56319e-13 0
0 0 0

-1.13594e-14 -1.49919e-15 0
3.10307e-14 -2.58127e-14 0
0 0 0

-6.46211e-16 1.65503e-14 0
-5.32907e-15 -5.32907e-15 0
0 0 0

-1.13594e-14 4.70356e-15 0
2.30926e-14 1.77636e-15 0
0 0 0

-6.46211e-16 2.8767e-14 0
-7.10543e-15 -4.9738e-14 0
0 0 0

SCALARS active double 1
LOOKUP_TABLE default
1
1
1
1
1
1
1
1
1
1
1
1
1
1
1
1
1
1
1
1
1
1
1
1
1
1
1
1
1
1
1
1
1
1
1
1
1
1
1
1
1
1
1
1
1
1
1
1
1
1
1
1
1
1
1
1
1
1
1
1
1
1
1
1
SCALARS extent double 1
LOOKUP_TABLE default
0.0125
0.0125
0.0125
0.0125
0.0125
0.0125
0.0125
0.0125
0.0125
0.0125
0.0125
0.0125
0.0125
0.0125
0.0125
0.0125
0.0125
0.0125
0.0125
0.0125
0.0125
0.0125
0.0125
0.0125
0.0125
0.0125
0.0125
0.0125
0.0125
0.0125
0.0125
0.0125
0.0125
0.0125
0.0125
0.0125
0.0125
0.0125
0.0125
0.0125
0.0125
0.0125
0.0125
0.0125
0.0125
0.0125
0.0125
0.0125
0.0125
0.0125
0.0125
0.0125
0.0125
0.0125
0.0125
0.0125
0.0125
0.0125
0.0125
0.0125
0.0125
0.0125
0.0125
0.0125
SCALARS pressure double 1
LOOKUP_TABLE default
3.26843e-12
1.8129e-11
-1.10497e-11
6.84792e-12
-2.56088e-11
-1.46044e-11
-3.60017e-11
-1.90533e-11
-2.86547e-11
1.41398e-11
3.9727e-13
1.4791e-11
-5.43311e-11
3.35718e-11
-5.32389e-11
2.68651e-11
-3.05439e-12
-1.08561e-11
-4.10523e-12
-1.40907e-11
-3.95304e-11
-9.64411e-12
-3.42535e-11
-1.3231e-11
-1.89291e-11
-9.53849e-12
-2.10041e-11
-4.8921e-12
-5.79843e-11
1.79537e-11
-5.1285e-11
1.93495e-11
-1.15089e-11
8.77603e-14
-8.5399e-12
-9.53862e-12
-4.7916e-11
7.98809e-12
-5.52552e-11
-4.46989e-12
-2.10288e-11
2.6879e-12
-2.85729e-11
-7.54854e-13
-5.74043e-11
4.25503e-11
-6.75724e-11
1.22246e-11
-1.28799e-11
4.73738e-12
3.13025e-12
1.23488e-11
-4.04717e-11
-6.21197e-12
-2.3386e-11
-3.08578e-13
-1.11236e-11
1.84608e-11
-2.29471e-11
3.98788e-12
-3.9914e-11
3.95923e-11
-4.46799e-11
4.72385e-11
SCALARS density double 1
LOOKUP_TABLE default
1000
1000
1000
1000
1000
1000
1000
1000
1000
1000
1000
1000
1000
1000
1000
1000
1000
1000
1000
1000
1000
1000
1000
1000
1000
1000
1000
1000
1000
1000
1000
1000
1000
1000
1000
1000
1000
1000
1000
1000
1000
1000
1000
1000
1000
1000
1000
1000
1000
1000
1000
1000
1000
1000
1000
1000
1000
1000
1000
1000
1000
1000
1000
1000
