# vtk DataFile Version 3.0
Frame: 41, Time: 0.7
ASCII
DATASET UNSTRUCTURED_GRID
POINTS 64 double
0.756807 0.164139 0 
0.74556 0.141889 0 
0.731047 0.175646 0 
0.719672 0.152425 0 
0.734992 0.120877 0 
0.724054 0.0995007 0 
0.710594 0.131072 0 
0.698468 0.109297 0 
0.715018 0.0792933 0 
0.706078 0.0600701 0 
0.688359 0.0887722 0 
0.679855 0.0689946 0 
0.699245 0.0407527 0 
0.690932 0.0260247 0 
0.67131 0.0494809 0 
0.661312 0.031056 0 
0.707875 0.184906 0 
0.695587 0.162561 0 
0.684074 0.195543 0 
0.671682 0.171317 0 
0.685859 0.140863 0 
0.674544 0.119552 0 
0.661274 0.150313 0 
0.649675 0.128391 0 
0.663066 0.0982486 0 
0.65399 0.0777244 0 
0.63832 0.106576 0 
0.627993 0.0850055 0 
0.645034 0.0560415 0 
0.633765 0.0355159 0 
0.618874 0.0624449 0 
0.608076 0.0404119 0 
0.660242 0.204284 0 
0.646946 0.182227 0 
0.636139 0.213865 0 
0.623153 0.191838 0 
0.637336 0.160463 0 
0.625296 0.138021 0 
0.611529 0.16917 0 
0.601233 0.146109 0 
0.613853 0.115437 0 
0.603703 0.0922841 0 
0.589758 0.124196 0 
0.580523 0.10136 0 
0.593853 0.0694569 0 
0.583211 0.0470198 0 
0.569359 0.0785765 0 
0.558237 0.0555881 0 
0.612355 0.223947 0 
0.599953 0.202416 0 
0.589364 0.236654 0 
0.576921 0.214572 0 
0.588588 0.179302 0 
0.577241 0.156276 0 
0.566135 0.190979 0 
0.553787 0.169217 0 
0.566423 0.133363 0 
0.556078 0.110127 0 
0.543088 0.146321 0 
0.53281 0.122065 0 
0.544294 0.0860021 0 
0.533946 0.0629221 0 
0.521117 0.0986613 0 
0.511664 0.0738806 0 
CELLS 64 128
1 0
1 1
1 2
1 3
1 4
1 5
1 6
1 7
1 8
1 9
1 10
1 11
1 12
1 13
1 14
1 15
1 16
1 17
1 18
1 19
1 20
1 21
1 22
1 23
1 24
1 25
1 26
1 27
1 28
1 29
1 30
1 31
1 32
1 33
1 34
1 35
1 36
1 37
1 38
1 39
1 40
1 41
1 42
1 43
1 44
1 45
1 46
1 47
1 48
1 49
1 50
1 51
1 52
1 53
1 54
1 55
1 56
1 57
1 58
1 59
1 60
1 61
1 62
1 63
CELL_TYPES 64
1
1
1
1
1
1
1
1
1
1
1
1
1
1
1
1
1
1
1
1
1
1
1
1
1
1
1
1
1
1
1
1
1
1
1
1
1
1
1
1
1
1
1
1
1
1
1
1
1
1
1
1
1
1
1
1
1
1
1
1
1
1
1
1
POINT_DATA 64
VECTORS displacement double
0.244307 -0.448361 0 
0.23306 -0.495611 0 
0.193547 -0.436854 0 
0.182172 -0.485075 0 
0.222492 -0.541623 0 
0.211554 -0.587999 0 
0.173094 -0.531428 0 
0.160968 -0.578203 0 
0.202518 -0.633207 0 
0.193578 -0.67743 0 
0.150859 -0.623728 0 
0.142355 -0.668505 0 
0.186745 -0.721747 0 
0.178432 -0.761475 0 
0.13381 -0.713019 0 
0.123812 -0.756444 0 
0.145375 -0.427594 0 
0.133087 -0.474939 0 
0.0965745 -0.416957 0 
0.0841818 -0.466183 0 
0.123359 -0.521637 0 
0.112044 -0.567948 0 
0.0737736 -0.512187 0 
0.0621753 -0.559109 0 
0.100566 -0.614251 0 
0.0914905 -0.659776 0 
0.0508201 -0.605924 0 
0.0404925 -0.652494 0 
0.0825337 -0.706459 0 
0.071265 -0.751984 0 
0.0313737 -0.700055 0 
0.0205761 -0.747088 0 
0.0477419 -0.408216 0 
0.0344462 -0.455273 0 
-0.00136092 -0.398635 0 
-0.0143465 -0.445662 0 
0.0248359 -0.502037 0 
0.0127958 -0.549479 0 
-0.0259714 -0.49333 0 
-0.0362665 -0.541391 0 
0.00135268 -0.597063 0 
-0.00879658 -0.645216 0 
-0.0477418 -0.588304 0 
-0.0569767 -0.63614 0 
-0.0186468 -0.693043 0 
-0.0292885 -0.74048 0 
-0.0681412 -0.683924 0 
-0.0792633 -0.731912 0 
-0.0501453 -0.388553 0 
-0.0625471 -0.435084 0 
-0.098136 -0.375846 0 
-0.110579 -0.422928 0 
-0.0739119 -0.483198 0 
-0.0852591 -0.531224 0 
-0.121365 -0.471521 0 
-0.133713 -0.518283 0 
-0.0960769 -0.579137 0 
-0.106422 -0.627373 0 
-0.144412 -0.566179 0 
-0.15469 -0.615435 0 
-0.118206 -0.676498 0 
-0.128554 -0.724578 0 
-0.166383 -0.663839 0 
-0.175836 -0.713619 0 
VECTORS velocity double
-1.31766 -1.03968 0 
-1.35819 -0.911165 0 
-1.4886 -0.847488 0 
-1.56863 -0.735761 0 
-0.954136 -1.26322 0 
-1.17766 -0.667945 0 
-1.37461 -0.728824 0 
-1.21809 -0.685115 0 
-1.16218 -0.664961 0 
-1.08221 -0.905118 0 
-1.26859 -0.309839 0 
-1.63728 -0.639985 0 
-0.878324 0.105323 0 
-0.185901 -0.653608 0 
-1.51322 0.203577 0 
-0.764086 -0.349216 0 
-1.46451 -1.29957 0 
-0.965489 -1.55622 0 
-1.7648 -0.699983 0 
-1.47998 -0.789567 0 
-1.46955 -0.859614 0 
-1.29228 -1.09483 0 
-1.76591 -0.594519 0 
-1.68607 -0.499123 0 
-1.36459 -0.945865 0 
-1.29061 -0.889092 0 
-1.79466 -0.754063 0 
-1.51119 -1.04685 0 
-1.35997 -0.624928 0 
-0.596481 -0.840206 0 
-1.48489 -0.656316 0 
-1.1639 -0.851624 0 
-1.74434 -1.33994 0 
-1.42597 -1.07218 0 
-1.69891 -1.30435 0 
-1.77967 -1.49636 0 
-1.32717 -1.24974 0 
-1.15236 -1.24686 0 
-1.76196 -1.3069 0 
-1.82513 -1.37825 0 
-1.17353 -1.31527 0 
-1.36489 -1.19013 0 
-2.09757 -1.9164 0 
-2.02006 -1.26841 0 
-1.62115 -1.18296 0 
-1.33898 -1.11806 0 
-1.91843 -1.1829 0 
-1.59375 -1.42705 0 
-1.50435 -1.27429 0 
-1.79002 -1.42795 0 
-1.9051 -1.76078 0 
-1.66259 -1.54008 0 
-1.48438 -1.5175 0 
-1.52428 -1.3505 0 
-1.8376 -1.92087 0 
-2.06337 -1.50039 0 
-1.41679 -1.35322 0 
-1.67897 -1.36613 0 
-1.80222 -1.3546 0 
-1.8144 -1.596 0 
-1.59797 -1.69615 0 
-1.71187 -1.30412 0 
-1.5426 -1.34582 0 
-1.8033 -1.38415 0 
SCALARS mass double 1
LOOKUP_TABLE default
0.625
0.625
0.625
0.625
0.625
0.625
0.625
0.625
0.625
0.625
0.625
0.625
0.625
0.625
0.625
0.625
0.625
0.625
0.625
0.625
0.625
0.625
0.625
0.625
0.625
0.625
0.625
0.625
0.625
0.625
0.625
0.625
0.625
0.625
0.625
0.625
0.625
0.625
0.625
0.625
0.625
0.625
0.625
0.625
0.625
0.625
0.625
0.625
0.625
0.625
0.625
0.625
0.625
0.625
0.625
0.625
0.625
0.625
0.625
0.625
0.625
0.625
0.625
0.625
SCALARS volume double 1
LOOKUP_TABLE default
0.000624812
0.000599146
0.000624202
0.000630109
0.000618493
0.000600265
0.000578555
0.000581427
0.000555872
0.000542955
0.000588726
0.000554494
0.000529262
0.000397704
0.000577479
0.000448606
0.000622635
0.00061432
0.000629143
0.000620784
0.000593343
0.000614081
0.000620082
0.00060657
0.000575506
0.000589265
0.000605008
0.000598655
0.00060966
0.000493862
0.000607018
0.000524579
0.00062043
0.000616612
0.000625689
0.000633128
0.000591081
0.000633692
0.000618166
0.000619883
0.000613289
0.000599489
0.000619461
0.000602104
0.000607163
0.000577881
0.000625831
0.000640778
0.000619177
0.000614616
0.000624852
0.000624439
0.000595366
0.000639106
0.00061373
0.000626812
0.000613351
0.000632214
0.000614387
0.000633114
0.0006201
0.00061796
0.000627336
0.000632854
VECTORS momentum double
-0.823539 -0.649798 0 
-0.848867 -0.569478 0 
-0.930376 -0.52968 0 
-0.980393 -0.45985 0 
-0.596335 -0.789513 0 
-0.736035 -0.417466 0 
-0.859133 -0.455515 0 
-0.761308 -0.428197 0 
-0.72636 -0.415601 0 
-0.676383 -0.565699 0 
-0.792872 -0.193649 0 
-1.0233 -0.399991 0 
-0.548953 0.0658272 0 
-0.116188 -0.408505 0 
-0.94576 0.127235 0 
-0.477554 -0.21826 0 
-0.915316 -0.812228 0 
-0.603431 -0.972638 0 
-1.103 -0.437489 0 
-0.92499 -0.49348 0 
-0.918471 -0.537259 0 
-0.807676 -0.68427 0 
-1.10369 -0.371575 0 
-1.0538 -0.311952 0 
-0.852866 -0.591165 0 
-0.806629 -0.555682 0 
-1.12166 -0.47129 0 
-0.944491 -0.654282 0 
-0.849984 -0.39058 0 
-0.3728 -0.525129 0 
-0.928055 -0.410197 0 
-0.727436 -0.532265 0 
-1.09021 -0.837464 0 
-0.891231 -0.670111 0 
-1.06182 -0.815219 0 
-1.11229 -0.935227 0 
-0.829479 -0.781088 0 
-0.720222 -0.77929 0 
-1.10122 -0.816813 0 
-1.14071 -0.861404 0 
-0.733455 -0.822041 0 
-0.853056 -0.743829 0 
-1.31098 -1.19775 0 
-1.26253 -0.792753 0 
-1.01322 -0.739353 0 
-0.836862 -0.698785 0 
-1.19902 -0.739315 0 
-0.996096 -0.891903 0 
-0.940217 -0.79643 0 
-1.11876 -0.892469 0 
-1.19069 -1.10049 0 
-1.03912 -0.962551 0 
-0.92774 -0.948437 0 
-0.952673 -0.84406 0 
-1.1485 -1.20054 0 
-1.28961 -0.937744 0 
-0.885492 -0.845762 0 
-1.04936 -0.853834 0 
-1.12639 -0.846623 0 
-1.134 -0.997497 0 
-0.998732 -1.06009 0 
-1.06992 -0.815074 0 
-0.964123 -0.841137 0 
-1.12706 -0.865093 0 
VECTORS body_force double
0 -9.81 0 
0 -9.81 0 
0 -9.81 0 
0 -9.81 0 
0 -9.81 0 
0 -9.81 0 
0 -9.81 0 
0 -9.81 0 
0 -9.81 0 
0 -9.81 0 
0 -9.81 0 
0 -9.81 0 
0 -9.81 0 
0 -9.81 0 
0 -9.81 0 
0 -9.81 0 
0 -9.81 0 
0 -9.81 0 
0 -9.81 0 
0 -9.81 0 
0 -9.81 0 
0 -9.81 0 
0 -9.81 0 
0 -9.81 0 
0 -9.81 0 
0 -9.81 0 
0 -9.81 0 
0 -9.81 0 
0 -9.81 0 
0 -9.81 0 
0 -9.81 0 
0 -9.81 0 
0 -9.81 0 
0 -9.81 0 
0 -9.81 0 
0 -9.81 0 
0 -9.81 0 
0 -9.81 0 
0 -9.81 0 
0 -9.81 0 
0 -9.81 0 
0 -9.81 0 
0 -9.81 0 
0 -9.81 0 
0 -9.81 0 
0 -9.81 0 
0 -9.81 0 
0 -9.81 0 
0 -9.81 0 
0 -9.81 0 
0 -9.81 0 
0 -9.81 0 
0 -9.81 0 
0 -9.81 0 
0 -9.81 0 
0 -9.81 0 
0 -9.81 0 
0 -9.81 0 
0 -9.81 0 
0 -9.81 0 
0 -9.81 0 
0 -9.81 0 
0 -9.81 0 
0 -9.81 0 
TENSORS cauchy_stress double
2145.59 -1258.39 0
-1258.39 -2203.31 0
0 0 0

-2773.87 -3342.51 0
-3342.51 -5350.3 0
0 0 0

2010.48 786.344 0
786.344 -2256.21 0
0 0 0

4495.83 -975.532 0
-975.532 -2930.22 0
0 0 0

2083.67 -2352.95 0
-2352.95 -4096.46 0
0 0 0

860.701 -4852.09 0
-4852.09 -8626.23 0
0 0 0

-3312.13 -2203.89 0
-2203.89 -11537.4 0
0 0 0

-3340.37 -903.965 0
-903.965 -10556.9 0
0 0 0

-3116.65 -4071.66 0
-4071.66 -19424.5 0
0 0 0

-4411.92 -7986.5 0
-7986.5 -22650.7 0
0 0 0

1844.49 -3931.61 0
-3931.61 -13342.9 0
0 0 0

10.2645 -3140.12 0
-3140.12 -23028.5 0
0 0 0

-2250.22 -9953.78 0
-9953.78 -29724.2 0
0 0 0

-12188.9 -4309.37 0
-4309.37 -74742.5 0
0 0 0

5211.29 412.677 0
412.677 -20418.8 0
0 0 0

-9929.97 -64.1038 0
-64.1038 -53840.3 0
0 0 0

3850.58 -1750.84 0
-1750.84 -4579.79 0
0 0 0

717.833 183.605 0
183.605 -4032.25 0
0 0 0

81.2037 1934.21 0
1934.21 1189.47 0
0 0 0

3616.26 -130.185 0
-130.185 -4917.96 0
0 0 0

1641 -582.784 0
-582.784 -11636.9 0
0 0 0

6535.64 1410.1 0
1410.1 -9925.03 0
0 0 0

4799.14 2879.81 0
2879.81 -6318.39 0
0 0 0

2411.5 55.5349 0
55.5349 -8167.69 0
0 0 0

-1150.12 2581.81 0
2581.81 -14715.5 0
0 0 0

2827.56 -395.901 0
-395.901 -14149.8 0
0 0 0

3039.92 53.4171 0
53.4171 -9291.77 0
0 0 0

276.74 1196.71 0
1196.71 -8558.6 0
0 0 0

6414.42 3701.62 0
3701.62 -11193.3 0
0 0 0

-6975.89 2241.17 0
2241.17 -38311.8 0
0 0 0

1995.22 3096.47 0
3096.47 -7609.33 0
0 0 0

-7307.38 2365.94 0
2365.94 -26376.4 0
0 0 0

1397.87 -2455.61 0
-2455.61 -2809.22 0
0 0 0

2566.36 2140.33 0
2140.33 -5164.71 0
0 0 0

480.164 2207.36 0
2207.36 -268.286 0
0 0 0

2848.09 2160.3 0
2160.3 -363.274 0
0 0 0

-1732.49 -2463.53 0
-2463.53 -8997.94 0
0 0 0

4187.29 6149.49 0
6149.49 -1531.18 0
0 0 0

2370.89 29.9169 0
29.9169 -4485.11 0
0 0 0

6373.62 1877.6 0
1877.6 -7954.7 0
0 0 0

515.647 1155.65 0
1155.65 -4153.29 0
0 0 0

-499.697 4753.87 0
4753.87 -7514.4 0
0 0 0

1977.25 2257.73 0
2257.73 -3689.2 0
0 0 0

1133.08 1646.97 0
1646.97 -8310.25 0
0 0 0

3135.07 3779.96 0
3779.96 -8703.07 0
0 0 0

-3108.56 2990.37 0
2990.37 -11965.3 0
0 0 0

1896.66 -662.444 0
-662.444 -1641.11 0
0 0 0

3423.52 2649.86 0
2649.86 1370.97 0
0 0 0

177.294 -2245.27 0
-2245.27 -1977.28 0
0 0 0

-809.101 -1495.71 0
-1495.71 -2412.97 0
0 0 0

2009.71 -695.214 0
-695.214 -2055.14 0
0 0 0

20.5994 869.628 0
869.628 -193.432 0
0 0 0

-5620.12 265.933 0
265.933 -3721.26 0
0 0 0

2689.8 -1191.57 0
-1191.57 1602.32 0
0 0 0

-1690.15 -159.026 0
-159.026 -1809.16 0
0 0 0

1312.04 134.217 0
134.217 -755.324 0
0 0 0

-2605 -1614.73 0
-1614.73 -1012.98 0
0 0 0

163.525 2660.22 0
2660.22 2043.45 0
0 0 0

8.04764 1514.79 0
1514.79 -3301.73 0
0 0 0

759.973 1011.22 0
1011.22 1720.68 0
0 0 0

-676.474 148.343 0
148.343 -837.068 0
0 0 0

-2213.99 195.641 0
195.641 35.6794 0
0 0 0

1666.35 645.65 0
645.65 -948.857 0
0 0 0

2771.14 160.382 0
160.382 -369.437 0
0 0 0

TENSORS velocity_gradient double
-2.66076 -2.71722 0
0.693574 0.357992 0
0 0 0

0.312739 -3.20939 0
-0.53136 -2.09815 0
0 0 0

1.25519 -2.9898 0
0.925592 -0.476995 0
0 0 0

1.47447 -2.86859 0
0.0523333 -1.5676 0
0 0 0

2.0159 -3.08331 0
-1.82783 -2.88918 0
0 0 0

2.35839 -3.32523 0
-3.0221 -4.63212 0
0 0 0

1.82618 -2.63075 0
-1.17851 -4.43806 0
0 0 0

2.95321 -2.35831 0
0.00754114 -4.80401 0
0 0 0

2.4098 -3.81784 0
-3.32455 -5.82312 0
0 0 0

2.39923 -3.82275 0
-3.4318 -5.87292 0
0 0 0

3.58351 -4.18811 0
3.12262 -5.81451 0
0 0 0

2.89175 -4.48627 0
3.31045 -5.73355 0
0 0 0

0.205369 -10.2459 0
-0.101892 -8.54419 0
0 0 0

2.38312 -11.7047 0
1.83536 -8.68468 0
0 0 0

2.34115 -8.19234 0
3.24661 -7.85467 0
0 0 0

2.34564 -11.4897 0
2.19476 -10.7464 0
0 0 0

1.17309 -2.78556 0
1.25893 -1.30615 0
0 0 0

2.12003 -2.74416 0
0.689192 -1.87305 0
0 0 0

2.44943 -2.66138 0
2.87681 -1.48311 0
0 0 0

2.43627 -2.85823 0
1.3251 -3.32718 0
0 0 0

2.57694 -1.99001 0
0.429347 -4.40591 0
0 0 0

3.2802 -1.61773 0
1.75659 -3.70333 0
0 0 0

2.41039 -2.22887 0
0.310609 -3.54679 0
0 0 0

2.93616 -0.83475 0
4.14241 -2.37561 0
0 0 0

3.73861 -3.44451 0
2.89256 -4.48127 0
0 0 0

3.24396 -5.35943 0
3.58349 -5.4905 0
0 0 0

3.30586 -0.557722 0
7.96985 -2.30214 0
0 0 0

3.66983 -5.25955 0
7.938 -5.26103 0
0 0 0

3.77255 -5.44906 0
7.23199 -5.40838 0
0 0 0

4.02904 -11.5955 0
5.94457 -14.1031 0
0 0 0

4.00895 -5.12152 0
8.13475 -5.18094 0
0 0 0

4.09528 -11.9243 0
6.79307 -18.3151 0
0 0 0

2.10813 -0.438212 0
3.51135 -0.103798 0
0 0 0

1.66133 -2.82827 0
4.99794 -4.40542 0
0 0 0

1.14676 0.190579 0
5.9186 -0.836846 0
0 0 0

0.757037 -2.00894 0
6.2691 -3.28463 0
0 0 0

1.99031 -2.55898 0
8.15116 -4.12405 0
0 0 0

2.66241 -0.293827 0
8.61794 -2.56794 0
0 0 0

1.64134 -1.55412 0
7.61861 -2.59055 0
0 0 0

2.53584 -0.286974 0
6.782 -2.70921 0
0 0 0

3.12115 -0.0616251 0
8.1559 -2.80181 0
0 0 0

3.4374 -4.87615 0
7.5913 -5.02463 0
0 0 0

2.22947 0.0468803 0
2.64475 -2.72724 0
0 0 0

1.82978 -1.20471 0
3.71586 -2.75877 0
0 0 0

3.40913 -4.51196 0
5.96776 -4.6694 0
0 0 0

4.50272 -9.03621 0
6.24449 -15.8322 0
0 0 0

2.79412 -3.12341 0
5.07227 -3.17998 0
0 0 0

4.1362 -2.4726 0
6.51766 -2.47908 0
0 0 0

1.59044 -0.839223 0
5.95711 -0.926233 0
0 0 0

1.66951 -1.10214 0
5.00204 -1.16065 0
0 0 0

0.291136 -0.652339 0
3.00069 -0.86503 0
0 0 0

2.26308 0.458695 0
3.28331 -0.705796 0
0 0 0

3.36361 -1.21427 0
2.7377 -2.18791 0
0 0 0

2.95224 -1.41663 0
1.83493 -2.63201 0
0 0 0

3.5737 -1.6132 0
3.19876 -3.06338 0
0 0 0

3.07316 -1.84028 0
1.83109 -3.44662 0
0 0 0

2.45054 -0.509794 0
2.22431 -1.66853 0
0 0 0

1.89475 -0.756985 0
3.28134 -1.1984 0
0 0 0

0.503987 -1.4397 0
-1.87007 -1.23171 0
0 0 0

-0.476472 -1.42008 0
-1.16513 -0.467321 0
0 0 0

0.332171 -1.51812 0
0.70961 -1.74529 0
0 0 0

1.89898 -0.65014 0
0.700653 -1.34025 0
0 0 0

-0.835642 -0.673345 0
-0.557701 -0.524487 0
0 0 0

0.945493 1.28241 0
0.302966 -0.534209 0
0 0 0

SCALARS active double 1
LOOKUP_TABLE default
1
1
1
1
1
1
1
1
1
1
1
1
1
1
1
1
1
1
1
1
1
1
1
1
1
1
1
1
1
1
1
1
1
1
1
1
1
1
1
1
1
1
1
1
1
1
1
1
1
1
1
1
1
1
1
1
1
1
1
1
1
1
1
1
SCALARS extent double 1
LOOKUP_TABLE default
0.0125
0.0125
0.0125
0.0125
0.0125
0.0125
0.0125
0.0125
0.0125
0.0125
0.0125
0.0125
0.0125
0.0125
0.0125
0.0125
0.0125
0.0125
0.0125
0.0125
0.0125
0.0125
0.0125
0.0125
0.0125
0.0125
0.0125
0.0125
0.0125
0.0125
0.0125
0.0125
0.0125
0.0125
0.0125
0.0125
0.0125
0.0125
0.0125
0.0125
0.0125
0.0125
0.0125
0.0125
0.0125
0.0125
0.0125
0.0125
0.0125
0.0125
0.0125
0.0125
0.0125
0.0125
0.0125
0.0125
0.0125
0.0125
0.0125
0.0125
0.0125
0.0125
0.0125
0.0125
SCALARS pressure double 1
LOOKUP_TABLE default
28.8624
4062.09
122.861
-782.806
1006.39
3882.77
7424.75
6948.63
11270.6
13531.3
5749.19
11509.1
15987.2
43465.7
7603.73
31885.2
364.605
1657.21
-635.338
650.852
4997.95
1694.7
759.626
2878.09
7932.82
5661.11
3125.92
4140.93
2389.43
22643.9
2807.06
16841.9
705.677
1299.18
-105.939
-1242.41
5365.21
-1328.06
1057.11
790.539
1818.82
4007.05
855.975
3588.58
2784
7536.95
-127.775
-2397.24
899.992
1611.04
22.7165
86.4166
4670.69
-2146.06
1749.66
-278.358
1808.99
-1103.49
1646.84
-1240.33
756.771
1089.16
-358.746
-1200.85
SCALARS density double 1
LOOKUP_TABLE default
1000.3
1043.15
1001.28
991.892
1010.52
1041.21
1080.28
1074.94
1124.36
1151.11
1061.62
1127.15
1180.89
1571.52
1082.29
1393.2
1003.8
1017.38
993.414
1006.79
1053.35
1017.78
1007.93
1030.38
1086
1060.64
1033.04
1044.01
1025.16
1265.54
1029.62
1191.43
1007.37
1013.6
998.899
987.162
1057.38
986.283
1011.05
1008.26
1019.1
1042.55
1008.94
1038.03
1029.38
1081.54
998.672
975.377
1009.4
1016.9
1000.24
1000.9
1049.77
977.928
1018.36
997.109
1018.99
988.589
1017.27
987.183
1007.9
1011.39
996.276
987.589
