# vtk DataFile Version 3.0
Frame: 59, Time: 0.986
ASCII
DATASET UNSTRUCTURED_GRID
POINTS 64 double
0.284481 0.182132 0 
0.262998 0.168036 0 
0.26833 0.200957 0 
0.247377 0.186761 0 
0.243799 0.15157 0 
0.221056 0.137887 0 
0.229419 0.173343 0 
0.207913 0.159998 0 
0.202303 0.123875 0 
0.18197 0.106402 0 
0.189561 0.146352 0 
0.171577 0.129928 0 
0.157331 0.0945989 0 
0.140404 0.081733 0 
0.146811 0.117378 0 
0.126455 0.101954 0 
0.251534 0.219858 0 
0.231754 0.206058 0 
0.243633 0.242308 0 
0.221216 0.228413 0 
0.213792 0.194442 0 
0.193363 0.180646 0 
0.200444 0.217613 0 
0.180635 0.202724 0 
0.174695 0.164577 0 
0.157518 0.149187 0 
0.160868 0.185502 0 
0.140275 0.171134 0 
0.134571 0.138746 0 
0.111591 0.127514 0 
0.119189 0.159458 0 
0.0980553 0.14876 0 
0.233927 0.264736 0 
0.21176 0.249732 0 
0.221987 0.286951 0 
0.200835 0.271431 0 
0.189781 0.239051 0 
0.168709 0.225494 0 
0.179683 0.261648 0 
0.157047 0.249319 0 
0.149133 0.21019 0 
0.129884 0.196869 0 
0.136695 0.23304 0 
0.117005 0.221371 0 
0.109051 0.181808 0 
0.0872622 0.170003 0 
0.0958165 0.206122 0 
0.074041 0.19296 0 
0.210139 0.309316 0 
0.189202 0.294024 0 
0.196183 0.328736 0 
0.174882 0.316371 0 
0.167334 0.285675 0 
0.145887 0.270908 0 
0.152222 0.306937 0 
0.132345 0.29141 0 
0.124567 0.254822 0 
0.103422 0.243428 0 
0.111283 0.277722 0 
0.0899045 0.265555 0 
0.0832411 0.228731 0 
0.062502 0.215931 0 
0.0704118 0.250129 0 
0.0499042 0.237462 0 
CELLS 64 128
1 0
1 1
1 2
1 3
1 4
1 5
1 6
1 7
1 8
1 9
1 10
1 11
1 12
1 13
1 14
1 15
1 16
1 17
1 18
1 19
1 20
1 21
1 22
1 23
1 24
1 25
1 26
1 27
1 28
1 29
1 30
1 31
1 32
1 33
1 34
1 35
1 36
1 37
1 38
1 39
1 40
1 41
1 42
1 43
1 44
1 45
1 46
1 47
1 48
1 49
1 50
1 51
1 52
1 53
1 54
1 55
1 56
1 57
1 58
1 59
1 60
1 61
1 62
1 63
CELL_TYPES 64
1
1
1
1
1
1
1
1
1
1
1
1
1
1
1
1
1
1
1
1
1
1
1
1
1
1
1
1
1
1
1
1
1
1
1
1
1
1
1
1
1
1
1
1
1
1
1
1
1
1
1
1
1
1
1
1
1
1
1
1
1
1
1
1
POINT_DATA 64
VECTORS displacement double
-0.128019 -0.230368 0 
-0.149502 -0.269464 0 
-0.16917 -0.211543 0 
-0.190123 -0.250739 0 
-0.168701 -0.31093 0 
-0.191444 -0.349613 0 
-0.208081 -0.289157 0 
-0.229587 -0.327502 0 
-0.210197 -0.388625 0 
-0.23053 -0.431098 0 
-0.247939 -0.366148 0 
-0.265923 -0.407572 0 
-0.255169 -0.467901 0 
-0.272096 -0.505767 0 
-0.290689 -0.445122 0 
-0.311045 -0.485546 0 
-0.210966 -0.192642 0 
-0.230746 -0.231442 0 
-0.243867 -0.170192 0 
-0.266284 -0.209087 0 
-0.248708 -0.268058 0 
-0.269137 -0.306854 0 
-0.287056 -0.244887 0 
-0.306865 -0.284776 0 
-0.287805 -0.347923 0 
-0.304982 -0.388313 0 
-0.326632 -0.326998 0 
-0.347225 -0.366366 0 
-0.327929 -0.423754 0 
-0.350909 -0.459986 0 
-0.368311 -0.403042 0 
-0.389445 -0.43874 0 
-0.278573 -0.147764 0 
-0.30074 -0.187768 0 
-0.315513 -0.125549 0 
-0.336665 -0.166069 0 
-0.322719 -0.223449 0 
-0.343791 -0.262006 0 
-0.357817 -0.200852 0 
-0.380453 -0.238181 0 
-0.363367 -0.30231 0 
-0.382616 -0.340631 0 
-0.400805 -0.27946 0 
-0.420495 -0.316129 0 
-0.403449 -0.380692 0 
-0.425238 -0.417497 0 
-0.441683 -0.356378 0 
-0.463459 -0.39454 0 
-0.352361 -0.103184 0 
-0.373298 -0.143476 0 
-0.391317 -0.0837641 0 
-0.412618 -0.121129 0 
-0.395166 -0.176825 0 
-0.416613 -0.216592 0 
-0.435278 -0.155563 0 
-0.455155 -0.19609 0 
-0.437933 -0.257678 0 
-0.459078 -0.294072 0 
-0.476217 -0.234778 0 
-0.497596 -0.271945 0 
-0.479259 -0.333769 0 
-0.499998 -0.371569 0 
-0.517088 -0.312371 0 
-0.537596 -0.350038 0 
VECTORS velocity double
0.17726 1.55128 0 
0.0629197 1.0513 0 
-0.766337 1.46268 0 
-0.442173 0.751131 0 
0.55204 1.12159 0 
0.0746349 1.68076 0 
-0.135462 0.404714 0 
-0.779819 1.01298 0 
0.52208 1.06479 0 
-0.329476 0.856913 0 
0.450161 0.78717 0 
0.409939 0.905734 0 
0.172202 0.5986 0 
0.0615232 0.708378 0 
0.72221 1.02312 0 
0.251061 0.840674 0 
-0.313014 0.976811 0 
-0.316102 0.656637 0 
-0.101447 1.29719 0 
-0.0691013 0.640244 0 
0.0150375 0.87593 0 
-0.551166 0.969095 0 
0.232486 0.98601 0 
-0.450936 0.900438 0 
-0.278134 0.504718 0 
-0.133922 0.584912 0 
-0.803775 0.617295 0 
-0.894582 1.03544 0 
0.0393606 0.254567 0 
-0.222296 0.58865 0 
-0.184839 0.758191 0 
-0.00608433 0.416354 0 
-0.254395 1.25353 0 
-0.0615475 0.706684 0 
-0.489593 0.958411 0 
-0.6697 0.772463 0 
0.489046 1.18009 0 
0.600727 1.11612 0 
-0.600405 1.0159 0 
-0.493816 0.942093 0 
0.516716 0.765948 0 
0.240392 0.893891 0 
-0.296671 0.772563 0 
-0.388679 0.783251 0 
0.104737 0.153546 0 
0.00658507 0.593941 0 
-0.0984666 0.771626 0 
-0.0569155 0.638525 0 
0.0518267 1.12893 0 
-0.426519 0.846685 0 
-0.0883403 0.76079 0 
-0.00202384 1.08176 0 
-0.303679 0.672442 0 
-0.373508 0.607115 0 
-0.114166 0.823481 0 
-0.163817 0.835358 0 
-0.276302 0.430575 0 
-0.371253 0.368809 0 
-0.591499 0.469665 0 
-0.163799 0.747378 0 
0.191803 0.469659 0 
-0.0431083 0.19032 0 
-0.708831 0.199805 0 
-0.587747 0.0229797 0 
SCALARS mass double 1
LOOKUP_TABLE default
0.625
0.625
0.625
0.625
0.625
0.625
0.625
0.625
0.625
0.625
0.625
0.625
0.625
0.625
0.625
0.625
0.625
0.625
0.625
0.625
0.625
0.625
0.625
0.625
0.625
0.625
0.625
0.625
0.625
0.625
0.625
0.625
0.625
0.625
0.625
0.625
0.625
0.625
0.625
0.625
0.625
0.625
0.625
0.625
0.625
0.625
0.625
0.625
0.625
0.625
0.625
0.625
0.625
0.625
0.625
0.625
0.625
0.625
0.625
0.625
0.625
0.625
0.625
0.625
SCALARS volume double 1
LOOKUP_TABLE default
0.000620269
0.000631823
0.000604805
0.000588401
0.000626124
0.000667836
0.000624371
0.000627551
0.000615793
0.000642836
0.000562549
0.000647328
0.0006339
0.000596939
0.000665421
0.000674
0.000629581
0.00059302
0.000635865
0.000641432
0.000624058
0.00061177
0.000638344
0.000642244
0.000614968
0.000598868
0.000657693
0.000657435
0.000613633
0.000647963
0.000567306
0.000614202
0.000607506
0.000599131
0.000666789
0.000613008
0.000644162
0.000645382
0.000620248
0.000615473
0.000648722
0.000669987
0.000620154
0.000634385
0.000618167
0.000629721
0.000659115
0.000643305
0.000619792
0.000647397
0.000626948
0.000628796
0.000635653
0.00063168
0.000618022
0.000613538
0.000620477
0.000619329
0.000635155
0.000645787
0.000598718
0.000611771
0.000632054
0.000608749
VECTORS momentum double
0.110788 0.969547 0 
0.0393248 0.657065 0 
-0.47896 0.914177 0 
-0.276358 0.469457 0 
0.345025 0.700991 0 
0.0466468 1.05048 0 
-0.0846635 0.252946 0 
-0.487387 0.633109 0 
0.3263 0.665492 0 
-0.205922 0.535571 0 
0.281351 0.491981 0 
0.256212 0.566084 0 
0.107626 0.374125 0 
0.038452 0.442736 0 
0.451381 0.63945 0 
0.156913 0.525421 0 
-0.195634 0.610507 0 
-0.197564 0.410398 0 
-0.0634046 0.810743 0 
-0.0431883 0.400153 0 
0.00939845 0.547456 0 
-0.344479 0.605684 0 
0.145304 0.616256 0 
-0.281835 0.562774 0 
-0.173833 0.315449 0 
-0.0837013 0.36557 0 
-0.502359 0.38581 0 
-0.559114 0.647151 0 
0.0246004 0.159104 0 
-0.138935 0.367906 0 
-0.115525 0.47387 0 
-0.00380271 0.260221 0 
-0.158997 0.783454 0 
-0.0384672 0.441677 0 
-0.305996 0.599007 0 
-0.418563 0.482789 0 
0.305654 0.737554 0 
0.375455 0.697576 0 
-0.375253 0.634939 0 
-0.308635 0.588808 0 
0.322947 0.478718 0 
0.150245 0.558682 0 
-0.185419 0.482852 0 
-0.242925 0.489532 0 
0.0654608 0.0959661 0 
0.00411567 0.371213 0 
-0.0615416 0.482266 0 
-0.0355722 0.399078 0 
0.0323917 0.705584 0 
-0.266574 0.529178 0 
-0.0552127 0.475494 0 
-0.0012649 0.676103 0 
-0.189799 0.420276 0 
-0.233442 0.379447 0 
-0.071354 0.514675 0 
-0.102386 0.522099 0 
-0.172689 0.269109 0 
-0.232033 0.230505 0 
-0.369687 0.293541 0 
-0.102374 0.467111 0 
0.119877 0.293537 0 
-0.0269427 0.11895 0 
-0.44302 0.124878 0 
-0.367342 0.0143623 0 
VECTORS body_force double
0 -9.81 0 
0 -9.81 0 
0 -9.81 0 
0 -9.81 0 
0 -9.81 0 
0 -9.81 0 
0 -9.81 0 
0 -9.81 0 
0 -9.81 0 
0 -9.81 0 
0 -9.81 0 
0 -9.81 0 
0 -9.81 0 
0 -9.81 0 
0 -9.81 0 
0 -9.81 0 
0 -9.81 0 
0 -9.81 0 
0 -9.81 0 
0 -9.81 0 
0 -9.81 0 
0 -9.81 0 
0 -9.81 0 
0 -9.81 0 
0 -9.81 0 
0 -9.81 0 
0 -9.81 0 
0 -9.81 0 
0 -9.81 0 
0 -9.81 0 
0 -9.81 0 
0 -9.81 0 
0 -9.81 0 
0 -9.81 0 
0 -9.81 0 
0 -9.81 0 
0 -9.81 0 
0 -9.81 0 
0 -9.81 0 
0 -9.81 0 
0 -9.81 0 
0 -9.81 0 
0 -9.81 0 
0 -9.81 0 
0 -9.81 0 
0 -9.81 0 
0 -9.81 0 
0 -9.81 0 
0 -9.81 0 
0 -9.81 0 
0 -9.81 0 
0 -9.81 0 
0 -9.81 0 
0 -9.81 0 
0 -9.81 0 
0 -9.81 0 
0 -9.81 0 
0 -9.81 0 
0 -9.81 0 
0 -9.81 0 
0 -9.81 0 
0 -9.81 0 
0 -9.81 0 
0 -9.81 0 
TENSORS cauchy_stress double
273.215 -1154.36 0
-1154.36 -1734.47 0
0 0 0

40.3052 -63.0457 0
-63.0457 2047.55 0
0 0 0

1014.7 -3606.18 0
-3606.18 -7331.23 0
0 0 0

-9103.24 -718.721 0
-718.721 -2501.29 0
0 0 0

2294.65 -2100.44 0
-2100.44 -1949.12 0
0 0 0

7678.02 4397.9 0
4397.9 5070.22 0
0 0 0

-5987.27 -2664.94 0
-2664.94 5793.57 0
0 0 0

733.007 -2710.39 0
-2710.39 50.199 0
0 0 0

-3951.59 131.296 0
131.296 1097.6 0
0 0 0

5429.94 7396.38 0
7396.38 -18.9113 0
0 0 0

-17032.9 -2158.89 0
-2158.89 -3212.07 0
0 0 0

2442.47 1087.92 0
1087.92 4307.69 0
0 0 0

904.028 -1965.14 0
-1965.14 1815.2 0
0 0 0

-1882.86 -4851.48 0
-4851.48 -6951.26 0
0 0 0

2588.11 4252.97 0
4252.97 9463.53 0
0 0 0

3006.79 7194.69 0
7194.69 11508.4 0
0 0 0

463.321 -2831.69 0
-2831.69 941.045 0
0 0 0

-3578.31 -4372 0
-4372 -6522.52 0
0 0 0

2168.21 942.855 0
942.855 1146.09 0
0 0 0

3356.81 3099.52 0
3099.52 1633.84 0
0 0 0

-608.858 -5198.13 0
-5198.13 318.844 0
0 0 0

-1273.69 -4263.31 0
-4263.31 -2840.76 0
0 0 0

-2381.68 456.871 0
456.871 6444.32 0
0 0 0

-3729.64 1473.33 0
1473.33 8963.63 0
0 0 0

4104.22 -2319.21 0
-2319.21 -7215.91 0
0 0 0

4464.62 -9920.37 0
-9920.37 -12678.1 0
0 0 0

-3983.44 1842.41 0
1842.41 13788.4 0
0 0 0

1695.26 -1550.61 0
-1550.61 8034.29 0
0 0 0

2261.8 -2854.81 0
-2854.81 -5791.48 0
0 0 0

6696.49 -5584.14 0
-5584.14 242.315 0
0 0 0

-10808.2 -1318.13 0
-1318.13 -7817.41 0
0 0 0

1369.95 -2334.98 0
-2334.98 -4721.48 0
0 0 0

-2633.43 -539.608 0
-539.608 -2825.97 0
0 0 0

-2546.64 2919.33 0
2919.33 -5582.41 0
0 0 0

4122.15 -1194.54 0
-1194.54 8324.52 0
0 0 0

-2786.06 -1582.04 0
-1582.04 -939.572 0
0 0 0

3313.21 967.655 0
967.655 2494.23 0
0 0 0

3442.28 -3290.53 0
-3290.53 2728.98 0
0 0 0

-2434.18 2173.53 0
2173.53 966.447 0
0 0 0

-6974.87 6618.16 0
6618.16 4021.03 0
0 0 0

3281.97 -1971.95 0
-1971.95 3882.14 0
0 0 0

2646.27 -2262.2 0
-2262.2 10720.4 0
0 0 0

-5527.72 1914.57 0
1914.57 4030.78 0
0 0 0

-4407.16 -181.54 0
-181.54 7273.38 0
0 0 0

-3983.71 1091.1 0
1091.1 1869.72 0
0 0 0

-855.234 475.683 0
475.683 2302.54 0
0 0 0

2582.23 1561.29 0
1561.29 7638.19 0
0 0 0

1232.41 -2708.59 0
-2708.59 4318.98 0
0 0 0

-3807.42 462.764 0
462.764 2198.17 0
0 0 0

2657.1 -2524.4 0
-2524.4 4113.65 0
0 0 0

-305.406 1326.85 0
1326.85 903.985 0
0 0 0

701.814 -823.676 0
-823.676 462.637 0
0 0 0

269.163 -447.398 0
-447.398 2980.93 0
0 0 0

146.752 1081.29 0
1081.29 1897.67 0
0 0 0

-2081.45 1485.51 0
1485.51 -77.854 0
0 0 0

-1824.75 670.068 0
670.068 -1734.86 0
0 0 0

475.549 -542.811 0
-542.811 -1872.36 0
0 0 0

-1151.88 -142.088 0
-142.088 -600.991 0
0 0 0

-123.726 -519.783 0
-519.783 3223.17 0
0 0 0

1441.53 476.587 0
476.587 4850.26 0
0 0 0

-3592.05 -1434.9 0
-1434.9 -4669.78 0
0 0 0

-4446.03 -3283.03 0
-3283.03 331.748 0
0 0 0

-484.434 -3846.04 0
-3846.04 2642.86 0
0 0 0

-5115.14 4141.33 0
4141.33 48.6893 0
0 0 0

TENSORS velocity_gradient double
-0.322809 -6.53024 0
8.05651 1.39095 0
0 0 0

0.0667717 -5.92714 0
6.55777 -0.929205 0
0 0 0

-0.965653 -3.39105 0
9.90709 1.67643 0
0 0 0

-0.745993 -5.19794 0
3.77951 -2.06173 0
0 0 0

2.32178 -5.63679 0
2.65999 -4.50902 0
0 0 0

2.99036 -5.67708 0
4.35508 -3.55411 0
0 0 0

0.412634 -3.60131 0
1.90388 -2.01523 0
0 0 0

1.68809 -1.54186 0
2.11024 -1.68203 0
0 0 0

2.30972 -5.24908 0
5.83305 -0.943261 0
0 0 0

-1.19532 -5.44168 0
3.64993 -0.809039 0
0 0 0

1.23498 -4.91086 0
4.95541 -0.581584 0
0 0 0

0.286583 -6.79171 0
4.46426 -1.22768 0
0 0 0

-1.61009 5.52623 0
3.95823 2.09396 0
0 0 0

0.503535 4.44622 0
1.02913 2.54835 0
0 0 0

0.708517 -7.62839 0
2.51414 -2.14165 0
0 0 0

2.00149 -2.40772 0
1.50814 -0.833051 0
0 0 0

-1.96637 0.35257 0
7.82881 3.05408 0
0 0 0

-2.03294 -0.148539 0
1.70696 1.86885 0
0 0 0

-1.19991 0.51066 0
3.14568 2.71766 0
0 0 0

-1.53419 -0.054725 0
2.54806 1.84154 0
0 0 0

-1.61307 -2.11059 0
1.57613 -1.77404 0
0 0 0

0.272579 -0.482236 0
2.6524 -0.993916 0
0 0 0

-0.930838 -0.640288 0
1.85507 1.03497 0
0 0 0

-0.356347 -0.929371 0
1.24311 0.226756 0
0 0 0

0.995743 0.360508 0
4.03658 0.619149 0
0 0 0

1.2627 -4.36096 0
4.88059 -0.290346 0
0 0 0

0.0496963 0.985392 0
2.22579 1.81521 0
0 0 0

-1.48583 1.23479 0
3.48941 2.68487 0
0 0 0

-0.904831 -6.73853 0
2.86628 -2.59902 0
0 0 0

0.13503 -4.59908 0
2.44002 -3.47602 0
0 0 0

-1.78308 0.692634 0
3.39319 2.50937 0
0 0 0

-0.271317 -2.08008 0
0.964751 -0.265681 0
0 0 0

-0.619004 -1.45787 0
3.28057 -0.0268621 0
0 0 0

-0.994377 -0.987059 0
3.25471 0.964631 0
0 0 0

-0.0608184 -1.75659 0
3.04222 0.100695 0
0 0 0

0.000786238 -2.09294 0
3.05064 0.290788 0
0 0 0

1.10803 -1.05821 0
2.32119 0.633086 0
0 0 0

0.48888 -2.02412 0
1.81928 -0.149905 0
0 0 0

1.11305 -1.3125 0
2.79758 0.269801 0
0 0 0

1.35423 -1.65143 0
2.6252 -0.285816 0
0 0 0

-0.276303 -2.91109 0
2.787 -0.844771 0
0 0 0

-0.805472 0.0673073 0
3.72612 1.83344 0
0 0 0

0.645707 -3.44535 0
4.62468 -1.21157 0
0 0 0

0.153154 -4.28309 0
4.30539 -1.75461 0
0 0 0

-1.20955 0.431515 0
3.57885 2.42484 0
0 0 0

0.470838 -0.129286 0
0.476395 -0.000368803 0
0 0 0

1.11553 -4.84139 0
5.7128 -2.00532 0
0 0 0

1.06413 -0.469588 0
4.74486 -2.44869 0
0 0 0

1.33074 5.14623 0
2.1482 -2.50797 0
0 0 0

-0.497195 -1.78879 0
2.90844 0.302592 0
0 0 0

0.666348 3.89644 0
-0.304801 -1.09333 0
0 0 0

-0.44955 3.23324 0
1.02614 1.47803 0
0 0 0

-0.0847578 -0.699125 0
2.88004 0.227573 0
0 0 0

1.78379 -0.0480514 0
4.2064 0.317509 0
0 0 0

0.784245 2.34366 0
2.36749 4.24954 0
0 0 0

2.71813 -0.388725 0
3.93695 0.669001 0
0 0 0

1.52187 -1.19354 0
4.93263 0.48789 0
0 0 0

1.42747 -4.84449 0
5.1933 -2.09412 0
0 0 0

2.27701 -1.07114 0
4.32916 1.27576 0
0 0 0

0.0678912 0.428057 0
6.8417 1.25539 0
0 0 0

2.22222 -5.57549 0
6.22721 -2.27729 0
0 0 0

1.78906 -6.28396 0
6.18858 -2.34047 0
0 0 0

2.27388 -1.09812 0
6.3932 -0.933871 0
0 0 0

-2.22626 -6.2029 0
5.51836 -2.22629 0
0 0 0

SCALARS active double 1
LOOKUP_TABLE default
1
1
1
1
1
1
1
1
1
1
1
1
1
1
1
1
1
1
1
1
1
1
1
1
1
1
1
1
1
1
1
1
1
1
1
1
1
1
1
1
1
1
1
1
1
1
1
1
1
1
1
1
1
1
1
1
1
1
1
1
1
1
1
1
SCALARS extent double 1
LOOKUP_TABLE default
0.0125
0.0125
0.0125
0.0125
0.0125
0.0125
0.0125
0.0125
0.0125
0.0125
0.0125
0.0125
0.0125
0.0125
0.0125
0.0125
0.0125
0.0125
0.0125
0.0125
0.0125
0.0125
0.0125
0.0125
0.0125
0.0125
0.0125
0.0125
0.0125
0.0125
0.0125
0.0125
0.0125
0.0125
0.0125
0.0125
0.0125
0.0125
0.0125
0.0125
0.0125
0.0125
0.0125
0.0125
0.0125
0.0125
0.0125
0.0125
0.0125
0.0125
0.0125
0.0125
0.0125
0.0125
0.0125
0.0125
0.0125
0.0125
0.0125
0.0125
0.0125
0.0125
0.0125
0.0125
SCALARS pressure double 1
LOOKUP_TABLE default
730.625
-1043.93
3158.26
5802.27
-172.764
-6374.12
96.8514
-391.603
1427
-2705.52
10122.5
-3375.08
-1359.61
4417.06
-6025.82
-7257.59
-702.183
5050.42
-1657.15
-2495.33
145.007
2057.22
-2031.32
-2616.99
1555.85
4106.77
-4902.49
-4864.77
1764.84
-3469.4
9312.81
1675.76
2729.7
4064.53
-6223.33
1862.82
-2903.72
-3085.63
733.866
1476.92
-3582.05
-6683.32
748.47
-1433.11
1057
-723.652
-5110.21
-2775.69
804.623
-3385.38
-299.29
-582.225
-1625.04
-1022.21
1079.65
1779.8
698.408
876.434
-1549.72
-3145.9
4130.92
2057.14
-1079.21
2533.23
SCALARS density double 1
LOOKUP_TABLE default
1007.63
989.202
1033.39
1062.2
998.205
935.859
1001.01
995.936
1014.95
972.255
1111.01
965.508
985.96
1047.01
939.255
927.299
992.724
1053.93
982.913
974.382
1001.51
1021.63
979.096
973.15
1016.31
1043.64
950.292
950.665
1018.52
964.561
1101.7
1017.58
1028.8
1043.18
937.327
1019.56
970.253
968.419
1007.66
1015.48
963.432
932.854
1007.81
985.206
1011.05
992.502
948.241
971.545
1008.4
965.405
996.892
993.963
983.242
989.425
1011.29
1018.68
1007.29
1009.16
984.012
967.812
1043.9
1021.62
988.839
1026.7
