# vtk DataFile Version 3.0
Frame: 42, Time: 0.717
ASCII
DATASET UNSTRUCTURED_GRID
POINTS 64 double
0.73074 0.165217 0 
0.721251 0.14215 0 
0.704064 0.174801 0 
0.694522 0.150816 0 
0.712291 0.120687 0 
0.702894 0.0991297 0 
0.687037 0.129288 0 
0.676232 0.107263 0 
0.694908 0.0790628 0 
0.686983 0.0601718 0 
0.667132 0.0864914 0 
0.659859 0.0665005 0 
0.682817 0.0408189 0 
0.677688 0.0257516 0 
0.653422 0.0468637 0 
0.64723 0.0289311 0 
0.679936 0.181908 0 
0.669265 0.158582 0 
0.654942 0.189962 0 
0.644146 0.164913 0 
0.660894 0.136539 0 
0.650625 0.114962 0 
0.634974 0.143468 0 
0.624395 0.121108 0 
0.640192 0.0933511 0 
0.6329 0.0726064 0 
0.614185 0.0987406 0 
0.606091 0.0769639 0 
0.62647 0.0509557 0 
0.619255 0.0315529 0 
0.59982 0.0546818 0 
0.592692 0.0342017 0 
0.630119 0.196112 0 
0.618203 0.172969 0 
0.605428 0.202828 0 
0.593731 0.179443 0 
0.609821 0.15039 0 
0.598861 0.127191 0 
0.583197 0.155527 0 
0.573918 0.131907 0 
0.588489 0.104153 0 
0.580327 0.0809869 0 
0.563265 0.109695 0 
0.555195 0.0868752 0 
0.572737 0.0583271 0 
0.564528 0.0372006 0 
0.545638 0.0638443 0 
0.536182 0.0413343 0 
0.581364 0.210188 0 
0.570236 0.187333 0 
0.557902 0.220545 0 
0.546723 0.197141 0 
0.559801 0.163145 0 
0.549233 0.139336 0 
0.536781 0.172685 0 
0.525004 0.150532 0 
0.539018 0.116187 0 
0.529449 0.0928067 0 
0.514871 0.127668 0 
0.505539 0.103216 0 
0.519116 0.068345 0 
0.509963 0.0452031 0 
0.495139 0.0793329 0 
0.486713 0.0539112 0 
CELLS 64 128
1 0
1 1
1 2
1 3
1 4
1 5
1 6
1 7
1 8
1 9
1 10
1 11
1 12
1 13
1 14
1 15
1 16
1 17
1 18
1 19
1 20
1 21
1 22
1 23
1 24
1 25
1 26
1 27
1 28
1 29
1 30
1 31
1 32
1 33
1 34
1 35
1 36
1 37
1 38
1 39
1 40
1 41
1 42
1 43
1 44
1 45
1 46
1 47
1 48
1 49
1 50
1 51
1 52
1 53
1 54
1 55
1 56
1 57
1 58
1 59
1 60
1 61
1 62
1 63
CELL_TYPES 64
1
1
1
1
1
1
1
1
1
1
1
1
1
1
1
1
1
1
1
1
1
1
1
1
1
1
1
1
1
1
1
1
1
1
1
1
1
1
1
1
1
1
1
1
1
1
1
1
1
1
1
1
1
1
1
1
1
1
1
1
1
1
1
1
POINT_DATA 64
VECTORS displacement double
0.21824 -0.447283 0 
0.208751 -0.49535 0 
0.166564 -0.437699 0 
0.157022 -0.486684 0 
0.199791 -0.541813 0 
0.190394 -0.58837 0 
0.149537 -0.533212 0 
0.138732 -0.580237 0 
0.182408 -0.633437 0 
0.174483 -0.677328 0 
0.129632 -0.626009 0 
0.122359 -0.671 0 
0.170317 -0.721681 0 
0.165188 -0.761748 0 
0.115922 -0.715636 0 
0.10973 -0.758569 0 
0.117436 -0.430592 0 
0.106765 -0.478918 0 
0.0674421 -0.422538 0 
0.0566464 -0.472587 0 
0.0983938 -0.525961 0 
0.0881255 -0.572538 0 
0.0474741 -0.519032 0 
0.0368948 -0.566392 0 
0.077692 -0.619149 0 
0.0703997 -0.664894 0 
0.0266848 -0.613759 0 
0.0185909 -0.660536 0 
0.0639699 -0.711544 0 
0.0567547 -0.755947 0 
0.0123201 -0.707818 0 
0.00519207 -0.753298 0 
0.0176186 -0.416388 0 
0.00570273 -0.464531 0 
-0.0320715 -0.409672 0 
-0.0437691 -0.458057 0 
-0.0026787 -0.51211 0 
-0.0136394 -0.560309 0 
-0.0543026 -0.506973 0 
-0.0635819 -0.555593 0 
-0.0240107 -0.608347 0 
-0.0321732 -0.656513 0 
-0.0742347 -0.602805 0 
-0.0823053 -0.650625 0 
-0.0397627 -0.704173 0 
-0.0479721 -0.750299 0 
-0.0918624 -0.698656 0 
-0.101318 -0.746166 0 
-0.081136 -0.402312 0 
-0.0922642 -0.450167 0 
-0.129598 -0.391955 0 
-0.140777 -0.440359 0 
-0.102699 -0.499355 0 
-0.113267 -0.548164 0 
-0.150719 -0.489815 0 
-0.162496 -0.536968 0 
-0.123482 -0.596313 0 
-0.133051 -0.644693 0 
-0.172629 -0.584832 0 
-0.181961 -0.634284 0 
-0.143384 -0.694155 0 
-0.152537 -0.742297 0 
-0.192361 -0.683167 0 
-0.200787 -0.733589 0 
VECTORS velocity double
-1.78329 1.08336 0 
-1.59728 1.12975 0 
-2.04854 1.05604 0 
-1.79931 0.991336 0 
-1.29396 0.694931 0 
-1.36304 0.882256 0 
-1.46574 0.745437 0 
-1.095 0.485203 0 
-1.26937 0.577484 0 
-1.27656 0.355067 0 
-1.15776 0.719849 0 
-1.61263 0.159719 0 
-1.0468 1.08084 0 
-0.0709129 -0.119303 0 
-1.41375 0.65366 0 
-0.21222 -0.165636 0 
-2.02765 0.39741 0 
-1.28058 -0.116716 0 
-2.1792 0.695071 0 
-1.7452 0.301398 0 
-1.59787 0.326829 0 
-1.19115 -0.0738829 0 
-1.90478 0.306564 0 
-1.62754 0.463054 0 
-1.13275 -0.0185507 0 
-1.10829 -0.221779 0 
-1.58018 0.298487 0 
-1.24611 -0.0472747 0 
-1.13249 -0.158211 0 
0.177781 -0.433332 0 
-1.12942 0.350386 0 
-0.224197 -0.0305818 0 
-2.13787 -0.0646271 0 
-1.67163 -0.0143066 0 
-2.23148 0.0231704 0 
-2.00649 -0.347276 0 
-1.50461 -0.250496 0 
-1.18492 -0.166182 0 
-1.93152 -0.128136 0 
-1.84495 -0.219979 0 
-0.986048 -0.169264 0 
-1.01976 -0.0118384 0 
-1.83524 -0.812096 0 
-1.58789 -0.132469 0 
-1.18067 0.0396459 0 
-0.378024 -0.134528 0 
-1.44843 -0.0270467 0 
-0.811039 -0.478308 0 
-2.13009 0.0880367 0 
-1.92809 -0.271108 0 
-2.44166 -0.456518 0 
-1.7966 -0.384215 0 
-1.50412 -0.375452 0 
-1.35757 -0.314349 0 
-1.7663 -0.74918 0 
-1.7211 -0.507088 0 
-1.06796 -0.425042 0 
-1.31004 -0.477908 0 
-1.48321 -0.568071 0 
-1.67175 -0.916776 0 
-1.24392 -0.879096 0 
-1.14925 -0.716494 0 
-1.38903 -0.763575 0 
-1.24305 -0.966456 0 
SCALARS mass double 1
LOOKUP_TABLE default
0.625
0.625
0.625
0.625
0.625
0.625
0.625
0.625
0.625
0.625
0.625
0.625
0.625
0.625
0.625
0.625
0.625
0.625
0.625
0.625
0.625
0.625
0.625
0.625
0.625
0.625
0.625
0.625
0.625
0.625
0.625
0.625
0.625
0.625
0.625
0.625
0.625
0.625
0.625
0.625
0.625
0.625
0.625
0.625
0.625
0.625
0.625
0.625
0.625
0.625
0.625
0.625
0.625
0.625
0.625
0.625
0.625
0.625
0.625
0.625
0.625
0.625
0.625
0.625
SCALARS volume double 1
LOOKUP_TABLE default
0.000622428
0.000600191
0.000631144
0.000626968
0.000612069
0.0005927
0.00057365
0.000587496
0.000542374
0.000530547
0.000592843
0.000550271
0.000528255
0.000392679
0.00055533
0.000415895
0.000627669
0.000625449
0.000634784
0.000626248
0.000592695
0.000618866
0.000617522
0.000602442
0.000583493
0.000576762
0.000598096
0.000576385
0.000574424
0.000433059
0.000575587
0.000470721
0.000622475
0.000614218
0.000621293
0.000629126
0.000593395
0.000623921
0.00061796
0.00060349
0.000605793
0.000595891
0.000612581
0.000600428
0.000620807
0.000509317
0.000640866
0.000565874
0.000612561
0.000613636
0.000625101
0.000627392
0.000596238
0.00062808
0.000616304
0.000634094
0.000609311
0.000620157
0.000615011
0.000632524
0.000621506
0.000583436
0.000626111
0.00062613
VECTORS momentum double
-1.11456 0.677103 0 
-0.998301 0.706095 0 
-1.28034 0.660024 0 
-1.12457 0.619585 0 
-0.808724 0.434332 0 
-0.851899 0.55141 0 
-0.916085 0.465898 0 
-0.684375 0.303252 0 
-0.793359 0.360928 0 
-0.797849 0.221917 0 
-0.723598 0.449905 0 
-1.0079 0.0998243 0 
-0.654253 0.675523 0 
-0.0443206 -0.0745644 0 
-0.883594 0.408537 0 
-0.132637 -0.103522 0 
-1.26728 0.248381 0 
-0.80036 -0.0729474 0 
-1.362 0.43442 0 
-1.09075 0.188374 0 
-0.998668 0.204268 0 
-0.744471 -0.0461768 0 
-1.19049 0.191603 0 
-1.01721 0.289409 0 
-0.707967 -0.0115942 0 
-0.692679 -0.138612 0 
-0.987615 0.186554 0 
-0.778819 -0.0295467 0 
-0.707808 -0.0988818 0 
0.111113 -0.270833 0 
-0.70589 0.218991 0 
-0.140123 -0.0191136 0 
-1.33617 -0.0403919 0 
-1.04477 -0.00894166 0 
-1.39468 0.0144815 0 
-1.25406 -0.217048 0 
-0.940378 -0.15656 0 
-0.740576 -0.103864 0 
-1.2072 -0.0800851 0 
-1.15309 -0.137487 0 
-0.61628 -0.10579 0 
-0.637349 -0.00739903 0 
-1.14702 -0.50756 0 
-0.992431 -0.0827933 0 
-0.737919 0.0247787 0 
-0.236265 -0.0840802 0 
-0.905266 -0.0169042 0 
-0.506899 -0.298943 0 
-1.3313 0.0550229 0 
-1.20505 -0.169443 0 
-1.52604 -0.285324 0 
-1.12287 -0.240134 0 
-0.940078 -0.234657 0 
-0.84848 -0.196468 0 
-1.10394 -0.468238 0 
-1.07569 -0.31693 0 
-0.667476 -0.265651 0 
-0.818777 -0.298692 0 
-0.927004 -0.355044 0 
-1.04484 -0.572985 0 
-0.777452 -0.549435 0 
-0.718279 -0.447809 0 
-0.868147 -0.477234 0 
-0.776906 -0.604035 0 
VECTORS body_force double
0 -9.81 0 
0 -9.81 0 
0 -9.81 0 
0 -9.81 0 
0 -9.81 0 
0 -9.81 0 
0 -9.81 0 
0 -9.81 0 
0 -9.81 0 
0 -9.81 0 
0 -9.81 0 
0 -9.81 0 
0 -9.81 0 
0 -9.81 0 
0 -9.81 0 
0 -9.81 0 
0 -9.81 0 
0 -9.81 0 
0 -9.81 0 
0 -9.81 0 
0 -9.81 0 
0 -9.81 0 
0 -9.81 0 
0 -9.81 0 
0 -9.81 0 
0 -9.81 0 
0 -9.81 0 
0 -9.81 0 
0 -9.81 0 
0 -9.81 0 
0 -9.81 0 
0 -9.81 0 
0 -9.81 0 
0 -9.81 0 
0 -9.81 0 
0 -9.81 0 
0 -9.81 0 
0 -9.81 0 
0 -9.81 0 
0 -9.81 0 
0 -9.81 0 
0 -9.81 0 
0 -9.81 0 
0 -9.81 0 
0 -9.81 0 
0 -9.81 0 
0 -9.81 0 
0 -9.81 0 
0 -9.81 0 
0 -9.81 0 
0 -9.81 0 
0 -9.81 0 
0 -9.81 0 
0 -9.81 0 
0 -9.81 0 
0 -9.81 0 
0 -9.81 0 
0 -9.81 0 
0 -9.81 0 
0 -9.81 0 
0 -9.81 0 
0 -9.81 0 
0 -9.81 0 
0 -9.81 0 
TENSORS cauchy_stress double
1015.24 -996.487 0
-996.487 -1808.35 0
0 0 0

-2135.02 -3597.29 0
-3597.29 -5654.3 0
0 0 0

3328.66 1066.82 0
1066.82 -1447.55 0
0 0 0

4861.46 -330.193 0
-330.193 -4257 0
0 0 0

1618.39 -3151.18 0
-3151.18 -5638.96 0
0 0 0

-128.141 -5828.12 0
-5828.12 -10076.2 0
0 0 0

-1956.91 -1374.81 0
-1374.81 -14530.2 0
0 0 0

631.732 503.892 0
503.892 -12532.2 0
0 0 0

-4696.42 -5642.8 0
-5642.8 -22572.1 0
0 0 0

-4455.3 -7246.18 0
-7246.18 -27052.9 0
0 0 0

5504.95 -1411.42 0
-1411.42 -15662.9 0
0 0 0

1398.94 -5.97889 0
-5.97889 -25887.4 0
0 0 0

437.326 -10795.9 0
-10795.9 -32778.3 0
0 0 0

-12209.9 -1790 0
-1790 -77166.8 0
0 0 0

3249.94 811.167 0
811.167 -25978.7 0
0 0 0

-14666.2 -20.2796 0
-20.2796 -63664.1 0
0 0 0

5521.58 -231.425 0
-231.425 -4702.2 0
0 0 0

3661.5 1306.74 0
1306.74 -3523.37 0
0 0 0

1653.39 3023.46 0
3023.46 1333.8 0
0 0 0

5935.42 1403.74 0
1403.74 -5551.91 0
0 0 0

4041.94 1546.87 0
1546.87 -14247.9 0
0 0 0

9753.73 3830.48 0
3830.48 -11650.5 0
0 0 0

6231.64 4857.64 0
4857.64 -8546.49 0
0 0 0

3836.29 3650.93 0
3650.93 -10905.5 0
0 0 0

2034.73 3704.17 0
3704.17 -15249.9 0
0 0 0

1986.59 961.781 0
961.781 -17433.2 0
0 0 0

3817.9 3157.07 0
3157.07 -12279.4 0
0 0 0

-1734.32 1761.81 0
1761.81 -13838 0
0 0 0

1014.83 3616.95 0
3616.95 -17242.6 0
0 0 0

-16140.7 949.822 0
949.822 -54412.7 0
0 0 0

-1903.81 2813.71 0
2813.71 -13935 0
0 0 0

-9714.23 1344.92 0
1344.92 -44802.2 0
0 0 0

2814.52 -585.129 0
-585.129 -3593.12 0
0 0 0

2652.23 5314.09 0
5314.09 -5998.69 0
0 0 0

-794.292 4238.35 0
4238.35 -349.746 0
0 0 0

1923.57 5112.46 0
5112.46 -658.115 0
0 0 0

544.879 1383.83 0
1383.83 -10524.1 0
0 0 0

3850.14 9618.86 0
9618.86 -4182.34 0
0 0 0

2271.93 3604.08 0
3604.08 -4450.44 0
0 0 0

5429.41 5343.07 0
5343.07 -12164.4 0
0 0 0

1689.37 4647.49 0
4647.49 -7691.79 0
0 0 0

1743.61 5841.98 0
5841.98 -10915.5 0
0 0 0

2928.15 5199.91 0
5199.91 -6787.71 0
0 0 0

3753.56 3584.2 0
3584.2 -11466.7 0
0 0 0

9093.45 5981.03 0
5981.03 -10388 0
0 0 0

-3806.24 2808.98 0
2808.98 -35555.4 0
0 0 0

8127.71 1712.02 0
1712.02 -3306.87 0
0 0 0

593.356 3377.89 0
3377.89 -19705 0
0 0 0

-1384.53 -10.839 0
-10.839 -2481.56 0
0 0 0

-933.944 1094.36 0
1094.36 -2594.89 0
0 0 0

1452.51 1163.08 0
1163.08 -1421.58 0
0 0 0

-204.535 2751.59 0
2751.59 939.066 0
0 0 0

-5289.07 2478.06 0
2478.06 -3771 0
0 0 0

2588.29 1382.9 0
1382.9 -1642.94 0
0 0 0

-643.08 1164.28 0
1164.28 -2051.27 0
0 0 0

3368.66 -79.6574 0
-79.6574 -590.523 0
0 0 0

-1167.48 462.208 0
462.208 -3721.59 0
0 0 0

-450.148 3257.37 0
3257.37 -1045.77 0
0 0 0

897.162 1093.98 0
1093.98 -3995.62 0
0 0 0

758.967 1049.33 0
1049.33 1542.13 0
0 0 0

763.355 885.372 0
885.372 -1841.5 0
0 0 0

-2317.6 1195.96 0
1195.96 -10916.5 0
0 0 0

756.729 945.833 0
945.833 -415.089 0
0 0 0

429.359 240.18 0
240.18 -82.0292 0
0 0 0

TENSORS velocity_gradient double
0.542105 -6.04929 0
6.43012 -0.697941 0
0 0 0

-0.707084 -5.03731 0
6.22383 2.48281 0
0 0 0

0.895241 -7.06653 0
6.55697 -0.771864 0
0 0 0

0.0878866 -7.03537 0
9.48536 0.61742 0
0 0 0

-2.41789 -5.76541 0
5.82359 2.31247 0
0 0 0

-3.51623 -4.86108 0
5.31656 2.59912 0
0 0 0

-0.0215661 -6.97287 0
9.81494 1.73331 0
0 0 0

-0.22161 -7.07305 0
9.2016 1.42615 0
0 0 0

-1.93893 -4.35216 0
7.11152 1.88964 0
0 0 0

-1.75765 -4.69235 0
8.35078 1.50505 0
0 0 0

-0.790642 -5.41404 0
8.78405 1.18169 0
0 0 0

-1.51827 -5.68425 0
8.45803 1.06062 0
0 0 0

-2.36448 -13.2635 0
6.62934 8.84449 0
0 0 0

-2.76001 -13.4052 0
4.1859 7.96933 0
0 0 0

-2.27105 -12.1172 0
6.79288 3.37351 0
0 0 0

-2.59609 -14.0287 0
2.91747 3.36447 0
0 0 0

0.126634 -7.27345 0
9.57863 -0.311176 0
0 0 0

0.161197 -7.25732 0
10.1963 -0.0228734 0
0 0 0

0.114297 -7.23635 0
9.35815 0.351976 0
0 0 0

0.173335 -7.26929 0
8.03938 0.499747 0
0 0 0

0.0469731 -7.21133 0
10.0251 1.00217 0
0 0 0

-0.000770115 -7.27351 0
8.21488 0.663952 0
0 0 0

0.103295 -7.23758 0
7.27384 -0.0155052 0
0 0 0

0.248737 -7.16753 0
6.16251 -0.550794 0
0 0 0

-0.0666777 -6.65377 0
4.89354 0.604058 0
0 0 0

-1.44241 -7.14827 0
4.22353 0.363227 0
0 0 0

0.119204 -7.87178 0
5.11555 -0.566206 0
0 0 0

-1.14515 -8.92985 0
4.36831 -0.504437 0
0 0 0

-2.65209 -10.2401 0
3.42298 0.830607 0
0 0 0

-2.60581 -13.6194 0
2.2033 1.21076 0
0 0 0

0.218364 -9.58211 0
3.90075 -0.699766 0
0 0 0

4.50582 -13.012 0
2.75038 -0.714786 0
0 0 0

0.403854 -7.3985 0
7.48294 -0.161403 0
0 0 0

0.244279 -7.46711 0
7.63587 0.496714 0
0 0 0

0.379898 -7.27027 0
6.92903 0.665889 0
0 0 0

-1.23352 -7.54982 0
5.79257 0.391632 0
0 0 0

0.105613 -7.32095 0
7.46584 -0.329378 0
0 0 0

0.230946 -6.8438 0
6.16395 -1.57138 0
0 0 0

-1.17102 -7.37214 0
5.12075 0.178569 0
0 0 0

-0.0353863 -5.52589 0
5.6455 -0.980299 0
0 0 0

1.61793 -6.80176 0
6.5319 -1.45418 0
0 0 0

2.65516 -8.66197 0
5.73134 -1.75518 0
0 0 0

1.29461 -4.88015 0
6.42099 -0.603782 0
0 0 0

2.41111 -7.65282 0
6.06442 -3.13247 0
0 0 0

3.56933 -8.34904 0
4.48366 -2.18226 0
0 0 0

4.3894 -11.9554 0
2.99829 -2.96492 0
0 0 0

3.05504 -7.22409 0
8.81199 -3.09196 0
0 0 0

4.27957 -10.4055 0
9.19044 -7.02972 0
0 0 0

-1.60826 -7.31078 0
5.9587 1.65912 0
0 0 0

-1.60778 -7.25681 0
5.59077 0.0489353 0
0 0 0

-1.44194 -7.68234 0
6.14067 1.25258 0
0 0 0

-2.71276 -7.11804 0
2.66565 0.448783 0
0 0 0

-1.2861 -7.11519 0
5.22517 -0.112012 0
0 0 0

-0.5188 -4.08711 0
5.13045 -0.013101 0
0 0 0

-2.22771 -6.36191 0
2.42589 0.52184 0
0 0 0

-1.09205 -4.56818 0
3.98923 1.47235 0
0 0 0

0.484137 -3.57001 0
6.49987 0.607335 0
0 0 0

1.55616 -6.46665 0
8.16293 -2.21728 0
0 0 0

-0.0393564 -2.48305 0
5.64844 2.37522 0
0 0 0

1.06129 -2.66816 0
7.4245 2.37278 0
0 0 0

2.7337 -5.96204 0
9.78365 -1.52275 0
0 0 0

3.99332 -7.95904 0
9.81562 -10.8608 0
0 0 0

-1.00998 -4.67322 0
3.35036 0.138181 0
0 0 0

0.0747 -4.29068 0
3.7017 -1.29087 0
0 0 0

SCALARS active double 1
LOOKUP_TABLE default
1
1
1
1
1
1
1
1
1
1
1
1
1
1
1
1
1
1
1
1
1
1
1
1
1
1
1
1
1
1
1
1
1
1
1
1
1
1
1
1
1
1
1
1
1
1
1
1
1
1
1
1
1
1
1
1
1
1
1
1
1
1
1
1
SCALARS extent double 1
LOOKUP_TABLE default
0.0125
0.0125
0.0125
0.0125
0.0125
0.0125
0.0125
0.0125
0.0125
0.0125
0.0125
0.0125
0.0125
0.0125
0.0125
0.0125
0.0125
0.0125
0.0125
0.0125
0.0125
0.0125
0.0125
0.0125
0.0125
0.0125
0.0125
0.0125
0.0125
0.0125
0.0125
0.0125
0.0125
0.0125
0.0125
0.0125
0.0125
0.0125
0.0125
0.0125
0.0125
0.0125
0.0125
0.0125
0.0125
0.0125
0.0125
0.0125
0.0125
0.0125
0.0125
0.0125
0.0125
0.0125
0.0125
0.0125
0.0125
0.0125
0.0125
0.0125
0.0125
0.0125
0.0125
0.0125
SCALARS pressure double 1
LOOKUP_TABLE default
396.557
3894.66
-940.554
-302.231
2010.29
5102.18
8243.54
5950.24
13634.3
15754.1
5078.99
12244.2
16170.5
44688.4
11364.4
39165.2
-409.693
-69.0648
-1493.6
-191.754
5102.99
948.388
1157.43
3534.61
6607.59
7723.32
4230.76
7786.18
8113.9
35276.7
7919.42
27258.2
389.301
1673.23
572.019
-632.726
4989.6
166.101
1089.26
3367.49
3001.21
4585.94
1929.78
3856.56
647.271
19680.8
-2410.42
9555.83
1933.04
1764.42
-15.4677
-367.265
4530.04
-472.679
1347.18
-1389.07
2444.54
747.957
1549.23
-1150.55
539.07
6617.07
-170.82
-173.665
SCALARS density double 1
LOOKUP_TABLE default
1004.13
1041.34
990.266
996.862
1021.13
1054.5
1089.52
1063.84
1152.34
1178.03
1054.24
1135.8
1183.14
1591.63
1125.46
1502.78
995.748
999.282
984.587
998.008
1054.5
1009.91
1012.11
1037.44
1071.14
1083.64
1044.98
1084.35
1088.05
1443.22
1085.85
1327.75
1004.06
1017.55
1005.97
993.441
1053.26
1001.73
1011.39
1035.64
1031.7
1048.85
1020.27
1040.92
1006.75
1227.13
975.243
1104.49
1020.31
1018.52
999.839
996.188
1048.24
995.096
1014.11
985.658
1025.75
1007.81
1016.24
988.106
1005.62
1071.24
998.225
998.196
