# vtk DataFile Version 3.0
Frame: 48, Time: 0.817
ASCII
DATASET UNSTRUCTURED_GRID
POINTS 64 double
0.487574 0.331659 0 
0.502844 0.309788 0 
0.465592 0.314436 0 
0.482197 0.291943 0 
0.517015 0.288103 0 
0.53206 0.266561 0 
0.497795 0.271451 0 
0.512997 0.248364 0 
0.548325 0.245197 0 
0.562557 0.223063 0 
0.528285 0.226906 0 
0.543952 0.206549 0 
0.578892 0.203088 0 
0.595848 0.183235 0 
0.559745 0.186831 0 
0.575822 0.165935 0 
0.446966 0.299525 0 
0.462228 0.276945 0 
0.426377 0.285892 0 
0.443104 0.262516 0 
0.477513 0.256048 0 
0.49236 0.234599 0 
0.457007 0.241985 0 
0.472101 0.220494 0 
0.507506 0.212709 0 
0.522672 0.192214 0 
0.487788 0.198964 0 
0.502389 0.177256 0 
0.539481 0.171759 0 
0.554407 0.150547 0 
0.518566 0.156593 0 
0.533706 0.135248 0 
0.40844 0.270221 0 
0.421981 0.247045 0 
0.389173 0.255396 0 
0.401456 0.232391 0 
0.436795 0.22679 0 
0.451261 0.204647 0 
0.415999 0.210138 0 
0.43156 0.189277 0 
0.466708 0.183192 0 
0.482562 0.162047 0 
0.445805 0.16845 0 
0.462082 0.148291 0 
0.497549 0.141179 0 
0.512521 0.120246 0 
0.476768 0.126373 0 
0.491228 0.105067 0 
0.369186 0.242148 0 
0.381268 0.219095 0 
0.349322 0.228063 0 
0.361679 0.204513 0 
0.395942 0.196732 0 
0.410813 0.174711 0 
0.375906 0.182383 0 
0.388575 0.159836 0 
0.425766 0.154039 0 
0.441288 0.133559 0 
0.403157 0.13882 0 
0.419188 0.117784 0 
0.45678 0.110926 0 
0.471672 0.0899541 0 
0.433863 0.0962753 0 
0.451366 0.0754649 0 
CELLS 64 128
1 0
1 1
1 2
1 3
1 4
1 5
1 6
1 7
1 8
1 9
1 10
1 11
1 12
1 13
1 14
1 15
1 16
1 17
1 18
1 19
1 20
1 21
1 22
1 23
1 24
1 25
1 26
1 27
1 28
1 29
1 30
1 31
1 32
1 33
1 34
1 35
1 36
1 37
1 38
1 39
1 40
1 41
1 42
1 43
1 44
1 45
1 46
1 47
1 48
1 49
1 50
1 51
1 52
1 53
1 54
1 55
1 56
1 57
1 58
1 59
1 60
1 61
1 62
1 63
CELL_TYPES 64
1
1
1
1
1
1
1
1
1
1
1
1
1
1
1
1
1
1
1
1
1
1
1
1
1
1
1
1
1
1
1
1
1
1
1
1
1
1
1
1
1
1
1
1
1
1
1
1
1
1
1
1
1
1
1
1
1
1
1
1
1
1
1
1
POINT_DATA 64
VECTORS displacement double
-0.0249264 -0.280841 0 
-0.00965633 -0.327712 0 
-0.0719078 -0.298064 0 
-0.0553027 -0.345557 0 
0.00451544 -0.374397 0 
0.0195596 -0.420939 0 
-0.0397049 -0.391049 0 
-0.0245029 -0.439136 0 
0.0358254 -0.467303 0 
0.050057 -0.514437 0 
-0.00921538 -0.485594 0 
0.00645171 -0.530951 0 
0.0663922 -0.559412 0 
0.0833479 -0.604265 0 
0.022245 -0.575669 0 
0.038322 -0.621565 0 
-0.115534 -0.312975 0 
-0.100272 -0.360555 0 
-0.161123 -0.326608 0 
-0.144396 -0.374984 0 
-0.0849871 -0.406452 0 
-0.0701403 -0.452901 0 
-0.130493 -0.420515 0 
-0.115399 -0.467006 0 
-0.0549936 -0.499791 0 
-0.0398278 -0.545286 0 
-0.0997119 -0.513536 0 
-0.0851115 -0.560244 0 
-0.0230193 -0.590741 0 
-0.00809285 -0.636953 0 
-0.0689336 -0.605907 0 
-0.0537941 -0.652252 0 
-0.20406 -0.342279 0 
-0.190519 -0.390455 0 
-0.248327 -0.357104 0 
-0.236044 -0.405109 0 
-0.175705 -0.43571 0 
-0.161239 -0.482853 0 
-0.221501 -0.452362 0 
-0.20594 -0.498223 0 
-0.145792 -0.529308 0 
-0.129938 -0.575453 0 
-0.191695 -0.54405 0 
-0.175418 -0.589209 0 
-0.114951 -0.621321 0 
-0.0999795 -0.667254 0 
-0.160732 -0.636127 0 
-0.146272 -0.682433 0 
-0.293314 -0.370352 0 
-0.281232 -0.418405 0 
-0.338178 -0.384437 0 
-0.325821 -0.432987 0 
-0.266558 -0.465768 0 
-0.251687 -0.512789 0 
-0.311594 -0.480117 0 
-0.298925 -0.527664 0 
-0.236734 -0.558461 0 
-0.221212 -0.603941 0 
-0.284343 -0.57368 0 
-0.268312 -0.619716 0 
-0.20572 -0.651574 0 
-0.190828 -0.697546 0 
-0.253637 -0.666225 0 
-0.236134 -0.712035 0 
VECTORS velocity double
-2.32274 0.679557 0 
-2.10749 1.1836 0 
-2.29036 0.0651279 0 
-1.7289 0.872614 0 
-2.03511 1.0287 0 
-1.77815 1.51425 0 
-1.68848 0.612724 0 
-1.37131 0.559625 0 
-1.50589 1.72668 0 
-1.11627 1.63987 0 
-1.39538 1.50109 0 
-1.17136 1.09524 0 
-1.82274 2.26967 0 
-0.914315 2.30593 0 
-1.06875 1.36409 0 
-0.461619 1.76602 0 
-2.23726 0.00266612 0 
-1.33288 0.37898 0 
-2.52424 0.0975764 0 
-1.74858 0.546882 0 
-1.90569 0.819257 0 
-1.46658 0.499712 0 
-2.06259 0.604208 0 
-1.65687 0.975152 0 
-1.39803 0.965365 0 
-1.01715 1.04174 0 
-1.51657 0.968177 0 
-1.08703 0.78475 0 
-0.89497 1.19531 0 
-0.527861 1.77991 0 
-1.03314 1.29294 0 
-0.803286 1.6325 0 
-2.22839 -0.540861 0 
-1.33584 -0.00695517 0 
-2.06523 -0.626779 0 
-1.34229 -0.305193 0 
-1.4179 -0.337756 0 
-1.08521 0.324797 0 
-1.55871 0.0943522 0 
-1.64858 0.483276 0 
-0.686492 0.779846 0 
-0.761822 0.744026 0 
-1.39186 0.195834 0 
-1.0732 0.744956 0 
-1.03954 0.503664 0 
-0.084857 1.08309 0 
-1.19974 0.867869 0 
-0.392526 1.04513 0 
-2.11416 -0.541369 0 
-1.28208 -0.448587 0 
-1.25948 -1.50517 0 
-0.350778 -1.281 0 
-1.08217 -0.151465 0 
-1.24711 0.0957339 0 
-0.722142 -1.12982 0 
-1.07031 -0.756497 0 
-0.795505 0.0891277 0 
-0.91338 0.511358 0 
-0.746418 -0.540431 0 
-0.810211 -0.352749 0 
-1.19063 0.617381 0 
-0.458491 1.22515 0 
-0.637362 0.184069 0 
-0.123127 0.487125 0 
SCALARS mass double 1
LOOKUP_TABLE default
0.625
0.625
0.625
0.625
0.625
0.625
0.625
0.625
0.625
0.625
0.625
0.625
0.625
0.625
0.625
0.625
0.625
0.625
0.625
0.625
0.625
0.625
0.625
0.625
0.625
0.625
0.625
0.625
0.625
0.625
0.625
0.625
0.625
0.625
0.625
0.625
0.625
0.625
0.625
0.625
0.625
0.625
0.625
0.625
0.625
0.625
0.625
0.625
0.625
0.625
0.625
0.625
0.625
0.625
0.625
0.625
0.625
0.625
0.625
0.625
0.625
0.625
0.625
0.625
SCALARS volume double 1
LOOKUP_TABLE default
0.000611667
0.000641331
0.000623537
0.000653093
0.000634873
0.000630394
0.000621852
0.000626301
0.000660539
0.000610003
0.000643446
0.000617923
0.000626295
0.000639943
0.000610022
0.000637411
0.000618263
0.000619173
0.000629706
0.000630702
0.000606368
0.000636613
0.000625829
0.000607724
0.000594671
0.000631307
0.000621435
0.000631506
0.000632441
0.000630782
0.000617704
0.000617734
0.000598452
0.000609787
0.000607454
0.000621005
0.000612569
0.000659956
0.000623894
0.000614661
0.000645328
0.000626086
0.000631247
0.000622182
0.000610221
0.000626004
0.00063845
0.000617522
0.000595941
0.000590107
0.000585929
0.000600059
0.000597091
0.000622893
0.00060809
0.000651291
0.000619416
0.000649627
0.000602689
0.000630797
0.000640532
0.000617257
0.000611488
0.000634305
VECTORS momentum double
-1.45171 0.424723 0 
-1.31718 0.739747 0 
-1.43147 0.0407049 0 
-1.08056 0.545384 0 
-1.27195 0.642935 0 
-1.11134 0.946404 0 
-1.0553 0.382952 0 
-0.85707 0.349766 0 
-0.941179 1.07918 0 
-0.697671 1.02492 0 
-0.872111 0.938183 0 
-0.732098 0.684524 0 
-1.13921 1.41854 0 
-0.571447 1.44121 0 
-0.667967 0.852554 0 
-0.288512 1.10377 0 
-1.39829 0.00166633 0 
-0.833051 0.236863 0 
-1.57765 0.0609852 0 
-1.09287 0.341801 0 
-1.19105 0.512036 0 
-0.916612 0.31232 0 
-1.28912 0.37763 0 
-1.03554 0.60947 0 
-0.873768 0.603353 0 
-0.635717 0.651085 0 
-0.947857 0.60511 0 
-0.679394 0.490469 0 
-0.559356 0.747069 0 
-0.329913 1.11244 0 
-0.645714 0.80809 0 
-0.502054 1.02031 0 
-1.39275 -0.338038 0 
-0.834899 -0.00434698 0 
-1.29077 -0.391737 0 
-0.838934 -0.190746 0 
-0.886186 -0.211098 0 
-0.678258 0.202998 0 
-0.974195 0.0589701 0 
-1.03036 0.302047 0 
-0.429057 0.487404 0 
-0.476139 0.465016 0 
-0.86991 0.122396 0 
-0.670752 0.465598 0 
-0.649712 0.31479 0 
-0.0530356 0.676933 0 
-0.749837 0.542418 0 
-0.245329 0.653207 0 
-1.32135 -0.338355 0 
-0.801301 -0.280367 0 
-0.787173 -0.940731 0 
-0.219236 -0.800623 0 
-0.676357 -0.0946658 0 
-0.779442 0.0598337 0 
-0.451339 -0.70614 0 
-0.668946 -0.472811 0 
-0.49719 0.0557048 0 
-0.570863 0.319599 0 
-0.466511 -0.337769 0 
-0.506382 -0.220468 0 
-0.744143 0.385863 0 
-0.286557 0.765721 0 
-0.398351 0.115043 0 
-0.0769542 0.304453 0 
VECTORS body_force double
0 -9.81 0 
0 -9.81 0 
0 -9.81 0 
0 -9.81 0 
0 -9.81 0 
0 -9.81 0 
0 -9.81 0 
0 -9.81 0 
0 -9.81 0 
0 -9.81 0 
0 -9.81 0 
0 -9.81 0 
0 -9.81 0 
0 -9.81 0 
0 -9.81 0 
0 -9.81 0 
0 -9.81 0 
0 -9.81 0 
0 -9.81 0 
0 -9.81 0 
0 -9.81 0 
0 -9.81 0 
0 -9.81 0 
0 -9.81 0 
0 -9.81 0 
0 -9.81 0 
0 -9.81 0 
0 -9.81 0 
0 -9.81 0 
0 -9.81 0 
0 -9.81 0 
0 -9.81 0 
0 -9.81 0 
0 -9.81 0 
0 -9.81 0 
0 -9.81 0 
0 -9.81 0 
0 -9.81 0 
0 -9.81 0 
0 -9.81 0 
0 -9.81 0 
0 -9.81 0 
0 -9.81 0 
0 -9.81 0 
0 -9.81 0 
0 -9.81 0 
0 -9.81 0 
0 -9.81 0 
0 -9.81 0 
0 -9.81 0 
0 -9.81 0 
0 -9.81 0 
0 -9.81 0 
0 -9.81 0 
0 -9.81 0 
0 -9.81 0 
0 -9.81 0 
0 -9.81 0 
0 -9.81 0 
0 -9.81 0 
0 -9.81 0 
0 -9.81 0 
0 -9.81 0 
0 -9.81 0 
TENSORS cauchy_stress double
-535.592 -673.461 0
-673.461 -3611.17 0
0 0 0

2730.71 -1557.2 0
-1557.2 2229.64 0
0 0 0

-2126.93 -1077.91 0
-1077.91 1676.11 0
0 0 0

1207.11 -991.059 0
-991.059 7248.2 0
0 0 0

-944.345 -490.869 0
-490.869 3958.4 0
0 0 0

1010.62 -819.68 0
-819.68 641.99 0
0 0 0

-3966.23 -440.533 0
-440.533 2995.19 0
0 0 0

-2452.45 -1979.77 0
-1979.77 2852.29 0
0 0 0

3256.46 -724.254 0
-724.254 7378.94 0
0 0 0

-3824.35 185.137 0
185.137 -846.296 0
0 0 0

1408.36 154.021 0
154.021 4185.32 0
0 0 0

-2648.56 663.37 0
663.37 458.489 0
0 0 0

2280.39 -1206.3 0
-1206.3 -1882.28 0
0 0 0

910.906 -528.82 0
-528.82 3632.73 0
0 0 0

-2174.73 -729.911 0
-729.911 -2490.15 0
0 0 0

1445.77 623.348 0
623.348 2335.61 0
0 0 0

-255.588 -859.424 0
-859.424 -1828.74 0
0 0 0

-1013.66 -3663.2 0
-3663.2 -787.747 0
0 0 0

-419.441 -5627.27 0
-5627.27 1862.16 0
0 0 0

-971.539 -508.59 0
-508.59 2717.92 0
0 0 0

-3489.97 -426.647 0
-426.647 -2330.2 0
0 0 0

1110.49 -1066.02 0
-1066.02 2430.03 0
0 0 0

-3804.02 -788.897 0
-788.897 4058.94 0
0 0 0

-2373.18 -1112.83 0
-1112.83 -3017.44 0
0 0 0

-5617.51 -3435.14 0
-3435.14 -3948.4 0
0 0 0

403.849 -1607.55 0
-1607.55 1527.18 0
0 0 0

-1387.73 -715.187 0
-715.187 287.632 0
0 0 0

1759.9 -3242.54 0
-3242.54 231.501 0
0 0 0

519.727 -207.245 0
-207.245 1756.16 0
0 0 0

-2023.69 1746.9 0
1746.9 3794.73 0
0 0 0

2434.95 -2239.74 0
-2239.74 -4692.97 0
0 0 0

-1973.84 -1534.3 0
-1534.3 -274.944 0
0 0 0

-5669.3 -1574 0
-1574 -2677.91 0
0 0 0

-7110.82 846.804 0
846.804 2371.93 0
0 0 0

-5239.69 -4715.4 0
-4715.4 -236.325 0
0 0 0

-1387.14 -2516.09 0
-2516.09 153.905 0
0 0 0

-2295.13 915.157 0
915.157 -1568.35 0
0 0 0

1392.51 -2948.5 0
-2948.5 9073.11 0
0 0 0

-582.722 -384.192 0
-384.192 242.125 0
0 0 0

-2195.72 2927.19 0
2927.19 -1012.12 0
0 0 0

1686.27 573.852 0
573.852 4468.86 0
0 0 0

-3835.07 -2296.06 0
-2296.06 4168.79 0
0 0 0

1526.78 -2042.33 0
-2042.33 385.83 0
0 0 0

-1246.12 -502.667 0
-502.667 377.035 0
0 0 0

-4874.07 1322.66 0
1322.66 271.978 0
0 0 0

-838.841 -283.441 0
-283.441 1147.43 0
0 0 0

3282.97 -1825.21 0
-1825.21 811.501 0
0 0 0

-2311.96 -211.811 0
-211.811 -2.8406 0
0 0 0

-8363.75 -1569.42 0
-1569.42 -792.013 0
0 0 0

-8322.31 -706.313 0
-706.313 -2725.22 0
0 0 0

-13298.8 -453.065 0
-453.065 884.723 0
0 0 0

-9661.17 -2670.57 0
-2670.57 1829.56 0
0 0 0

-6322.39 -2777.13 0
-2777.13 -2462.61 0
0 0 0

-566.164 -693.809 0
-693.809 -83.1787 0
0 0 0

-4883.18 -219.867 0
-219.867 -391.545 0
0 0 0

2287.63 -127.043 0
-127.043 5636.28 0
0 0 0

469.775 398.92 0
398.92 -2195.57 0
0 0 0

3548.98 -1534.91 0
-1534.91 3883.17 0
0 0 0

-5161.27 1058.36 0
1058.36 -1829.34 0
0 0 0

-349.501 -1053.77 0
-1053.77 2124.94 0
0 0 0

5147.01 -1722.47 0
-1722.47 -426.221 0
0 0 0

-2711.47 -774.415 0
-774.415 314.252 0
0 0 0

-1617.32 -117.782 0
-117.782 -2585.69 0
0 0 0

-123.517 124.104 0
124.104 2965.64 0
0 0 0

TENSORS velocity_gradient double
2.05144 -5.27704 0
10.0634 -0.908394 0
0 0 0

-0.437489 -5.64982 0
8.41087 -1.13552 0
0 0 0

1.94641 -5.41313 0
10.795 0.0396137 0
0 0 0

2.06653 -6.98543 0
11.1443 -0.941554 0
0 0 0

0.485583 -8.12698 0
8.81165 -1.98329 0
0 0 0

1.366 -8.7282 0
10.5443 -3.16647 0
0 0 0

1.90668 -7.4004 0
10.3491 -0.807847 0
0 0 0

1.9626 -6.83187 0
11.5287 -1.25243 0
0 0 0

2.47979 -6.43907 0
10.34 -0.594954 0
0 0 0

0.823793 -5.43591 0
10.3809 -1.20093 0
0 0 0

2.24478 -6.53603 0
11.2368 -0.763736 0
0 0 0

2.11112 -6.72624 0
10.8764 -0.539756 0
0 0 0

-0.752694 -5.95248 0
11.3984 -1.3371 0
0 0 0

-0.532758 -9.40546 0
10.0813 0.50879 0
0 0 0

-0.590945 -8.28127 0
11.0786 -0.842446 0
0 0 0

0.302849 -8.95553 0
10.1152 -0.115714 0
0 0 0

2.49629 -5.85846 0
10.6692 -0.346145 0
0 0 0

2.41828 -6.50942 0
10.7134 -1.52472 0
0 0 0

2.51489 -7.58209 0
11.3725 -0.703689 0
0 0 0

1.14458 -6.55711 0
12.49 -1.59551 0
0 0 0

2.89255 -6.88321 0
10.1113 -1.10662 0
0 0 0

2.36922 -6.48322 0
9.95359 -1.41419 0
0 0 0

2.69523 -7.95291 0
9.94052 -1.41857 0
0 0 0

1.78881 -7.32984 0
9.93861 -1.41725 0
0 0 0

2.39204 -6.31672 0
10.9299 -1.22083 0
0 0 0

2.61257 -7.53974 0
10.9528 -0.515318 0
0 0 0

1.16453 -6.86774 0
9.86505 -0.477668 0
0 0 0

2.5201 -7.29483 0
10.9947 0.0543462 0
0 0 0

2.83658 -7.7198 0
11.6004 -1.03587 0
0 0 0

1.66054 -7.58709 0
9.90118 -0.696848 0
0 0 0

2.98522 -7.44662 0
12.0379 -0.458515 0
0 0 0

2.68844 -6.41748 0
11.489 -0.955807 0
0 0 0

1.50717 -8.75703 0
12.2542 0.324243 0
0 0 0

-0.0371179 -9.55582 0
13.3366 -1.10506 0
0 0 0

-2.42855 -8.64137 0
13.4473 0.249614 0
0 0 0

-1.68181 -11.6533 0
13.7221 -1.15735 0
0 0 0

-1.46256 -9.13203 0
13.4834 -1.38684 0
0 0 0

0.00753975 -7.8779 0
10.9839 -1.2676 0
0 0 0

-2.60987 -10.602 0
13.529 -1.32839 0
0 0 0

-2.88799 -5.16988 0
13.9938 0.0298445 0
0 0 0

1.45226 -6.36785 0
9.62659 -0.340745 0
0 0 0

2.05854 -6.81439 0
9.24674 -0.0609761 0
0 0 0

-1.05065 -5.71725 0
13.4426 -0.445197 0
0 0 0

2.43165 -6.25965 0
9.12707 -1.60834 0
0 0 0

2.70389 -7.05526 0
10.1314 -2.41157 0
0 0 0

2.34878 -6.90514 0
10.7984 -1.94728 0
0 0 0

2.99721 -6.64051 0
9.31117 -2.31817 0
0 0 0

3.42316 -6.84175 0
9.51453 -2.20781 0
0 0 0

-2.50126 -14.7379 0
13.5979 1.16327 0
0 0 0

-4.82321 -13.5577 0
15.5389 0.176744 0
0 0 0

-6.73574 -17.6731 0
2.7614 3.84649 0
0 0 0

-6.16537 -14.521 0
16.6419 1.48713 0
0 0 0

-5.32821 -5.7749 0
15.7285 0.264535 0
0 0 0

-2.31826 -4.33616 0
14.5651 0.86592 0
0 0 0

-5.09761 -1.5551 0
14.9965 -1.63523 0
0 0 0

-2.82976 -2.81872 0
12.0668 -0.00281794 0
0 0 0

-1.49765 -4.99758 0
15.3254 -0.263117 0
0 0 0

-0.857272 -5.72552 0
15.1115 -2.22512 0
0 0 0

-0.573176 -4.35931 0
14.3616 -3.28565 0
0 0 0

-0.425476 -5.10644 0
14.6975 -2.81865 0
0 0 0

3.38424 -6.13378 0
9.47816 -2.09955 0
0 0 0

2.71098 -7.74949 0
9.38833 -1.26473 0
0 0 0

0.546433 -7.68821 0
13.7845 -2.96964 0
0 0 0

1.84992 -9.10625 0
10.1097 -1.80524 0
0 0 0

SCALARS active double 1
LOOKUP_TABLE default
1
1
1
1
1
1
1
1
1
1
1
1
1
1
1
1
1
1
1
1
1
1
1
1
1
1
1
1
1
1
1
1
1
1
1
1
1
1
1
1
1
1
1
1
1
1
1
1
1
1
1
1
1
1
1
1
1
1
1
1
1
1
1
1
SCALARS extent double 1
LOOKUP_TABLE default
0.0125
0.0125
0.0125
0.0125
0.0125
0.0125
0.0125
0.0125
0.0125
0.0125
0.0125
0.0125
0.0125
0.0125
0.0125
0.0125
0.0125
0.0125
0.0125
0.0125
0.0125
0.0125
0.0125
0.0125
0.0125
0.0125
0.0125
0.0125
0.0125
0.0125
0.0125
0.0125
0.0125
0.0125
0.0125
0.0125
0.0125
0.0125
0.0125
0.0125
0.0125
0.0125
0.0125
0.0125
0.0125
0.0125
0.0125
0.0125
0.0125
0.0125
0.0125
0.0125
0.0125
0.0125
0.0125
0.0125
0.0125
0.0125
0.0125
0.0125
0.0125
0.0125
0.0125
0.0125
SCALARS pressure double 1
LOOKUP_TABLE default
2073.38
-2480.18
225.406
-4227.66
-1507.03
-826.306
485.52
-199.923
-5317.7
2335.33
-2796.84
1095.04
-199.059
-2271.82
2332.44
-1890.69
1042.16
900.705
-721.359
-873.191
2910.08
-1770.26
-127.46
2695.31
4782.96
-965.513
550.05
-995.699
-1137.95
-885.516
1129.01
1124.39
4173.61
2369.44
2738.01
616.616
1931.74
-5232.81
170.299
1603.92
-3077.57
-166.858
-956.306
434.544
2301.05
-154.295
-2047.24
1157.4
4577.88
5523.76
6207.05
3915.81
4392.5
324.671
2637.36
-3961.95
862.9
-3716.08
3495.3
-887.717
-2360.39
1198.61
2101.5
-1421.06
SCALARS density double 1
LOOKUP_TABLE default
1021.8
974.536
1002.35
956.985
984.449
991.443
1005.06
997.923
946.197
1024.58
971.332
1011.45
997.932
976.65
1024.55
980.529
1010.9
1009.41
992.526
990.96
1030.73
981.758
998.675
1028.43
1051
990.009
1005.74
989.698
988.235
990.833
1011.81
1011.76
1044.36
1024.95
1028.88
1006.43
1020.29
947.033
1001.77
1016.82
968.5
998.266
990.104
1004.53
1024.22
998.397
978.934
1012.11
1048.76
1059.13
1066.68
1041.57
1046.74
1003.38
1027.81
959.633
1009.01
962.09
1037.02
990.81
975.751
1012.54
1022.1
985.33
