# vtk DataFile Version 3.0
Frame: 25, Time: 0.434
ASCII
DATASET UNSTRUCTURED_GRID
POINTS 64 double
0.729924 0.42145 0 
0.752745 0.407976 0 
0.716535 0.399752 0 
0.739778 0.385594 0 
0.775456 0.39545 0 
0.798716 0.382458 0 
0.762803 0.373411 0 
0.786867 0.360549 0 
0.821202 0.368196 0 
0.843479 0.354629 0 
0.809838 0.345374 0 
0.832602 0.332001 0 
0.866057 0.342503 0 
0.888855 0.330741 0 
0.855004 0.32024 0 
0.877059 0.307373 0 
0.705585 0.3767 0 
0.728161 0.364051 0 
0.694534 0.352919 0 
0.717085 0.340938 0 
0.750877 0.351627 0 
0.774134 0.33945 0 
0.738899 0.32845 0 
0.762625 0.317002 0 
0.797057 0.324274 0 
0.81873 0.310458 0 
0.785576 0.303321 0 
0.807567 0.288442 0 
0.841558 0.298164 0 
0.86322 0.285355 0 
0.829416 0.27544 0 
0.851614 0.26265 0 
0.684846 0.329144 0 
0.706187 0.316856 0 
0.674189 0.306142 0 
0.696622 0.293592 0 
0.729335 0.306004 0 
0.752592 0.293488 0 
0.720936 0.282143 0 
0.742064 0.269969 0 
0.775019 0.28005 0 
0.796937 0.266263 0 
0.764023 0.256749 0 
0.785566 0.242803 0 
0.817847 0.252253 0 
0.839936 0.239292 0 
0.805247 0.229224 0 
0.827903 0.216524 0 
0.664585 0.283299 0 
0.686673 0.27162 0 
0.652102 0.260963 0 
0.673488 0.248879 0 
0.708828 0.25942 0 
0.730589 0.246794 0 
0.69523 0.237323 0 
0.717438 0.224613 0 
0.752894 0.233971 0 
0.773411 0.219087 0 
0.737987 0.212158 0 
0.758728 0.196982 0 
0.794731 0.20483 0 
0.817712 0.193587 0 
0.781413 0.183219 0 
0.804677 0.171697 0 
CELLS 64 128
1 0
1 1
1 2
1 3
1 4
1 5
1 6
1 7
1 8
1 9
1 10
1 11
1 12
1 13
1 14
1 15
1 16
1 17
1 18
1 19
1 20
1 21
1 22
1 23
1 24
1 25
1 26
1 27
1 28
1 29
1 30
1 31
1 32
1 33
1 34
1 35
1 36
1 37
1 38
1 39
1 40
1 41
1 42
1 43
1 44
1 45
1 46
1 47
1 48
1 49
1 50
1 51
1 52
1 53
1 54
1 55
1 56
1 57
1 58
1 59
1 60
1 61
1 62
1 63
CELL_TYPES 64
1
1
1
1
1
1
1
1
1
1
1
1
1
1
1
1
1
1
1
1
1
1
1
1
1
1
1
1
1
1
1
1
1
1
1
1
1
1
1
1
1
1
1
1
1
1
1
1
1
1
1
1
1
1
1
1
1
1
1
1
1
1
1
1
POINT_DATA 64
VECTORS displacement double
0.217424 -0.19105 0 
0.240245 -0.229524 0 
0.179035 -0.212748 0 
0.202278 -0.251906 0 
0.262956 -0.26705 0 
0.286216 -0.305042 0 
0.225303 -0.289089 0 
0.249367 -0.326951 0 
0.308702 -0.344304 0 
0.330979 -0.382871 0 
0.272338 -0.367126 0 
0.295102 -0.405499 0 
0.353557 -0.419997 0 
0.376355 -0.456759 0 
0.317504 -0.44226 0 
0.339559 -0.480127 0 
0.143085 -0.2358 0 
0.165661 -0.273449 0 
0.107034 -0.259581 0 
0.129585 -0.296562 0 
0.188377 -0.310873 0 
0.211634 -0.34805 0 
0.151399 -0.33405 0 
0.175125 -0.370498 0 
0.234557 -0.388226 0 
0.25623 -0.427042 0 
0.198076 -0.409179 0 
0.220067 -0.449058 0 
0.279058 -0.464336 0 
0.30072 -0.502145 0 
0.241916 -0.48706 0 
0.264114 -0.52485 0 
0.0723459 -0.283356 0 
0.0936874 -0.320644 0 
0.0366892 -0.306358 0 
0.0591225 -0.343908 0 
0.116835 -0.356496 0 
0.140092 -0.394012 0 
0.0834363 -0.380357 0 
0.104564 -0.417531 0 
0.162519 -0.43245 0 
0.184437 -0.471237 0 
0.126523 -0.455751 0 
0.148066 -0.494697 0 
0.205347 -0.510247 0 
0.227436 -0.548208 0 
0.167747 -0.533276 0 
0.190403 -0.570976 0 
0.00208477 -0.329201 0 
0.0241726 -0.36588 0 
-0.0353975 -0.351537 0 
-0.0140119 -0.388621 0 
0.0463284 -0.40308 0 
0.0680887 -0.440706 0 
0.0077298 -0.425177 0 
0.0299383 -0.462887 0 
0.0903945 -0.478529 0 
0.110911 -0.518413 0 
0.0504872 -0.500342 0 
0.0712276 -0.540518 0 
0.132231 -0.55767 0 
0.155212 -0.593913 0 
0.0939133 -0.579281 0 
0.117177 -0.615803 0 
VECTORS velocity double
3.91355 0.96629 0 
3.79167 0.410246 0 
3.06688 1.52654 0 
2.65712 0.48194 0 
3.65951 0.205758 0 
3.94946 -0.180815 0 
2.28159 0.676706 0 
2.43242 0.200907 0 
3.51385 -0.776798 0 
2.75988 -1.361 0 
2.07049 -0.28113 0 
1.65755 -0.79228 0 
2.48742 -0.891352 0 
2.21603 -2.03241 0 
1.48826 -0.649141 0 
1.09041 -1.89209 0 
3.28287 1.57998 0 
2.9804 0.555065 0 
2.61283 1.8037 0 
2.43646 0.881447 0 
2.95505 1.2642 0 
3.06078 0.546991 0 
2.31645 1.13548 0 
2.30734 0.548319 0 
2.32759 -0.261564 0 
1.7855 -0.501009 0 
1.50144 -0.602181 0 
1.05731 -0.874336 0 
1.52709 -0.391331 0 
1.07747 -1.44499 0 
0.876958 -0.332228 0 
0.732689 -1.08836 0 
2.22997 1.52229 0 
2.01038 1.14924 0 
1.8888 2.05824 0 
1.7294 1.5677 0 
2.00741 0.967397 0 
1.53954 0.917941 0 
1.7618 1.12013 0 
1.0592 1.17957 0 
1.23459 -0.30514 0 
0.803952 -0.905146 0 
0.492292 -0.191628 0 
0.60501 -0.712947 0 
0.190633 -0.449699 0 
0.278098 -0.963716 0 
0.172845 -0.293736 0 
-0.116748 -1.18177 0 
1.91128 2.36649 0 
1.61661 1.44524 0 
0.728197 2.64353 0 
0.421452 1.68071 0 
1.5248 1.26992 0 
1.06266 1.3033 0 
0.187023 1.99101 0 
-0.464411 1.42581 0 
0.714738 0.588895 0 
0.672767 -0.0532942 0 
-0.649931 0.569622 0 
-0.662178 0.472891 0 
0.58038 -0.0739688 0 
-0.193932 -1.88543 0 
-1.26867 0.517865 0 
-2.13765 -1.14643 0 
SCALARS mass double 1
LOOKUP_TABLE default
0.625
0.625
0.625
0.625
0.625
0.625
0.625
0.625
0.625
0.625
0.625
0.625
0.625
0.625
0.625
0.625
0.625
0.625
0.625
0.625
0.625
0.625
0.625
0.625
0.625
0.625
0.625
0.625
0.625
0.625
0.625
0.625
0.625
0.625
0.625
0.625
0.625
0.625
0.625
0.625
0.625
0.625
0.625
0.625
0.625
0.625
0.625
0.625
0.625
0.625
0.625
0.625
0.625
0.625
0.625
0.625
0.625
0.625
0.625
0.625
0.625
0.625
0.625
0.625
SCALARS volume double 1
LOOKUP_TABLE default
0.000636757
0.000654793
0.000631522
0.000647246
0.000657014
0.000663867
0.000620608
0.000639973
0.000638606
0.000622082
0.000663421
0.000637938
0.000629806
0.000631038
0.00060302
0.000643006
0.00065072
0.000635209
0.000648377
0.000620552
0.000651071
0.000674749
0.000630231
0.000629043
0.000607117
0.000633602
0.000658566
0.000633293
0.000625299
0.000631621
0.00064602
0.000629357
0.000619403
0.000640216
0.000602675
0.000648698
0.000610971
0.000662658
0.000633678
0.000633581
0.000654471
0.00059675
0.000675108
0.000598346
0.00063668
0.000640504
0.000640233
0.000644322
0.000609303
0.000618055
0.00063504
0.000608929
0.000620907
0.000626532
0.000625483
0.000640223
0.000623816
0.000641847
0.00062813
0.000638651
0.000627867
0.000635079
0.000645292
0.000648772
VECTORS momentum double
2.44597 0.603932 0 
2.36979 0.256403 0 
1.9168 0.954086 0 
1.6607 0.301212 0 
2.28719 0.128599 0 
2.46841 -0.113009 0 
1.426 0.422941 0 
1.52026 0.125567 0 
2.19616 -0.485499 0 
1.72492 -0.850625 0 
1.29406 -0.175706 0 
1.03597 -0.495175 0 
1.55463 -0.557095 0 
1.38502 -1.27026 0 
0.930165 -0.405713 0 
0.681509 -1.18256 0 
2.05179 0.987488 0 
1.86275 0.346916 0 
1.63302 1.12731 0 
1.52279 0.550904 0 
1.84691 0.790124 0 
1.91299 0.34187 0 
1.44778 0.709674 0 
1.44209 0.342699 0 
1.45475 -0.163478 0 
1.11594 -0.313131 0 
0.938401 -0.376363 0 
0.660818 -0.54646 0 
0.95443 -0.244582 0 
0.67342 -0.903119 0 
0.548099 -0.207642 0 
0.45793 -0.680228 0 
1.39373 0.951434 0 
1.25649 0.718275 0 
1.1805 1.2864 0 
1.08087 0.97981 0 
1.25463 0.604623 0 
0.962214 0.573713 0 
1.10113 0.700078 0 
0.661999 0.73723 0 
0.771616 -0.190712 0 
0.50247 -0.565716 0 
0.307682 -0.119768 0 
0.378131 -0.445592 0 
0.119146 -0.281062 0 
0.173811 -0.602323 0 
0.108028 -0.183585 0 
-0.0729675 -0.738607 0 
1.19455 1.47906 0 
1.01038 0.903274 0 
0.455123 1.6522 0 
0.263408 1.05044 0 
0.953002 0.793698 0 
0.664162 0.81456 0 
0.116889 1.24438 0 
-0.290257 0.891129 0 
0.446711 0.36806 0 
0.420479 -0.0333089 0 
-0.406207 0.356014 0 
-0.413862 0.295557 0 
0.362738 -0.0462305 0 
-0.121208 -1.17839 0 
-0.792921 0.323666 0 
-1.33603 -0.716519 0 
VECTORS body_force double
0 -9.81 0 
0 -9.81 0 
0 -9.81 0 
0 -9.81 0 
0 -9.81 0 
0 -9.81 0 
0 -9.81 0 
0 -9.81 0 
0 -9.81 0 
0 -9.81 0 
0 -9.81 0 
0 -9.81 0 
0 -9.81 0 
0 -9.81 0 
0 -9.81 0 
0 -9.81 0 
0 -9.81 0 
0 -9.81 0 
0 -9.81 0 
0 -9.81 0 
0 -9.81 0 
0 -9.81 0 
0 -9.81 0 
0 -9.81 0 
0 -9.81 0 
0 -9.81 0 
0 -9.81 0 
0 -9.81 0 
0 -9.81 0 
0 -9.81 0 
0 -9.81 0 
0 -9.81 0 
0 -9.81 0 
0 -9.81 0 
0 -9.81 0 
0 -9.81 0 
0 -9.81 0 
0 -9.81 0 
0 -9.81 0 
0 -9.81 0 
0 -9.81 0 
0 -9.81 0 
0 -9.81 0 
0 -9.81 0 
0 -9.81 0 
0 -9.81 0 
0 -9.81 0 
0 -9.81 0 
0 -9.81 0 
0 -9.81 0 
0 -9.81 0 
0 -9.81 0 
0 -9.81 0 
0 -9.81 0 
0 -9.81 0 
0 -9.81 0 
0 -9.81 0 
0 -9.81 0 
0 -9.81 0 
0 -9.81 0 
0 -9.81 0 
0 -9.81 0 
0 -9.81 0 
0 -9.81 0 
TENSORS cauchy_stress double
3310.57 -530.703 0
-530.703 273.248 0
0 0 0

4458.21 -1275.94 0
-1275.94 4497 0
0 0 0

3962.83 74.0559 0
74.0559 -1966.47 0
0 0 0

898.335 -5465.92 0
-5465.92 5827.49 0
0 0 0

5715.1 399.899 0
399.899 3891.42 0
0 0 0

5867.45 -2389.44 0
-2389.44 5734.6 0
0 0 0

3894.24 -810.985 0
-810.985 -5250.28 0
0 0 0

4085.23 -6061.23 0
-6061.23 467.447 0
0 0 0

141.398 -4139.81 0
-4139.81 4000.01 0
0 0 0

-935.819 -1802.27 0
-1802.27 35.8717 0
0 0 0

4820.44 -3665.95 0
-3665.95 6652.19 0
0 0 0

1959.46 -881.167 0
-881.167 1980.93 0
0 0 0

-689.615 -2404.7 0
-2404.7 2162.58 0
0 0 0

503.327 649.335 0
649.335 1345.74 0
0 0 0

-6208.9 -310.538 0
-310.538 -675.91 0
0 0 0

4310.92 1990.17 0
1990.17 1151.04 0
0 0 0

1992.2 1927.2 0
1927.2 5763.17 0
0 0 0

1032.56 -2660.9 0
-2660.9 2083.34 0
0 0 0

2340.71 -14.4442 0
-14.4442 4720.95 0
0 0 0

-4452.49 405.581 0
405.581 3078.9 0
0 0 0

5245.48 2956.85 0
2956.85 2613.64 0
0 0 0

6406.59 -2605.36 0
-2605.36 8322.04 0
0 0 0

-925.07 -6191.6 0
-6191.6 2527.78 0
0 0 0

-1203.32 -3430.89 0
-3430.89 2443.22 0
0 0 0

-5116.26 -6530.49 0
-6530.49 -466.397 0
0 0 0

3159.39 -243.155 0
-243.155 -530.653 0
0 0 0

2087.44 -5346.92 0
-5346.92 7972.78 0
0 0 0

-1084.31 -4095.48 0
-4095.48 3619.28 0
0 0 0

1535.76 1791.85 0
1791.85 -1443.75 0
0 0 0

2501.6 280.223 0
280.223 -475.001 0
0 0 0

20.2079 -1128.06 0
-1128.06 6341.24 0
0 0 0

-1060.12 -996.579 0
-996.579 2396.02 0
0 0 0

-3070.28 28.9532 0
28.9532 1340.4 0
0 0 0

-1854.78 -1954.14 0
-1954.14 6480.58 0
0 0 0

-2907.51 -889.474 0
-889.474 -4087.48 0
0 0 0

5904.25 -4256.57 0
-4256.57 1252.74 0
0 0 0

-626.816 -2284.47 0
-2284.47 -3738.92 0
0 0 0

4962.03 -2022.06 0
-2022.06 6289.52 0
0 0 0

-1790.07 -987.345 0
-987.345 4441.97 0
0 0 0

-5015.11 1783.1 0
1783.1 7637.31 0
0 0 0

1803.28 -2296.15 0
-2296.15 7057.32 0
0 0 0

-9282.08 -4688.39 0
-4688.39 387.217 0
0 0 0

3365.95 -6305.64 0
-6305.64 11465.1 0
0 0 0

-13898.7 1993.91 0
1993.91 5517.39 0
0 0 0

-1050.69 -263.183 0
-263.183 4611.33 0
0 0 0

-893.029 821.684 0
821.684 5605.14 0
0 0 0

1133.69 1552.75 0
1552.75 3497.23 0
0 0 0

6304.05 -2405.78 0
-2405.78 -448.786 0
0 0 0

-758.954 1552.71 0
1552.71 -4132.55 0
0 0 0

-838.044 1387.1 0
1387.1 -1310.88 0
0 0 0

1370.42 437.426 0
437.426 1694.14 0
0 0 0

-6225.91 1732.35 0
1732.35 1216.23 0
0 0 0

-1094.81 1945.61 0
1945.61 -168.564 0
0 0 0

1822.2 -5.21159 0
-5.21159 -1351.39 0
0 0 0

418.882 1049.07 0
1049.07 -270.463 0
0 0 0

1668.41 1236.33 0
1236.33 2959.33 0
0 0 0

-2530.22 -962.541 0
-962.541 2165.6 0
0 0 0

-595.134 31.1418 0
31.1418 5710.1 0
0 0 0

-4754.79 2363.44 0
2363.44 5715.34 0
0 0 0

425.663 -2253.89 0
-2253.89 3729.38 0
0 0 0

-696.599 -885.395 0
-885.395 1576.59 0
0 0 0

1096.58 84.5234 0
84.5234 1979.92 0
0 0 0

2683.09 -1897.16 0
-1897.16 3461.31 0
0 0 0

4202.26 3685.81 0
3685.81 2976.47 0
0 0 0

TENSORS velocity_gradient double
-0.918738 11.2497 0
-10.021 -0.842937 0
0 0 0

1.00534 9.04451 0
-12.8597 -0.405953 0
0 0 0

0.473123 12.362 0
-10.4569 -1.97924 0
0 0 0

1.12905 11.5117 0
-10.6309 -2.29374 0
0 0 0

3.3742 13.0133 0
-16.2842 -0.721795 0
0 0 0

1.11047 17.7277 0
-16.8507 0.636705 0
0 0 0

0.351345 12.4178 0
-17.6334 -1.53957 0
0 0 0

-1.51027 16.0492 0
-18.4117 -0.0213117 0
0 0 0

-4.41739 20.3757 0
-15.749 0.900877 0
0 0 0

-5.74561 22.5056 0
-15.6482 0.750354 0
0 0 0

-5.92988 20.5318 0
-15.0173 3.58953 0
0 0 0

-5.21508 19.2013 0
-13.5059 1.1796 0
0 0 0

-0.917803 16.9868 0
-13.7276 -0.447736 0
0 0 0

-0.185511 15.5142 0
-14.3906 0.885519 0
0 0 0

-0.665368 17.6762 0
-14.3211 -0.792861 0
0 0 0

1.32104 16.2452 0
-15.7547 0.223704 0
0 0 0

1.79112 13.0256 0
-9.64962 -2.78063 0
0 0 0

2.05191 11.9937 0
-10.8575 -2.41211 0
0 0 0

4.07397 13.8423 0
-8.92588 -3.22398 0
0 0 0

1.8323 15.552 0
-12.2725 -0.700998 0
0 0 0

0.494509 14.2882 0
-13.9943 0.233002 0
0 0 0

-3.73438 19.5562 0
-19.3433 4.28428 0
0 0 0

0.907781 17.2188 0
-13.799 2.05107 0
0 0 0

-5.10936 18.8786 0
-19.9215 3.99933 0
0 0 0

-4.63026 20.8952 0
-18.988 4.78641 0
0 0 0

-3.7415 20.1201 0
-10.7914 2.87204 0
0 0 0

-5.73625 20.2294 0
-20.2456 3.85855 0
0 0 0

-2.37019 18.6263 0
-8.91722 1.31679 0
0 0 0

-2.96488 17.4855 0
-9.57526 -0.123054 0
0 0 0

3.43945 14.7824 0
-13.6693 -2.92874 0
0 0 0

-1.65029 17.3821 0
-8.3472 0.331601 0
0 0 0

3.02859 15.9135 0
-8.64547 -1.18425 0
0 0 0

3.41078 13.5987 0
-10.4574 -3.57409 0
0 0 0

0.480047 14.7837 0
-14.5992 -1.94773 0
0 0 0

2.30803 13.8185 0
-11.8174 -3.90234 0
0 0 0

1.56885 18.4411 0
-12.7954 -1.69198 0
0 0 0

-0.799873 16.9062 0
-16.5752 0.786324 0
0 0 0

-3.9898 21.6951 0
-19.2442 0.710851 0
0 0 0

-2.54963 19.9135 0
-18.1505 -0.667188 0
0 0 0

-3.39778 21.4566 0
-18.7078 0.346787 0
0 0 0

-4.86614 20.6227 0
-20.6744 1.16677 0
0 0 0

-3.49554 19.2348 0
-18.5071 1.46207 0
0 0 0

-3.39479 21.2832 0
-21.0597 0.993811 0
0 0 0

-2.50795 16.1109 0
-21.0235 0.675432 0
0 0 0

-0.497839 17.3974 0
-7.65778 1.45614 0
0 0 0

-0.540349 16.539 0
-8.77999 6.80033 0
0 0 0

-0.989109 15.3342 0
-11.4914 1.29779 0
0 0 0

-1.37733 16.1097 0
-12.4798 4.90288 0
0 0 0

1.69732 17.7792 0
-12.5472 -2.44238 0
0 0 0

1.4704 18.2214 0
-12.8118 -1.9268 0
0 0 0

1.25882 16.6451 0
-12.0539 -2.81078 0
0 0 0

-0.0797312 15.9474 0
-12.8837 1.46528 0
0 0 0

-4.20277 19.0712 0
-19.2367 -1.22063 0
0 0 0

-4.31875 20.1395 0
-19.6421 0.888489 0
0 0 0

-2.66296 20.7402 0
-12.7011 1.1322 0
0 0 0

-2.796 20.9864 0
-19.9963 0.925025 0
0 0 0

-2.36264 18.3642 0
-20.5363 1.2767 0
0 0 0

-0.860588 16.9213 0
-20.5338 0.916319 0
0 0 0

-1.89533 19.4253 0
-20.1675 1.22171 0
0 0 0

-0.559674 19.802 0
-20.7252 -2.42432 0
0 0 0

-0.19568 16.4102 0
-19.7956 0.579134 0
0 0 0

-2.12141 27.8479 0
-16.0274 3.54116 0
0 0 0

-2.71128 24.7672 0
-22.0591 -0.884608 0
0 0 0

-2.66498 28.2506 0
-19.1237 1.93254 0
0 0 0

SCALARS active double 1
LOOKUP_TABLE default
1
1
1
1
1
1
1
1
1
1
1
1
1
1
1
1
1
1
1
1
1
1
1
1
1
1
1
1
1
1
1
1
1
1
1
1
1
1
1
1
1
1
1
1
1
1
1
1
1
1
1
1
1
1
1
1
1
1
1
1
1
1
1
1
SCALARS extent double 1
LOOKUP_TABLE default
0.0125
0.0125
0.0125
0.0125
0.0125
0.0125
0.0125
0.0125
0.0125
0.0125
0.0125
0.0125
0.0125
0.0125
0.0125
0.0125
0.0125
0.0125
0.0125
0.0125
0.0125
0.0125
0.0125
0.0125
0.0125
0.0125
0.0125
0.0125
0.0125
0.0125
0.0125
0.0125
0.0125
0.0125
0.0125
0.0125
0.0125
0.0125
0.0125
0.0125
0.0125
0.0125
0.0125
0.0125
0.0125
0.0125
0.0125
0.0125
0.0125
0.0125
0.0125
0.0125
0.0125
0.0125
0.0125
0.0125
0.0125
0.0125
0.0125
0.0125
0.0125
0.0125
0.0125
0.0125
SCALARS pressure double 1
LOOKUP_TABLE default
-1791.91
-4477.6
-998.179
-3362.91
-4803.26
-5801.02
678.02
-2276.34
-2070.7
449.974
-5736.31
-1970.2
-736.482
-924.536
3442.4
-2730.98
-3877.68
-1557.95
-3530.83
686.798
-3929.56
-7364.32
-801.355
-619.952
2791.33
-1314.37
-5030.11
-1267.49
-46.0073
-1013.3
-3180.72
-667.954
864.937
-2312.9
3497.49
-3578.49
2182.87
-5625.77
-1325.95
-1311.1
-4430.3
4447.43
-7415.53
4190.66
-1780.32
-2356.06
-2315.46
-2927.63
2445.75
1074.46
-1532.28
2504.84
631.686
-235.405
-74.2093
-2313.87
182.309
-2557.48
-480.275
-2077.52
-439.998
-1538.25
-3072.2
-3589.37
SCALARS density double 1
LOOKUP_TABLE default
981.537
954.501
989.673
965.63
951.273
941.453
1007.08
976.604
978.695
1004.69
942.087
979.718
992.37
990.431
1036.45
971.997
960.474
983.928
963.945
1007.17
959.956
926.271
991.701
993.573
1029.46
986.424
949.032
986.905
999.522
989.517
967.462
993.077
1009.04
976.233
1037.04
963.468
1022.96
943.171
986.305
986.457
954.97
1047.34
925.777
1044.55
981.655
975.795
976.207
970.011
1025.76
1011.24
984.191
1026.39
1006.59
997.555
999.229
976.223
1001.9
973.753
995.018
978.626
995.434
984.129
968.554
963.359
