# vtk DataFile Version 3.0
Frame: 43, Time: 0.734
ASCII
DATASET UNSTRUCTURED_GRID
POINTS 64 double
0.694852 0.194499 0 
0.689481 0.169771 0 
0.66662 0.199662 0 
0.661725 0.173807 0 
0.684278 0.146209 0 
0.678661 0.122372 0 
0.658274 0.150344 0 
0.651668 0.125466 0 
0.674249 0.099635 0 
0.669728 0.077229 0 
0.646614 0.101913 0 
0.643114 0.0787852 0 
0.669386 0.05411 0 
0.668322 0.0338758 0 
0.640523 0.0561111 0 
0.638601 0.0345374 0 
0.641832 0.202343 0 
0.635713 0.176993 0 
0.616497 0.206698 0 
0.610628 0.179888 0 
0.631681 0.153127 0 
0.625944 0.129296 0 
0.605844 0.156849 0 
0.600004 0.132576 0 
0.620008 0.105525 0 
0.616249 0.0825685 0 
0.594401 0.10853 0 
0.589681 0.0851354 0 
0.613263 0.0587403 0 
0.609634 0.0364105 0 
0.586493 0.0614973 0 
0.582706 0.0388816 0 
0.59178 0.209799 0 
0.584366 0.184905 0 
0.566731 0.213714 0 
0.559246 0.189054 0 
0.580476 0.161069 0 
0.574004 0.13662 0 
0.553335 0.164208 0 
0.548282 0.139801 0 
0.56784 0.112603 0 
0.563304 0.0885423 0 
0.541401 0.116637 0 
0.537095 0.0931751 0 
0.559069 0.0652501 0 
0.554353 0.0424949 0 
0.531281 0.0694127 0 
0.525722 0.045368 0 
0.541906 0.218554 0 
0.534562 0.194612 0 
0.516977 0.226138 0 
0.50944 0.20168 0 
0.528683 0.16952 0 
0.522408 0.144639 0 
0.504131 0.176299 0 
0.496689 0.152796 0 
0.516094 0.12028 0 
0.510425 0.0959089 0 
0.490451 0.128782 0 
0.484976 0.103293 0 
0.504316 0.0707122 0 
0.499129 0.0466703 0 
0.478516 0.078731 0 
0.473989 0.052662 0 
CELLS 64 128
1 0
1 1
1 2
1 3
1 4
1 5
1 6
1 7
1 8
1 9
1 10
1 11
1 12
1 13
1 14
1 15
1 16
1 17
1 18
1 19
1 20
1 21
1 22
1 23
1 24
1 25
1 26
1 27
1 28
1 29
1 30
1 31
1 32
1 33
1 34
1 35
1 36
1 37
1 38
1 39
1 40
1 41
1 42
1 43
1 44
1 45
1 46
1 47
1 48
1 49
1 50
1 51
1 52
1 53
1 54
1 55
1 56
1 57
1 58
1 59
1 60
1 61
1 62
1 63
CELL_TYPES 64
1
1
1
1
1
1
1
1
1
1
1
1
1
1
1
1
1
1
1
1
1
1
1
1
1
1
1
1
1
1
1
1
1
1
1
1
1
1
1
1
1
1
1
1
1
1
1
1
1
1
1
1
1
1
1
1
1
1
1
1
1
1
1
1
POINT_DATA 64
VECTORS displacement double
0.182352 -0.418001 0 
0.176981 -0.467729 0 
0.12912 -0.412838 0 
0.124225 -0.463693 0 
0.171778 -0.516291 0 
0.166161 -0.565128 0 
0.120774 -0.512156 0 
0.114168 -0.562034 0 
0.161749 -0.612865 0 
0.157228 -0.660271 0 
0.109114 -0.610587 0 
0.105614 -0.658715 0 
0.156886 -0.70839 0 
0.155822 -0.753624 0 
0.103023 -0.706389 0 
0.101101 -0.752963 0 
0.0793319 -0.410157 0 
0.0732125 -0.460507 0 
0.0289971 -0.405802 0 
0.0231276 -0.457612 0 
0.0691812 -0.509373 0 
0.063444 -0.558204 0 
0.0183443 -0.505651 0 
0.012504 -0.554924 0 
0.0575077 -0.606975 0 
0.0537491 -0.654932 0 
0.00690076 -0.60397 0 
0.00218083 -0.652365 0 
0.0507635 -0.70376 0 
0.0471335 -0.75109 0 
-0.00100686 -0.701003 0 
-0.00479391 -0.748618 0 
-0.0207204 -0.402701 0 
-0.0281338 -0.452595 0 
-0.0707694 -0.398786 0 
-0.0782538 -0.448446 0 
-0.0320238 -0.501431 0 
-0.0384955 -0.55088 0 
-0.084165 -0.498292 0 
-0.0892183 -0.547699 0 
-0.0446599 -0.599897 0 
-0.0491958 -0.648958 0 
-0.0960989 -0.595863 0 
-0.100405 -0.644325 0 
-0.0534308 -0.69725 0 
-0.0581474 -0.745005 0 
-0.106219 -0.693087 0 
-0.111778 -0.742132 0 
-0.120594 -0.393946 0 
-0.127938 -0.442888 0 
-0.170523 -0.386362 0 
-0.17806 -0.43582 0 
-0.133817 -0.49298 0 
-0.140092 -0.542861 0 
-0.183369 -0.486201 0 
-0.190811 -0.534704 0 
-0.146406 -0.59222 0 
-0.152075 -0.641591 0 
-0.197049 -0.583718 0 
-0.202524 -0.634207 0 
-0.158184 -0.691788 0 
-0.163371 -0.74083 0 
-0.208984 -0.683769 0 
-0.213511 -0.734838 0 
VECTORS velocity double
-2.63588 2.49097 0 
-1.95473 2.37541 0 
-2.92875 2.05665 0 
-2.29684 1.9222 0 
-1.58711 2.01632 0 
-1.52602 2.3815 0 
-1.85843 1.73714 0 
-1.38572 1.49911 0 
-1.30493 2.05186 0 
-1.27429 1.55331 0 
-1.22356 1.56552 0 
-1.32615 0.689379 0 
-1.07498 1.9726 0 
-0.0654037 0.379675 0 
-0.859009 0.931093 0 
0.256684 -0.00049974 0 
-2.78708 1.51828 0 
-1.87602 0.991909 0 
-2.82477 1.89155 0 
-2.20732 1.50942 0 
-2.12724 1.37538 0 
-1.42874 0.839389 0 
-2.21567 1.41506 0 
-1.53802 1.41501 0 
-0.985475 0.752577 0 
-0.787844 0.491651 0 
-1.09245 1.14253 0 
-0.846673 0.840546 0 
-0.836468 0.572828 0 
-0.07272 0.142086 0 
-0.989054 1.28491 0 
-0.5381 0.633538 0 
-2.67985 1.30276 0 
-1.91103 1.24699 0 
-2.66269 1.42844 0 
-2.12696 1.00348 0 
-1.61005 0.881749 0 
-0.995529 0.914252 0 
-2.05511 1.27755 0 
-1.77749 1.18881 0 
-0.482575 0.894688 0 
-0.549591 0.964018 0 
-1.45489 0.552559 0 
-1.05208 1.09422 0 
-0.827897 0.837197 0 
-0.0353173 0.359866 0 
-0.873495 1.03653 0 
0.151615 0.397946 0 
-2.54732 1.37618 0 
-2.10289 1.00494 0 
-2.87433 0.525562 0 
-2.34942 0.522932 0 
-1.75043 1.00471 0 
-1.47737 1.03854 0 
-2.26441 0.182923 0 
-1.96641 0.247717 0 
-0.817107 0.868368 0 
-0.775996 0.866905 0 
-1.36344 0.301835 0 
-1.22667 0.186119 0 
-0.518538 0.529052 0 
0.204177 0.617539 0 
-0.653143 0.395121 0 
-0.170716 -0.00845636 0 
SCALARS mass double 1
LOOKUP_TABLE default
0.625
0.625
0.625
0.625
0.625
0.625
0.625
0.625
0.625
0.625
0.625
0.625
0.625
0.625
0.625
0.625
0.625
0.625
0.625
0.625
0.625
0.625
0.625
0.625
0.625
0.625
0.625
0.625
0.625
0.625
0.625
0.625
0.625
0.625
0.625
0.625
0.625
0.625
0.625
0.625
0.625
0.625
0.625
0.625
0.625
0.625
0.625
0.625
0.625
0.625
0.625
0.625
0.625
0.625
0.625
0.625
0.625
0.625
0.625
0.625
0.625
0.625
0.625
0.625
SCALARS volume double 1
LOOKUP_TABLE default
0.000627241
0.000610216
0.000639488
0.000640126
0.000621001
0.0005986
0.000597055
0.000604154
0.000581949
0.000565061
0.000626804
0.000587249
0.000638527
0.000485851
0.000629262
0.000506569
0.000628281
0.000625609
0.000623212
0.000619476
0.000599321
0.000619924
0.000613423
0.000599396
0.000595146
0.000604285
0.000607723
0.000601839
0.00061998
0.000509011
0.000597731
0.000529829
0.000612352
0.000614989
0.000623981
0.000631238
0.000597595
0.000639509
0.000618564
0.000613425
0.000627362
0.000618126
0.000628498
0.000606215
0.000630523
0.000575697
0.000637162
0.000616961
0.000616542
0.000618269
0.000629185
0.000627395
0.000598172
0.00063003
0.000618179
0.000630763
0.000615603
0.000616585
0.000607744
0.000627944
0.000612835
0.000610152
0.00062568
0.000644794
VECTORS momentum double
-1.64742 1.55686 0 
-1.22171 1.48463 0 
-1.83047 1.2854 0 
-1.43553 1.20137 0 
-0.991945 1.2602 0 
-0.953765 1.48844 0 
-1.16152 1.08571 0 
-0.866075 0.936943 0 
-0.815581 1.28241 0 
-0.796432 0.970818 0 
-0.764723 0.978453 0 
-0.828845 0.430862 0 
-0.671864 1.23288 0 
-0.0408773 0.237297 0 
-0.53688 0.581933 0 
0.160428 -0.000312337 0 
-1.74193 0.948926 0 
-1.17251 0.619943 0 
-1.76548 1.18222 0 
-1.37958 0.943385 0 
-1.32952 0.859611 0 
-0.892962 0.524618 0 
-1.3848 0.88441 0 
-0.961265 0.884382 0 
-0.615922 0.470361 0 
-0.492403 0.307282 0 
-0.682779 0.714082 0 
-0.529171 0.525341 0 
-0.522792 0.358017 0 
-0.04545 0.088804 0 
-0.618159 0.803068 0 
-0.336312 0.395961 0 
-1.67491 0.814224 0 
-1.19439 0.779371 0 
-1.66418 0.892774 0 
-1.32935 0.627174 0 
-1.00628 0.551093 0 
-0.622205 0.571408 0 
-1.28444 0.798467 0 
-1.11093 0.743006 0 
-0.301609 0.55918 0 
-0.343495 0.602511 0 
-0.909305 0.345349 0 
-0.657551 0.683886 0 
-0.517436 0.523248 0 
-0.0220733 0.224916 0 
-0.545934 0.647831 0 
0.0947595 0.248717 0 
-1.59208 0.860113 0 
-1.31431 0.628087 0 
-1.79645 0.328476 0 
-1.46839 0.326833 0 
-1.09402 0.627944 0 
-0.923355 0.649085 0 
-1.41526 0.114327 0 
-1.22901 0.154823 0 
-0.510692 0.54273 0 
-0.484997 0.541816 0 
-0.852147 0.188647 0 
-0.766671 0.116324 0 
-0.324086 0.330657 0 
0.12761 0.385962 0 
-0.408215 0.246951 0 
-0.106698 -0.00528523 0 
VECTORS body_force double
0 -9.81 0 
0 -9.81 0 
0 -9.81 0 
0 -9.81 0 
0 -9.81 0 
0 -9.81 0 
0 -9.81 0 
0 -9.81 0 
0 -9.81 0 
0 -9.81 0 
0 -9.81 0 
0 -9.81 0 
0 -9.81 0 
0 -9.81 0 
0 -9.81 0 
0 -9.81 0 
0 -9.81 0 
0 -9.81 0 
0 -9.81 0 
0 -9.81 0 
0 -9.81 0 
0 -9.81 0 
0 -9.81 0 
0 -9.81 0 
0 -9.81 0 
0 -9.81 0 
0 -9.81 0 
0 -9.81 0 
0 -9.81 0 
0 -9.81 0 
0 -9.81 0 
0 -9.81 0 
0 -9.81 0 
0 -9.81 0 
0 -9.81 0 
0 -9.81 0 
0 -9.81 0 
0 -9.81 0 
0 -9.81 0 
0 -9.81 0 
0 -9.81 0 
0 -9.81 0 
0 -9.81 0 
0 -9.81 0 
0 -9.81 0 
0 -9.81 0 
0 -9.81 0 
0 -9.81 0 
0 -9.81 0 
0 -9.81 0 
0 -9.81 0 
0 -9.81 0 
0 -9.81 0 
0 -9.81 0 
0 -9.81 0 
0 -9.81 0 
0 -9.81 0 
0 -9.81 0 
0 -9.81 0 
0 -9.81 0 
0 -9.81 0 
0 -9.81 0 
0 -9.81 0 
0 -9.81 0 
TENSORS cauchy_stress double
1295.33 -1240.75 0
-1240.75 -606.966 0
0 0 0

-1611.62 -3516.73 0
-3516.73 -2992.09 0
0 0 0

3406.38 1626.39 0
1626.39 1000.53 0
0 0 0

5572.28 1547.21 0
1547.21 -973.436 0
0 0 0

1058.23 -1991.2 0
-1991.2 -2292.49 0
0 0 0

-673.791 -3201.39 0
-3201.39 -7625.85 0
0 0 0

-129.567 1527.04 0
1527.04 -8667.21 0
0 0 0

-15.9519 3309.86 0
3309.86 -6507.6 0
0 0 0

-2049.22 -1036.86 0
-1036.86 -11675.6 0
0 0 0

-2665.18 -1875.05 0
-1875.05 -16722.8 0
0 0 0

5486.34 2381.81 0
2381.81 -4932.02 0
0 0 0

1600.81 2977.16 0
2977.16 -13582 0
0 0 0

10459.2 -6883.8 0
-6883.8 -6341.54 0
0 0 0

-5070.47 3114.72 0
3114.72 -43362.4 0
0 0 0

8986.33 25.6254 0
25.6254 -7679.53 0
0 0 0

-1721.74 -1302.57 0
-1302.57 -38680.3 0
0 0 0

3949.42 1188.88 0
1188.88 -2942.64 0
0 0 0

1207.49 1431.1 0
1431.1 -1020.16 0
0 0 0

-2746.65 1467.13 0
1467.13 2195.69 0
0 0 0

1958.85 598.014 0
598.014 -3665.98 0
0 0 0

1033.27 2654.26 0
2654.26 -9101.25 0
0 0 0

5005.96 3998.56 0
3998.56 -6574.29 0
0 0 0

1099.66 4273.43 0
4273.43 -4695.08 0
0 0 0

-781.113 2410.24 0
2410.24 -7262.86 0
0 0 0

-1410.41 3047.86 0
3047.86 -8002.07 0
0 0 0

2055.85 571.611 0
571.611 -8537.88 0
0 0 0

1931.96 1061.49 0
1061.49 -7322.91 0
0 0 0

-212.704 -998.61 0
-998.61 -7049.1 0
0 0 0

3987 1607.53 0
1607.53 -5537.88 0
0 0 0

-5506.79 -679.955 0
-679.955 -33970.5 0
0 0 0

-917.008 -1590.45 0
-1590.45 -7662.1 0
0 0 0

-3677.14 -2545.05 0
-2545.05 -28091.4 0
0 0 0

-199.542 -734.67 0
-734.67 -3731.95 0
0 0 0

-636.693 3292.87 0
3292.87 -2468.63 0
0 0 0

-1937.69 2687.11 0
2687.11 1624.03 0
0 0 0

400.314 1335.87 0
1335.87 1509.66 0
0 0 0

-399.379 -859.597 0
-859.597 -8223.29 0
0 0 0

3516.07 5586.99 0
5586.99 897.146 0
0 0 0

1281.64 -68.2265 0
-68.2265 -3272.3 0
0 0 0

5618.54 3357.58 0
3357.58 -9213.48 0
0 0 0

4161.01 688.726 0
688.726 -3435.77 0
0 0 0

3828.24 2319.6 0
2319.6 -5955.03 0
0 0 0

4557.05 3276.93 0
3276.93 -3483.84 0
0 0 0

4204.39 3294.31 0
3294.31 -10073 0
0 0 0

9053.05 1739.06 0
1739.06 -7361.21 0
0 0 0

2212.86 -1354.37 0
-1354.37 -18014.7 0
0 0 0

7197.81 1554.08 0
1554.08 -3491.66 0
0 0 0

4138.49 2894.92 0
2894.92 -6627.92 0
0 0 0

-748.662 -1071.59 0
-1071.59 -1871.72 0
0 0 0

175.785 -1321.66 0
-1321.66 -2258.02 0
0 0 0

1889.03 49.3154 0
49.3154 -605.706 0
0 0 0

-710.393 -300.794 0
-300.794 1445.95 0
0 0 0

-4990.85 -401.672 0
-401.672 -3446.18 0
0 0 0

2350.21 412.39 0
412.39 -808.801 0
0 0 0

-714.332 -1643.73 0
-1643.73 -1395.95 0
0 0 0

2016.7 -1598.07 0
-1598.07 -251.589 0
0 0 0

-337.567 -544.69 0
-544.69 -2575.86 0
0 0 0

-1070 1625.73 0
1625.73 -1536.7 0
0 0 0

-1727.43 -50.183 0
-50.183 -3656.7 0
0 0 0

-345.177 -1243.24 0
-1243.24 1248.8 0
0 0 0

-231.517 -685.461 0
-685.461 -3548.6 0
0 0 0

1107.7 216.268 0
216.268 -5731.56 0
0 0 0

1106.79 -1676.13 0
-1676.13 -897.775 0
0 0 0

4526.34 -760.75 0
-760.75 1469.71 0
0 0 0

TENSORS velocity_gradient double
-2.15453 -13.1228 0
10.859 2.78625 0
0 0 0

0.32978 -13.7086 0
12.6099 2.80618 0
0 0 0

-0.161881 -13.1058 0
12.0588 0.88024 0
0 0 0

0.296142 -13.4956 0
12.5973 2.8862 0
0 0 0

0.207674 -10.6646 0
12.8873 2.98709 0
0 0 0

-0.789415 -10.7949 0
13.774 3.2156 0
0 0 0

0.285422 -12.3671 0
12.7968 3.54891 0
0 0 0

-1.54998 -11.9788 0
12.1038 4.20887 0
0 0 0

-1.94453 -9.95744 0
14.3942 8.07149 0
0 0 0

-3.82361 -9.85281 0
14.1052 10.3756 0
0 0 0

-4.2593 -11.7685 0
9.68806 6.70463 0
0 0 0

-3.99813 -11.1661 0
5.45908 9.29404 0
0 0 0

-5.53789 -11.8089 0
13.271 13.3781 0
0 0 0

-4.22916 -17.0722 0
9.03859 21.5789 0
0 0 0

-2.0014 -11.1355 0
2.65972 9.54359 0
0 0 0

1.3684 -12.9175 0
1.37012 16.0055 0
0 0 0

-2.97929 -11.1239 0
5.78083 1.96063 0
0 0 0

-2.8287 -13.3196 0
6.06595 3.25603 0
0 0 0

-3.22411 -8.59481 0
5.42887 1.28919 0
0 0 0

-2.84603 -13.1763 0
5.98333 3.93966 0
0 0 0

-2.85489 -13.245 0
6.69735 3.85566 0
0 0 0

-4.1203 -13.5551 0
7.21032 4.81976 0
0 0 0

-2.73928 -13.2393 0
6.60478 4.14065 0
0 0 0

-2.84046 -15.0442 0
5.33152 5.15528 0
0 0 0

-5.52266 -13.2629 0
7.56997 5.20187 0
0 0 0

-4.34798 -8.84705 0
5.66411 6.20172 0
0 0 0

-1.28178 -15.1733 0
1.85605 5.03025 0
0 0 0

-1.18302 -7.79799 0
0.71236 4.37727 0
0 0 0

-2.28348 -8.56777 0
2.93212 5.83214 0
0 0 0

1.01999 -7.57254 0
1.44608 14.8401 0
0 0 0

-2.29279 -7.95735 0
1.09809 4.43265 0
0 0 0

-2.52485 -5.30174 0
0.977184 14.0031 0
0 0 0

-2.2642 -7.48547 0
6.19358 0.917761 0
0 0 0

-2.16445 -12.857 0
5.27649 3.6037 0
0 0 0

-2.10527 -8.18779 0
6.28037 0.570236 0
0 0 0

-2.24247 -12.3982 0
5.49297 2.33056 0
0 0 0

-1.73098 -12.7802 0
4.07369 3.39072 0
0 0 0

-1.23004 -14.8058 0
2.67189 3.85525 0
0 0 0

-1.5515 -12.3001 0
4.7769 2.0243 0
0 0 0

-0.332764 -14.3777 0
6.03891 2.16591 0
0 0 0

-0.699668 -14.6611 0
1.18066 3.44853 0
0 0 0

-1.02223 -9.04198 0
0.656474 4.80964 0
0 0 0

0.0712033 -14.4019 0
6.93292 1.60338 0
0 0 0

-0.903477 -10.7077 0
5.16416 4.46645 0
0 0 0

-2.11525 -9.25203 0
1.03638 4.88265 0
0 0 0

-2.94235 -4.7434 0
1.25233 13.2517 0
0 0 0

-2.86273 -11.2121 0
4.03605 4.17603 0
0 0 0

-5.10145 -7.95411 0
2.80986 10.9693 0
0 0 0

0.924117 -8.63439 0
11.2605 0.361759 0
0 0 0

1.2759 -12.3299 0
11.4493 1.31067 0
0 0 0

0.940227 -8.25319 0
11.4279 0.583529 0
0 0 0

1.25752 -9.99997 0
11.5403 0.579005 0
0 0 0

1.01201 -12.3951 0
10.6133 1.10392 0
0 0 0

0.68123 -14.7818 0
9.43891 -0.044219 0
0 0 0

0.985994 -12.6376 0
10.8336 0.284082 0
0 0 0

-2.66671 -12.6296 0
8.34301 -0.685878 0
0 0 0

0.154153 -14.95 0
7.27376 -0.648846 0
0 0 0

-0.711235 -13.1739 0
5.33167 2.6749 0
0 0 0

-1.85971 -14.6539 0
7.84586 -1.86565 0
0 0 0

0.0700454 -14.1249 0
8.74832 -0.556959 0
0 0 0

-2.42031 -13.4012 0
4.55527 2.8998 0
0 0 0

-1.84831 -10.7999 0
5.07219 8.28325 0
0 0 0

0.241468 -14.0627 0
8.36661 2.06629 0
0 0 0

0.272998 -12.0038 0
7.39418 3.23365 0
0 0 0

SCALARS active double 1
LOOKUP_TABLE default
1
1
1
1
1
1
1
1
1
1
1
1
1
1
1
1
1
1
1
1
1
1
1
1
1
1
1
1
1
1
1
1
1
1
1
1
1
1
1
1
1
1
1
1
1
1
1
1
1
1
1
1
1
1
1
1
1
1
1
1
1
1
1
1
SCALARS extent double 1
LOOKUP_TABLE default
0.0125
0.0125
0.0125
0.0125
0.0125
0.0125
0.0125
0.0125
0.0125
0.0125
0.0125
0.0125
0.0125
0.0125
0.0125
0.0125
0.0125
0.0125
0.0125
0.0125
0.0125
0.0125
0.0125
0.0125
0.0125
0.0125
0.0125
0.0125
0.0125
0.0125
0.0125
0.0125
0.0125
0.0125
0.0125
0.0125
0.0125
0.0125
0.0125
0.0125
0.0125
0.0125
0.0125
0.0125
0.0125
0.0125
0.0125
0.0125
0.0125
0.0125
0.0125
0.0125
0.0125
0.0125
0.0125
0.0125
0.0125
0.0125
0.0125
0.0125
0.0125
0.0125
0.0125
0.0125
SCALARS pressure double 1
LOOKUP_TABLE default
-344.184
2301.86
-2203.46
-2299.42
617.13
4149.82
4398.39
3261.77
6862.39
9694
-277.161
5990.61
-2058.84
24216.4
-653.401
20201
-503.388
-93.666
275.48
853.565
4033.99
784.165
1797.71
4021.99
4706.24
3241.01
2695.47
3630.9
775.441
19738.7
4289.56
15884.3
1965.75
1552.66
156.83
-954.986
4311.33
-2206.61
995.331
1797.47
-362.624
1063.4
-536.608
2934.3
-845.92
7900.93
-1853.08
1244.72
1310.19
1041.12
-641.661
-367.778
4218.51
-770.707
1055.14
-882.557
1456.71
1303.35
2692.07
-451.809
1890.06
2311.93
-104.505
-2998.02
SCALARS density double 1
LOOKUP_TABLE default
996.427
1024.23
977.345
976.37
1006.44
1044.1
1046.81
1034.5
1073.98
1106.07
997.122
1064.28
978.816
1286.4
993.228
1233.79
994.778
999.026
1002.87
1008.92
1042.85
1008.19
1018.87
1042.72
1050.16
1034.28
1028.43
1038.48
1008.1
1227.87
1045.62
1179.62
1020.65
1016.28
1001.63
990.117
1045.86
977.313
1010.41
1018.87
996.236
1011.12
994.435
1030.99
991.241
1085.64
980.913
1013.03
1013.72
1010.89
993.349
996.182
1044.85
992.017
1011.03
990.863
1015.27
1013.65
1028.39
995.312
1019.85
1024.34
998.914
969.302
