# vtk DataFile Version 3.0
Frame: 23, Time: 0.4
ASCII
DATASET UNSTRUCTURED_GRID
POINTS 64 double
0.625185 0.362674 0 
0.650306 0.363144 0 
0.626106 0.337473 0 
0.652824 0.337971 0 
0.674824 0.365184 0 
0.699699 0.368523 0 
0.678019 0.340078 0 
0.702718 0.343263 0 
0.724412 0.372664 0 
0.749241 0.377383 0 
0.726843 0.346284 0 
0.750919 0.351144 0 
0.773828 0.3807 0 
0.798525 0.38295 0 
0.775544 0.355145 0 
0.801148 0.357624 0 
0.628445 0.312937 0 
0.654251 0.313681 0 
0.628878 0.287969 0 
0.654543 0.288177 0 
0.679322 0.314409 0 
0.703624 0.317237 0 
0.679255 0.287546 0 
0.704472 0.29089 0 
0.728507 0.320154 0 
0.752161 0.324717 0 
0.72992 0.294688 0 
0.755027 0.299555 0 
0.777534 0.329197 0 
0.803014 0.332358 0 
0.779598 0.303368 0 
0.804965 0.306575 0 
0.628689 0.262996 0 
0.653077 0.261281 0 
0.627612 0.236843 0 
0.653211 0.235533 0 
0.678498 0.262218 0 
0.704 0.264785 0 
0.679737 0.236809 0 
0.703395 0.238907 0 
0.729255 0.268413 0 
0.754695 0.274271 0 
0.728451 0.24256 0 
0.754418 0.247503 0 
0.779535 0.277577 0 
0.804991 0.279766 0 
0.778983 0.251443 0 
0.805215 0.254693 0 
0.630164 0.210612 0 
0.654998 0.210798 0 
0.631679 0.184082 0 
0.655949 0.18492 0 
0.680725 0.210853 0 
0.706625 0.213776 0 
0.682465 0.185973 0 
0.709987 0.189147 0 
0.732983 0.21893 0 
0.758547 0.221851 0 
0.734931 0.194043 0 
0.760592 0.196118 0 
0.783701 0.225375 0 
0.808619 0.230265 0 
0.786329 0.200609 0 
0.812225 0.206184 0 
CELLS 64 128
1 0
1 1
1 2
1 3
1 4
1 5
1 6
1 7
1 8
1 9
1 10
1 11
1 12
1 13
1 14
1 15
1 16
1 17
1 18
1 19
1 20
1 21
1 22
1 23
1 24
1 25
1 26
1 27
1 28
1 29
1 30
1 31
1 32
1 33
1 34
1 35
1 36
1 37
1 38
1 39
1 40
1 41
1 42
1 43
1 44
1 45
1 46
1 47
1 48
1 49
1 50
1 51
1 52
1 53
1 54
1 55
1 56
1 57
1 58
1 59
1 60
1 61
1 62
1 63
CELL_TYPES 64
1
1
1
1
1
1
1
1
1
1
1
1
1
1
1
1
1
1
1
1
1
1
1
1
1
1
1
1
1
1
1
1
1
1
1
1
1
1
1
1
1
1
1
1
1
1
1
1
1
1
1
1
1
1
1
1
1
1
1
1
1
1
1
1
POINT_DATA 64
VECTORS displacement double
0.112685 -0.249826 0 
0.137806 -0.274356 0 
0.0886063 -0.275027 0 
0.115324 -0.299529 0 
0.162324 -0.297316 0 
0.187199 -0.318977 0 
0.140519 -0.322422 0 
0.165218 -0.344237 0 
0.211912 -0.339836 0 
0.236741 -0.360117 0 
0.189343 -0.366216 0 
0.213419 -0.386356 0 
0.261328 -0.3818 0 
0.286025 -0.40455 0 
0.238044 -0.407355 0 
0.263648 -0.429876 0 
0.0659445 -0.299563 0 
0.0917513 -0.323819 0 
0.041378 -0.324531 0 
0.0670427 -0.349323 0 
0.116822 -0.348091 0 
0.141124 -0.370263 0 
0.0917551 -0.374954 0 
0.116972 -0.39661 0 
0.166007 -0.392346 0 
0.189661 -0.412783 0 
0.14242 -0.417812 0 
0.167527 -0.437945 0 
0.215034 -0.433303 0 
0.240514 -0.455142 0 
0.192098 -0.459132 0 
0.217465 -0.480925 0 
0.0161889 -0.349504 0 
0.0405775 -0.376219 0 
-0.00988811 -0.375657 0 
0.015711 -0.401967 0 
0.0659977 -0.400282 0 
0.0915003 -0.422715 0 
0.0422368 -0.425691 0 
0.0658946 -0.448593 0 
0.116755 -0.444087 0 
0.142195 -0.463229 0 
0.0909515 -0.46994 0 
0.116918 -0.489997 0 
0.167035 -0.484923 0 
0.192491 -0.507734 0 
0.141483 -0.511057 0 
0.167715 -0.532807 0 
-0.0323363 -0.401888 0 
-0.00750245 -0.426702 0 
-0.0558206 -0.428418 0 
-0.0315512 -0.45258 0 
0.0182251 -0.451647 0 
0.044125 -0.473724 0 
-0.00503462 -0.476527 0 
0.0224865 -0.498353 0 
0.0704834 -0.49357 0 
0.096047 -0.515649 0 
0.0474315 -0.518457 0 
0.0730917 -0.541382 0 
0.121201 -0.537125 0 
0.146119 -0.557235 0 
0.0988291 -0.561891 0 
0.124725 -0.581316 0 
VECTORS velocity double
3.82901 2.77631 0 
4.32745 1.59549 0 
2.21362 2.48293 0 
2.60726 0.820428 0 
3.87698 0.963007 0 
3.7919 0.823067 0 
2.18315 0.492676 0 
2.07374 0.268323 0 
3.84939 0.2747 0 
3.97034 -0.0625252 0 
2.33918 -0.0820299 0 
2.73845 -0.0857106 0 
3.83714 0.436917 0 
3.82297 -1.1556 0 
2.78879 0.105174 0 
3.02731 -1.66413 0 
2.19014 3.02063 0 
2.44303 0.868474 0 
1.34852 3.29005 0 
1.58889 0.985755 0 
2.29625 0.732289 0 
2.45218 0.461439 0 
1.35342 0.313916 0 
1.52968 0.522388 0 
2.4792 0.246093 0 
2.62544 0.440148 0 
1.55428 0.269676 0 
1.87465 0.239629 0 
2.53211 0.498686 0 
2.8295 -1.20137 0 
1.88775 0.319586 0 
2.35609 -1.37727 0 
0.679308 2.7333 0 
0.78036 0.947651 0 
0.3338 3.2054 0 
0.428751 1.30239 0 
0.79504 0.243682 0 
0.656657 1.00338 0 
0.599035 0.539921 0 
0.481427 1.06568 0 
0.942261 0.523222 0 
1.15648 -0.0790606 0 
0.406923 0.418927 0 
0.53639 -0.082559 0 
0.830595 -0.294688 0 
1.3898 -1.87294 0 
0.216677 -0.0430548 0 
0.821192 -1.27392 0 
0.453837 3.17548 0 
0.354664 1.31295 0 
-0.987433 2.46017 0 
-0.907291 1.39558 0 
0.565048 0.889927 0 
0.89344 1.09876 0 
-0.774945 1.61474 0 
-0.691096 1.08234 0 
0.978866 0.965271 0 
0.815443 0.491841 0 
-0.273363 0.170053 0 
0.0209069 -0.349036 0 
0.612039 0.509285 0 
1.16413 -0.997992 0 
-0.382832 -0.0871341 0 
0.290757 -1.31673 0 
SCALARS mass double 1
LOOKUP_TABLE default
0.625
0.625
0.625
0.625
0.625
0.625
0.625
0.625
0.625
0.625
0.625
0.625
0.625
0.625
0.625
0.625
0.625
0.625
0.625
0.625
0.625
0.625
0.625
0.625
0.625
0.625
0.625
0.625
0.625
0.625
0.625
0.625
0.625
0.625
0.625
0.625
0.625
0.625
0.625
0.625
0.625
0.625
0.625
0.625
0.625
0.625
0.625
0.625
0.625
0.625
0.625
0.625
0.625
0.625
0.625
0.625
0.625
0.625
0.625
0.625
0.625
0.625
0.625
0.625
SCALARS volume double 1
LOOKUP_TABLE default
0.00062743
0.000625996
0.000598534
0.000645959
0.000617021
0.000624812
0.000603626
0.000607701
0.000643993
0.00063958
0.000633941
0.000638767
0.000630917
0.000626716
0.000618106
0.000632187
0.000627115
0.00063464
0.000637005
0.00063864
0.000625393
0.000649664
0.000644787
0.000647253
0.000601093
0.000628482
0.000674287
0.000627807
0.000651941
0.000641972
0.000650421
0.00065919
0.0006214
0.000655369
0.000645387
0.000662116
0.000612562
0.000645378
0.000639302
0.000619113
0.000651026
0.000615388
0.000653917
0.000641958
0.000633141
0.000620176
0.000673858
0.000626439
0.00064344
0.000632219
0.00064384
0.000615288
0.000645764
0.000645276
0.000654417
0.000653927
0.000615992
0.000634514
0.000640211
0.000635079
0.000635238
0.000624524
0.000612389
0.000613092
VECTORS momentum double
2.39313 1.73519 0 
2.70466 0.997184 0 
1.38351 1.55183 0 
1.62954 0.512767 0 
2.42311 0.601879 0 
2.36993 0.514417 0 
1.36447 0.307923 0 
1.29609 0.167702 0 
2.40587 0.171687 0 
2.48146 -0.0390782 0 
1.46199 -0.0512687 0 
1.71153 -0.0535691 0 
2.39821 0.273073 0 
2.38936 -0.722251 0 
1.74299 0.0657339 0 
1.89207 -1.04008 0 
1.36884 1.88789 0 
1.52689 0.542796 0 
0.842823 2.05628 0 
0.993059 0.616097 0 
1.43516 0.457681 0 
1.53261 0.288399 0 
0.845886 0.196197 0 
0.956049 0.326492 0 
1.5495 0.153808 0 
1.6409 0.275092 0 
0.971424 0.168548 0 
1.17166 0.149768 0 
1.58257 0.311679 0 
1.76844 -0.750859 0 
1.17985 0.199741 0 
1.47255 -0.860793 0 
0.424567 1.70831 0 
0.487725 0.592282 0 
0.208625 2.00337 0 
0.267969 0.813994 0 
0.4969 0.152302 0 
0.410411 0.627112 0 
0.374397 0.337451 0 
0.300892 0.666049 0 
0.588913 0.327014 0 
0.722799 -0.0494129 0 
0.254327 0.261829 0 
0.335244 -0.0515994 0 
0.519122 -0.18418 0 
0.868627 -1.17059 0 
0.135423 -0.0269093 0 
0.513245 -0.7962 0 
0.283648 1.98468 0 
0.221665 0.820595 0 
-0.617146 1.53761 0 
-0.567057 0.872235 0 
0.353155 0.556204 0 
0.5584 0.686722 0 
-0.484341 1.00921 0 
-0.431935 0.676461 0 
0.611791 0.603294 0 
0.509652 0.3074 0 
-0.170852 0.106283 0 
0.0130668 -0.218148 0 
0.382524 0.318303 0 
0.727584 -0.623745 0 
-0.23927 -0.0544588 0 
0.181723 -0.822958 0 
VECTORS body_force double
0 -9.81 0 
0 -9.81 0 
0 -9.81 0 
0 -9.81 0 
0 -9.81 0 
0 -9.81 0 
0 -9.81 0 
0 -9.81 0 
0 -9.81 0 
0 -9.81 0 
0 -9.81 0 
0 -9.81 0 
0 -9.81 0 
0 -9.81 0 
0 -9.81 0 
0 -9.81 0 
0 -9.81 0 
0 -9.81 0 
0 -9.81 0 
0 -9.81 0 
0 -9.81 0 
0 -9.81 0 
0 -9.81 0 
0 -9.81 0 
0 -9.81 0 
0 -9.81 0 
0 -9.81 0 
0 -9.81 0 
0 -9.81 0 
0 -9.81 0 
0 -9.81 0 
0 -9.81 0 
0 -9.81 0 
0 -9.81 0 
0 -9.81 0 
0 -9.81 0 
0 -9.81 0 
0 -9.81 0 
0 -9.81 0 
0 -9.81 0 
0 -9.81 0 
0 -9.81 0 
0 -9.81 0 
0 -9.81 0 
0 -9.81 0 
0 -9.81 0 
0 -9.81 0 
0 -9.81 0 
0 -9.81 0 
0 -9.81 0 
0 -9.81 0 
0 -9.81 0 
0 -9.81 0 
0 -9.81 0 
0 -9.81 0 
0 -9.81 0 
0 -9.81 0 
0 -9.81 0 
0 -9.81 0 
0 -9.81 0 
0 -9.81 0 
0 -9.81 0 
0 -9.81 0 
0 -9.81 0 
TENSORS cauchy_stress double
-774.401 -494.902 0
-494.902 1520.51 0
0 0 0

863.931 -1753.7 0
-1753.7 -557.577 0
0 0 0

-3178.29 1868.73 0
1868.73 -5142.41 0
0 0 0

8250.19 -6589.66 0
-6589.66 -1907.15 0
0 0 0

-2267.65 -1217.95 0
-1217.95 -203.114 0
0 0 0

-1156.13 849.72 0
849.72 1098.2 0
0 0 0

-4097.2 1956.27 0
1956.27 -2594.37 0
0 0 0

-3677.5 -315.601 0
-315.601 -1720.3 0
0 0 0

1148.85 4542.21 0
4542.21 4608.14 0
0 0 0

-969.863 5451.68 0
5451.68 5404.59 0
0 0 0

-2691.36 2481.61 0
2481.61 5422.88 0
0 0 0

-1007.48 3177.78 0
3177.78 5197.62 0
0 0 0

-1131.88 442.153 0
442.153 2943.82 0
0 0 0

-1500.81 282.093 0
282.093 2028.07 0
0 0 0

-2262.39 -1401.25 0
-1401.25 129.422 0
0 0 0

2692.85 2628.46 0
2628.46 -494.186 0
0 0 0

-921.582 1919.72 0
1919.72 1571.24 0
0 0 0

3682.78 -1062.21 0
-1062.21 -739.233 0
0 0 0

2831.92 2611.32 0
2611.32 826.978 0
0 0 0

-938.209 -421.238 0
-421.238 5090.03 0
0 0 0

-5279.24 4173.97 0
4173.97 5400.19 0
0 0 0

461.662 693.637 0
693.637 6981.21 0
0 0 0

2935.38 220.004 0
220.004 3058.6 0
0 0 0

945.338 3045.91 0
3045.91 5782.55 0
0 0 0

-5195.44 672.889 0
672.889 -2304.95 0
0 0 0

-2441.58 4723.01 0
4723.01 3509.94 0
0 0 0

5559.41 6059.83 0
6059.83 9037.64 0
0 0 0

-1736.55 7100.29 0
7100.29 2598.18 0
0 0 0

3524.51 2483.64 0
2483.64 4591.27 0
0 0 0

2968.44 3001.64 0
3001.64 2184.02 0
0 0 0

2289.36 2045.88 0
2045.88 5377.47 0
0 0 0

1891.11 3906.2 0
3906.2 8351.2 0
0 0 0

-1671.25 1540.39 0
1540.39 560.303 0
0 0 0

2094.17 -1767.85 0
-1767.85 7030.1 0
0 0 0

2379.94 -407.42 0
-407.42 3792.93 0
0 0 0

8655.58 -704.808 0
-704.808 2438.51 0
0 0 0

-917.074 6224.2 0
6224.2 -2948.52 0
0 0 0

2511.46 7314.01 0
7314.01 3658.67 0
0 0 0

-501.809 1646.01 0
1646.01 4852.9 0
0 0 0

-7574.77 3477.73 0
3477.73 5754.71 0
0 0 0

1450.45 10402.6 0
10402.6 6395.34 0
0 0 0

-3294.03 9480.36 0
9480.36 313.439 0
0 0 0

7688.22 2764.29 0
2764.29 1009.68 0
0 0 0

-2085.33 659.216 0
659.216 7233.59 0
0 0 0

317.347 3779.34 0
3779.34 2171.36 0
0 0 0

-3458.09 4745.3 0
4745.3 1968.15 0
0 0 0

6252.53 4128.82 0
4128.82 8221.97 0
0 0 0

3627.45 4900.23 0
4900.23 -3185.3 0
0 0 0

111.63 -1087.17 0
-1087.17 5480.11 0
0 0 0

-282.964 -2105.49 0
-2105.49 2491.42 0
0 0 0

-406.425 -1530.3 0
-1530.3 6117.68 0
0 0 0

-1303.62 -2497.86 0
-2497.86 -1708.2 0
0 0 0

3447.26 -1778.33 0
-1778.33 2837.89 0
0 0 0

5459.87 4049.53 0
4049.53 679.832 0
0 0 0

10366.6 -722.784 0
-722.784 -1521.8 0
0 0 0

5860.24 3959.42 0
3959.42 2840.59 0
0 0 0

2110.9 -283.818 0
-283.818 -4902.66 0
0 0 0

1459.66 327.98 0
327.98 1445.67 0
0 0 0

1908.1 -364.386 0
-364.386 2716.15 0
0 0 0

772.987 68.9851 0
68.9851 2303.62 0
0 0 0

-571.494 2346.26 0
2346.26 3696 0
0 0 0

-422.882 412.099 0
412.099 276.269 0
0 0 0

1685.71 2362.67 0
2362.67 -5605.64 0
0 0 0

1568.91 -1331.38 0
-1331.38 -5268.24 0
0 0 0

TENSORS velocity_gradient double
1.87706 19.1122 0
-21.5111 0.749568 0
0 0 0

-0.1655 20.0527 0
-20.7497 2.94571 0
0 0 0

1.16301 25.3254 0
-24.7731 -3.17939 0
0 0 0

-1.83759 25.5044 0
-21.4144 0.379826 0
0 0 0

-6.22749 19.7485 0
-18.8725 3.05855 0
0 0 0

-4.70295 19.0187 0
-16.8122 2.48483 0
0 0 0

-4.9973 23.7708 0
-18.371 0.306555 0
0 0 0

-1.36703 22.1767 0
-12.5573 -0.293661 0
0 0 0

0.575763 16.8713 0
-9.90189 -0.290063 0
0 0 0

0.108137 14.4576 0
-11.4182 -3.38991 0
0 0 0

2.50425 21.7955 0
-6.90451 -0.773749 0
0 0 0

1.633 18.3283 0
-11.0007 -2.49923 0
0 0 0

0.3539 14.1213 0
-15.0238 -1.82501 0
0 0 0

-0.681942 14.405 0
-15.0799 1.09146 0
0 0 0

0.119621 14.719 0
-17.9778 -1.55842 0
0 0 0

-3.80796 14.5172 0
-19.1691 1.49662 0
0 0 0

0.709575 25.3801 0
-28.5681 -2.72185 0
0 0 0

-1.65141 25.4406 0
-21.2185 0.512734 0
0 0 0

0.331838 21.9706 0
-29.2837 -1.53535 0
0 0 0

-0.67421 21.9515 0
-19.9774 -3.22449 0
0 0 0

-2.92529 23.6157 0
-17.7335 0.258841 0
0 0 0

-0.418994 22.1523 0
-10.5908 -0.327097 0
0 0 0

-1.01711 20.5646 0
-16.6988 -4.54215 0
0 0 0

-0.0608913 19.3579 0
-9.44281 -5.19218 0
0 0 0

1.41715 23.0374 0
-6.24768 -0.838437 0
0 0 0

1.4237 23.8838 0
-12.3656 -1.23987 0
0 0 0

0.419979 19.6675 0
-6.40278 -2.9834 0
0 0 0

1.70945 21.681 0
-15.8109 -1.25682 0
0 0 0

0.96648 23.046 0
-18.7418 -1.21973 0
0 0 0

-3.63168 21.1989 0
-21.4426 -1.02737 0
0 0 0

2.03532 22.4373 0
-18.83 -1.21357 0
0 0 0

-0.153307 20.8247 0
-23.0872 -0.982614 0
0 0 0

0.0190549 21.9751 0
-27.5612 -1.56016 0
0 0 0

0.414039 21.9726 0
-19.3023 -3.17169 0
0 0 0

-0.236173 15.0584 0
-25.1388 -3.36027 0
0 0 0

1.35049 15.0085 0
-17.713 -5.64789 0
0 0 0

0.531395 20.5789 0
-15.3712 -4.52994 0
0 0 0

0.172705 19.357 0
-10.838 -5.19146 0
0 0 0

1.8929 13.8485 0
-14.8327 -5.76347 0
0 0 0

0.684915 12.8295 0
-12.6133 -5.2128 0
0 0 0

0.147036 19.4902 0
-8.80318 -3.10416 0
0 0 0

1.23655 19.836 0
-16.3649 -1.23955 0
0 0 0

0.166229 12.1675 0
-11.3305 -2.67193 0
0 0 0

0.780929 13.9315 0
-16.7309 -0.883695 0
0 0 0

1.64543 20.5376 0
-18.7401 -1.2321 0
0 0 0

1.6219 20.9854 0
-21.1643 -2.1003 0
0 0 0

0.983147 17.1136 0
-18.4533 -1.60287 0
0 0 0

2.16135 20.3373 0
-18.0682 -2.27603 0
0 0 0

-0.439553 15.0812 0
-22.2772 -3.68166 0
0 0 0

2.76362 14.9656 0
-15.7233 -5.76209 0
0 0 0

0.83856 19.6451 0
-19.7317 1.97987 0
0 0 0

4.31923 18.0384 0
-12.7914 -0.439788 0
0 0 0

3.13261 13.7845 0
-14.913 -5.75933 0
0 0 0

0.892938 12.7019 0
-14.5102 -5.0101 0
0 0 0

4.25839 16.8884 0
-12.9702 -3.81892 0
0 0 0

2.78426 14.7998 0
-16.8349 -5.2598 0
0 0 0

0.754774 12.0476 0
-13.9056 -2.14704 0
0 0 0

1.35387 11.462 0
-16.578 -0.826949 0
0 0 0

2.07525 11.4997 0
-16.4196 -3.32665 0
0 0 0

2.1483 9.15429 0
-15.6203 -1.0837 0
0 0 0

1.2797 10.9911 0
-16.8597 -2.61539 0
0 0 0

2.48841 10.7083 0
-16.1654 -4.19889 0
0 0 0

1.90746 9.08878 0
-15.5502 -0.991978 0
0 0 0

2.38813 10.7243 0
-15.0084 -4.38375 0
0 0 0

SCALARS active double 1
LOOKUP_TABLE default
1
1
1
1
1
1
1
1
1
1
1
1
1
1
1
1
1
1
1
1
1
1
1
1
1
1
1
1
1
1
1
1
1
1
1
1
1
1
1
1
1
1
1
1
1
1
1
1
1
1
1
1
1
1
1
1
1
1
1
1
1
1
1
1
SCALARS extent double 1
LOOKUP_TABLE default
0.0125
0.0125
0.0125
0.0125
0.0125
0.0125
0.0125
0.0125
0.0125
0.0125
0.0125
0.0125
0.0125
0.0125
0.0125
0.0125
0.0125
0.0125
0.0125
0.0125
0.0125
0.0125
0.0125
0.0125
0.0125
0.0125
0.0125
0.0125
0.0125
0.0125
0.0125
0.0125
0.0125
0.0125
0.0125
0.0125
0.0125
0.0125
0.0125
0.0125
0.0125
0.0125
0.0125
0.0125
0.0125
0.0125
0.0125
0.0125
0.0125
0.0125
0.0125
0.0125
0.0125
0.0125
0.0125
0.0125
0.0125
0.0125
0.0125
0.0125
0.0125
0.0125
0.0125
0.0125
SCALARS pressure double 1
LOOKUP_TABLE default
-373.054
-153.177
4160.35
-3171.52
1235.38
28.9692
3345.79
2698.9
-2878.49
-2217.36
-1365.76
-2095.07
-905.969
-263.628
1066.48
-1099.33
-324.83
-1471.77
-1829.45
-2075.91
-60.479
-3721.44
-2996.99
-3363.95
3750.19
-534.182
-7298.53
-430.815
-4057.89
-2576.23
-3833.41
-5121.16
555.472
-4562.14
-3086.43
-5547.05
1932.79
-3085.07
-2175.54
910.032
-3922.89
1490.3
-4348.95
-2574.13
-1244.36
744.968
-7237.25
-221.076
-2795.87
-1104.23
-2855.63
1505.91
-3142.57
-3069.85
-4422.42
-4350.41
1395.88
-1452.67
-2312.13
-1538.3
-1562.25
73.3069
1959.96
1849.66
SCALARS density double 1
LOOKUP_TABLE default
996.128
998.408
1044.22
967.554
1012.93
1000.3
1035.41
1028.47
970.507
977.203
985.897
978.447
990.622
997.262
1011.15
988.632
996.627
984.81
981.154
978.642
999.371
962.036
969.312
965.62
1039.77
994.46
926.905
995.53
958.676
973.563
960.917
948.133
1005.79
953.662
968.411
943.943
1020.3
968.425
977.628
1009.51
960.023
1015.62
955.778
973.584
987.142
1007.78
927.495
997.703
971.342
988.582
970.738
1015.78
967.846
968.578
955.048
955.764
1014.62
985.006
976.241
984.129
983.884
1000.76
1020.59
1019.42
