# vtk DataFile Version 3.0
Frame: 22, Time: 0.384
ASCII
DATASET UNSTRUCTURED_GRID
POINTS 64 double
0.329045 0.0917024 0 
0.336455 0.114926 0 
0.353995 0.0853228 0 
0.360772 0.108815 0 
0.340687 0.137988 0 
0.345545 0.161454 0 
0.36504 0.131842 0 
0.369496 0.155486 0 
0.347386 0.184903 0 
0.348897 0.207826 0 
0.373128 0.180458 0 
0.374456 0.203976 0 
0.354217 0.23172 0 
0.356489 0.255502 0 
0.379749 0.228633 0 
0.381129 0.253363 0 
0.379311 0.0813815 0 
0.384542 0.105721 0 
0.402713 0.076505 0 
0.407879 0.100699 0 
0.389388 0.129677 0 
0.393684 0.154087 0 
0.414835 0.124439 0 
0.418784 0.148314 0 
0.398435 0.17946 0 
0.399893 0.202478 0 
0.423498 0.173798 0 
0.426717 0.197634 0 
0.403647 0.225047 0 
0.406017 0.251917 0 
0.428805 0.221496 0 
0.430705 0.246935 0 
0.426209 0.0689224 0 
0.430882 0.094241 0 
0.450984 0.0627273 0 
0.453253 0.088966 0 
0.438836 0.119009 0 
0.442909 0.143905 0 
0.461927 0.114558 0 
0.467806 0.140073 0 
0.447637 0.169552 0 
0.451897 0.193886 0 
0.473787 0.16581 0 
0.478547 0.189254 0 
0.453774 0.219036 0 
0.4568 0.243382 0 
0.480076 0.212544 0 
0.482537 0.2378 0 
0.475145 0.0543758 0 
0.474399 0.0831742 0 
0.499731 0.0485022 0 
0.498478 0.0778431 0 
0.483426 0.107545 0 
0.490389 0.130541 0 
0.507431 0.100565 0 
0.51432 0.122497 0 
0.496277 0.155552 0 
0.502673 0.180576 0 
0.519647 0.148794 0 
0.526733 0.175264 0 
0.504727 0.206039 0 
0.507009 0.233054 0 
0.529092 0.201581 0 
0.53307 0.226605 0 
CELLS 64 128
1 0
1 1
1 2
1 3
1 4
1 5
1 6
1 7
1 8
1 9
1 10
1 11
1 12
1 13
1 14
1 15
1 16
1 17
1 18
1 19
1 20
1 21
1 22
1 23
1 24
1 25
1 26
1 27
1 28
1 29
1 30
1 31
1 32
1 33
1 34
1 35
1 36
1 37
1 38
1 39
1 40
1 41
1 42
1 43
1 44
1 45
1 46
1 47
1 48
1 49
1 50
1 51
1 52
1 53
1 54
1 55
1 56
1 57
1 58
1 59
1 60
1 61
1 62
1 63
CELL_TYPES 64
1
1
1
1
1
1
1
1
1
1
1
1
1
1
1
1
1
1
1
1
1
1
1
1
1
1
1
1
1
1
1
1
1
1
1
1
1
1
1
1
1
1
1
1
1
1
1
1
1
1
1
1
1
1
1
1
1
1
1
1
1
1
1
1
POINT_DATA 64
VECTORS displacement double
-0.0834548 -0.320798 0 
-0.0760453 -0.322574 0 
-0.0835046 -0.327177 0 
-0.0767283 -0.328685 0 
-0.071813 -0.324512 0 
-0.0669548 -0.326046 0 
-0.0724602 -0.330658 0 
-0.0680041 -0.332014 0 
-0.0651138 -0.327597 0 
-0.0636029 -0.329674 0 
-0.0643723 -0.332042 0 
-0.0630442 -0.333524 0 
-0.0582833 -0.33078 0 
-0.056011 -0.331998 0 
-0.0577514 -0.333867 0 
-0.0563711 -0.334137 0 
-0.0831889 -0.331119 0 
-0.0779584 -0.331779 0 
-0.0847867 -0.335995 0 
-0.0796208 -0.336801 0 
-0.0731116 -0.332823 0 
-0.0688157 -0.333413 0 
-0.0726652 -0.338061 0 
-0.0687159 -0.339186 0 
-0.0640648 -0.33304 0 
-0.0626069 -0.335022 0 
-0.0640023 -0.338702 0 
-0.0607825 -0.339866 0 
-0.0588534 -0.337453 0 
-0.0564834 -0.335583 0 
-0.0586947 -0.341004 0 
-0.0567948 -0.340565 0 
-0.0862909 -0.343578 0 
-0.0816175 -0.343259 0 
-0.0865164 -0.349773 0 
-0.0842467 -0.348534 0 
-0.0736636 -0.343491 0 
-0.0695914 -0.343595 0 
-0.0755726 -0.347942 0 
-0.0696941 -0.347427 0 
-0.0648627 -0.342948 0 
-0.0606027 -0.343614 0 
-0.0637134 -0.34669 0 
-0.058953 -0.348246 0 
-0.0587261 -0.343464 0 
-0.0556998 -0.344118 0 
-0.0574243 -0.349956 0 
-0.0549633 -0.3497 0 
-0.0873551 -0.358124 0 
-0.088101 -0.354326 0 
-0.087769 -0.363998 0 
-0.0890221 -0.359657 0 
-0.0790742 -0.354955 0 
-0.0721106 -0.356959 0 
-0.0800692 -0.361935 0 
-0.0731803 -0.365003 0 
-0.0662227 -0.356948 0 
-0.0598268 -0.356924 0 
-0.0678529 -0.363706 0 
-0.0607667 -0.362236 0 
-0.057773 -0.356461 0 
-0.055491 -0.354446 0 
-0.0584076 -0.360919 0 
-0.0544301 -0.360895 0 
VECTORS velocity double
-1.27407 0.800998 0 
-0.699368 1.12847 0 
-1.17417 0.933383 0 
-1.03947 1.08686 0 
-0.761209 0.766097 0 
-0.488045 1.58846 0 
-1.07083 0.747876 0 
-0.953399 1.33558 0 
-0.800936 1.77205 0 
-1.81905 0.602149 0 
-1.12011 1.63119 0 
-1.33533 1.08299 0 
-1.39199 0.0118564 0 
-1.00924 0.960649 0 
-1.06253 0.957097 0 
-1.57141 1.83038 0 
-1.01446 1.92779 0 
-1.13059 1.72912 0 
-1.03783 1.70399 0 
-0.811278 1.37584 0 
-1.07008 0.980362 0 
-0.93541 1.26248 0 
-0.84875 0.262025 0 
-1.10816 0.511113 0 
-1.41807 1.42189 0 
-1.4133 0.952998 0 
-1.98583 0.9615 0 
-1.98672 0.535076 0 
-1.04482 0.864139 0 
-1.49603 1.63138 0 
-0.919218 0.929083 0 
-1.28222 0.724465 0 
-0.908259 1.03959 0 
-0.367976 0.612829 0 
-0.707439 1.86004 0 
-0.350436 1.27979 0 
-0.544803 -0.1649 0 
-0.571067 0.530327 0 
-0.25231 0.422019 0 
-0.297438 0.563292 0 
-1.80708 0.800684 0 
-2.06459 0.329941 0 
-1.67454 0.371935 0 
-1.54633 0.596644 0 
-1.33836 0.15045 0 
-1.3225 0.53239 0 
-1.27822 0.575182 0 
-1.78403 1.19172 0 
-0.444511 1.30327 0 
0.0829049 1.50779 0 
-0.912277 -0.0679768 0 
0.00817261 0.669498 0 
0.200557 0.441299 0 
-0.377518 0.160997 0 
-0.191531 0.351455 0 
-0.638956 0.56843 0 
-2.0184 0.458581 0 
-1.67046 1.58155 0 
-1.42208 1.14624 0 
-1.44192 1.92487 0 
-1.13217 1.56129 0 
-2.01466 1.04809 0 
-1.41419 1.06437 0 
-1.22885 0.664708 0 
SCALARS mass double 1
LOOKUP_TABLE default
0.625
0.625
0.625
0.625
0.625
0.625
0.625
0.625
0.625
0.625
0.625
0.625
0.625
0.625
0.625
0.625
0.625
0.625
0.625
0.625
0.625
0.625
0.625
0.625
0.625
0.625
0.625
0.625
0.625
0.625
0.625
0.625
0.625
0.625
0.625
0.625
0.625
0.625
0.625
0.625
0.625
0.625
0.625
0.625
0.625
0.625
0.625
0.625
0.625
0.625
0.625
0.625
0.625
0.625
0.625
0.625
0.625
0.625
0.625
0.625
0.625
0.625
0.625
0.625
SCALARS volume double 1
LOOKUP_TABLE default
0.000622335
0.000612689
0.000651007
0.000614675
0.000610616
0.000623456
0.000577246
0.000589201
0.000579245
0.000609792
0.000613437
0.000606583
0.000638153
0.000621182
0.00063573
0.000609077
0.000624641
0.000614699
0.000613072
0.000627223
0.00062307
0.000680315
0.000620264
0.000633615
0.000678013
0.00057143
0.000610008
0.000605201
0.000639915
0.000623481
0.000627446
0.000636716
0.000631273
0.00061152
0.000611245
0.00059193
0.000635716
0.000644369
0.000593165
0.000633899
0.000670584
0.00063071
0.000711807
0.000606355
0.000649196
0.000617511
0.00063551
0.000627396
0.00069199
0.00065346
0.000654445
0.000672995
0.000592494
0.000612267
0.0005427
0.000632267
0.000626439
0.000587908
0.000732222
0.000620708
0.000669541
0.000672871
0.000662261
0.000609891
VECTORS momentum double
-0.796294 0.500624 0 
-0.437105 0.705296 0 
-0.733855 0.583364 0 
-0.649668 0.679286 0 
-0.475756 0.478811 0 
-0.305028 0.992785 0 
-0.669266 0.467422 0 
-0.595875 0.834738 0 
-0.500585 1.10753 0 
-1.13691 0.376343 0 
-0.700071 1.01949 0 
-0.834581 0.676868 0 
-0.869994 0.00741024 0 
-0.630772 0.600406 0 
-0.664081 0.598186 0 
-0.982129 1.14399 0 
-0.634035 1.20487 0 
-0.706621 1.0807 0 
-0.648646 1.065 0 
-0.507049 0.859899 0 
-0.668801 0.612726 0 
-0.584631 0.789053 0 
-0.530468 0.163765 0 
-0.692597 0.319446 0 
-0.886296 0.888679 0 
-0.883313 0.595624 0 
-1.24115 0.600937 0 
-1.2417 0.334422 0 
-0.653013 0.540087 0 
-0.935021 1.01961 0 
-0.574511 0.580677 0 
-0.801386 0.452791 0 
-0.567662 0.649742 0 
-0.229985 0.383018 0 
-0.442149 1.16252 0 
-0.219022 0.799869 0 
-0.340502 -0.103063 0 
-0.356917 0.331454 0 
-0.157694 0.263762 0 
-0.185899 0.352057 0 
-1.12943 0.500427 0 
-1.29037 0.206213 0 
-1.04659 0.232459 0 
-0.966457 0.372903 0 
-0.836476 0.094031 0 
-0.826561 0.332744 0 
-0.79889 0.359489 0 
-1.11502 0.744827 0 
-0.27782 0.814544 0 
0.0518155 0.942368 0 
-0.570173 -0.0424855 0 
0.00510788 0.418436 0 
0.125348 0.275812 0 
-0.235949 0.100623 0 
-0.119707 0.21966 0 
-0.399347 0.355269 0 
-1.2615 0.286613 0 
-1.04404 0.988469 0 
-0.888797 0.7164 0 
-0.9012 1.20304 0 
-0.707605 0.975804 0 
-1.25916 0.655055 0 
-0.88387 0.665229 0 
-0.768033 0.415443 0 
VECTORS body_force double
0 -9.81 0 
0 -9.81 0 
0 -9.81 0 
0 -9.81 0 
0 -9.81 0 
0 -9.81 0 
0 -9.81 0 
0 -9.81 0 
0 -9.81 0 
0 -9.81 0 
0 -9.81 0 
0 -9.81 0 
0 -9.81 0 
0 -9.81 0 
0 -9.81 0 
0 -9.81 0 
0 -9.81 0 
0 -9.81 0 
0 -9.81 0 
0 -9.81 0 
0 -9.81 0 
0 -9.81 0 
0 -9.81 0 
0 -9.81 0 
0 -9.81 0 
0 -9.81 0 
0 -9.81 0 
0 -9.81 0 
0 -9.81 0 
0 -9.81 0 
0 -9.81 0 
0 -9.81 0 
0 -9.81 0 
0 -9.81 0 
0 -9.81 0 
0 -9.81 0 
0 -9.81 0 
0 -9.81 0 
0 -9.81 0 
0 -9.81 0 
0 -9.81 0 
0 -9.81 0 
0 -9.81 0 
0 -9.81 0 
0 -9.81 0 
0 -9.81 0 
0 -9.81 0 
0 -9.81 0 
0 -9.81 0 
0 -9.81 0 
0 -9.81 0 
0 -9.81 0 
0 -9.81 0 
0 -9.81 0 
0 -9.81 0 
0 -9.81 0 
0 -9.81 0 
0 -9.81 0 
0 -9.81 0 
0 -9.81 0 
0 -9.81 0 
0 -9.81 0 
0 -9.81 0 
0 -9.81 0 
TENSORS cauchy_stress double
2405.84 2434.25 0
2434.25 -3227.46 0
0 0 0

-1014.34 -37.1189 0
-37.1189 -2811.61 0
0 0 0

7858.82 87.8733 0
87.8733 -18.6594 0
0 0 0

-858.472 -658.88 0
-658.88 -2345.04 0
0 0 0

-326.797 676.254 0
676.254 -4150.85 0
0 0 0

610.04 -1689.21 0
-1689.21 -1085.56 0
0 0 0

-6498.06 -3348.22 0
-3348.22 -8786.99 0
0 0 0

-7314.3 28.4578 0
28.4578 -4028.74 0
0 0 0

-948.706 -6153.35 0
-6153.35 -13671.6 0
0 0 0

927.74 -560.121 0
-560.121 -5664.87 0
0 0 0

-865.966 2230.45 0
2230.45 -2725.23 0
0 0 0

999.925 3650.29 0
3650.29 -6752 0
0 0 0

4912.54 -3341.74 0
-3341.74 -907.446 0
0 0 0

-1637.34 1044.27 0
1044.27 458.948 0
0 0 0

68.1363 1764.85 0
1764.85 3205.44 0
0 0 0

-734.899 -2829.09 0
-2829.09 -4227.84 0
0 0 0

1497.82 4494.1 0
4494.1 -1608.44 0
0 0 0

-1872.03 9424.96 0
9424.96 -1323.97 0
0 0 0

-3636.12 -2539.8 0
-2539.8 -69.3846 0
0 0 0

48.1335 4230.12 0
4230.12 634.723 0
0 0 0

4400.39 6795.62 0
6795.62 -4995.18 0
0 0 0

11491.7 5475.54 0
5475.54 4816.92 0
0 0 0

1917.2 -2062.61 0
-2062.61 -3379.86 0
0 0 0

764.099 -2438.57 0
-2438.57 1868.42 0
0 0 0

10958.4 3968.74 0
3968.74 4698.27 0
0 0 0

260.115 -7570.04 0
-7570.04 -17492.7 0
0 0 0

-4394.88 2508.02 0
2508.02 -274.347 0
0 0 0

54.3052 -7117.28 0
-7117.28 -6244.84 0
0 0 0

2773.31 -1324.33 0
-1324.33 1762.14 0
0 0 0

-4033.84 -6823.44 0
-6823.44 3565.83 0
0 0 0

295.726 -1754.1 0
-1754.1 455.298 0
0 0 0

1788.82 -3829.1 0
-3829.1 1782.68 0
0 0 0

1882.24 1101.78 0
1101.78 38.3607 0
0 0 0

-3673.95 6584.99 0
6584.99 -519.068 0
0 0 0

-2419.56 -4511.4 0
-4511.4 -1860.06 0
0 0 0

-12574.7 4241.06 0
4241.06 2120.2 0
0 0 0

1455.04 3901.08 0
3901.08 1814.34 0
0 0 0

4336.93 1323.07 0
1323.07 1532.37 0
0 0 0

-11142.1 3281.27 0
3281.27 1088.5 0
0 0 0

-2785.52 -2518.14 0
-2518.14 5504.5 0
0 0 0

8663.22 9486.11 0
9486.11 4874.71 0
0 0 0

3079.61 3022.49 0
3022.49 -1330.81 0
0 0 0

10639.5 -1045.77 0
-1045.77 14371 0
0 0 0

669.561 -16797.6 0
-16797.6 -6493.64 0
0 0 0

1646.19 2751.78 0
2751.78 5658.22 0
0 0 0

8277.03 -3674.7 0
-3674.7 -10595.1 0
0 0 0

673.798 -11818.1 0
-11818.1 2533.31 0
0 0 0

-3191.68 -2173.5 0
-2173.5 3927.51 0
0 0 0

6720.66 -6291.03 0
-6291.03 12860.2 0
0 0 0

-2647.37 2316.73 0
2316.73 11210.9 0
0 0 0

786.047 -2655.36 0
-2655.36 8066.87 0
0 0 0

4244.47 5349.11 0
5349.11 9983.64 0
0 0 0

-5168.46 933.931 0
933.931 -5102.8 0
0 0 0

-5395.15 -5791.87 0
-5791.87 1436.82 0
0 0 0

-8267.82 5299.34 0
5299.34 -18885 0
0 0 0

273.577 -2492.18 0
-2492.18 1949.5 0
0 0 0

-6434.18 2395.3 0
2395.3 6876.38 0
0 0 0

-6833.48 -2783.79 0
-2783.79 -4932.04 0
0 0 0

9939.26 -404.259 0
-404.259 20509.3 0
0 0 0

-2864.52 -2931.88 0
-2931.88 1539.42 0
0 0 0

2965.2 -2256.52 0
-2256.52 10273.4 0
0 0 0

5783.59 3082.01 0
3082.01 8409.23 0
0 0 0

-4117.77 -7241.55 0
-7241.55 15254 0
0 0 0

2322.6 -5010.46 0
-5010.46 -7028.58 0
0 0 0

TENSORS velocity_gradient double
-0.361705 -1.73308 0
4.09904 1.65906 0
0 0 0

-0.618756 5.12982 0
3.02319 3.29918 0
0 0 0

1.95507 -0.821967 0
3.66514 -2.6163 0
0 0 0

1.47051 2.67346 0
1.09116 2.25766 0
0 0 0

-1.63924 4.94672 0
4.30556 3.52927 0
0 0 0

-3.19314 -7.73173 0
3.09235 -3.12189 0
0 0 0

-2.23481 1.99378 0
-2.31048 1.6337 0
0 0 0

-5.04513 -6.07443 0
-4.7679 -1.62299 0
0 0 0

-3.97622 -7.74803 0
2.18681 -3.05359 0
0 0 0

-3.92876 -0.744121 0
2.31007 -5.63712 0
0 0 0

-4.52042 -7.30086 0
-3.72833 -1.90629 0
0 0 0

-3.75249 -1.58398 0
-1.75384 -0.859372 0
0 0 0

-2.46041 -0.544083 0
4.38249 -5.03184 0
0 0 0

-0.513356 2.54831 0
8.11622 9.19143 0
0 0 0

-2.54115 0.742077 0
3.55588 0.700913 0
0 0 0

-0.773375 5.20119 0
7.92635 6.9468 0
0 0 0

2.11209 -0.0546982 0
3.79737 -4.68355 0
0 0 0

1.81376 -0.983647 0
1.49591 -1.77124 0
0 0 0

7.71839 0.545142 0
-3.24955 -6.93349 0
0 0 0

8.93236 -2.03163 0
-8.78762 -5.75978 0
0 0 0

-1.89422 -1.9396 0
-1.99779 -1.97731 0
0 0 0

-4.53311 -5.73236 0
-5.15962 -1.33971 0
0 0 0

5.24379 -6.33678 0
-9.77723 -3.74348 0
0 0 0

1.04191 -7.56646 0
-10.2321 -2.78982 0
0 0 0

-3.62431 -6.98837 0
-6.70503 -0.759916 0
0 0 0

-4.01071 -1.3793 0
-6.57432 2.50226 0
0 0 0

-2.02897 -9.24352 0
-10.0058 -0.267717 0
0 0 0

-4.21071 -5.77494 0
-9.65588 1.15382 0
0 0 0

-1.7472 2.44287 0
-8.24796 4.9054 0
0 0 0

1.96672 7.45068 0
-9.13723 7.19954 0
0 0 0

-2.09488 5.84541 0
-9.4517 5.21478 0
0 0 0

1.35609 7.55359 0
-9.24124 6.05607 0
0 0 0

9.19494 0.785038 0
-4.02298 -10.5971 0
0 0 0

9.42818 0.826993 0
-8.17421 -11.3438 0
0 0 0

4.57454 1.40396 0
-8.46333 -13.1885 0
0 0 0

5.6727 1.53741 0
-6.71506 -13.149 0
0 0 0

6.18735 -10.643 0
-9.66327 -4.2636 0
0 0 0

1.61699 -11.426 0
-10.0313 -4.34161 0
0 0 0

3.54791 -14.773 0
-1.58226 -2.13689 0
0 0 0

-1.04072 -15.8977 0
3.22849 -0.95772 0
0 0 0

-1.20918 -11.2531 0
-2.57727 0.43992 0
0 0 0

0.800809 -11.2266 0
6.83652 0.807157 0
0 0 0

-1.12893 -8.96597 0
7.42943 3.79155 0
0 0 0

1.65036 -8.37426 0
10.8465 4.51905 0
0 0 0

-0.745705 7.34213 0
6.99206 4.03627 0
0 0 0

-5.40602 6.93674 0
2.84591 3.49801 0
0 0 0

0.722383 2.29058 0
9.89029 -1.84259 0
0 0 0

-4.28395 1.81289 0
4.13569 -2.39167 0
0 0 0

0.912462 6.94803 0
-12.7295 -2.16482 0
0 0 0

4.08704 3.75138 0
-7.68389 -9.44441 0
0 0 0

-1.23216 14.5822 0
-13.7225 8.48728 0
0 0 0

0.481507 6.03731 0
-7.72668 -4.19004 0
0 0 0

4.79916 -18.5972 0
-2.89407 1.87247 0
0 0 0

0.678689 -19.9236 0
1.42585 3.26304 0
0 0 0

-4.84595 -7.65919 0
2.10482 2.46349 0
0 0 0

-5.01319 -21.534 0
6.71511 7.63501 0
0 0 0

-2.75114 -7.93742 0
7.3232 6.22314 0
0 0 0

-0.100815 -5.28187 0
6.97305 6.34798 0
0 0 0

-4.72477 -15.3783 0
10.6828 7.05329 0
0 0 0

-1.1362 -1.41168 0
7.42322 2.32494 0
0 0 0

2.99172 -1.70612 0
2.24767 -5.31519 0
0 0 0

3.20513 -1.31317 0
-0.712847 -6.93383 0
0 0 0

2.61585 -1.13127 0
2.88751 -4.05222 0
0 0 0

3.17961 -1.2111 0
-0.0210013 -9.70069 0
0 0 0

SCALARS active double 1
LOOKUP_TABLE default
1
1
1
1
1
1
1
1
1
1
1
1
1
1
1
1
1
1
1
1
1
1
1
1
1
1
1
1
1
1
1
1
1
1
1
1
1
1
1
1
1
1
1
1
1
1
1
1
1
1
1
1
1
1
1
1
1
1
1
1
1
1
1
1
SCALARS extent double 1
LOOKUP_TABLE default
0.0125
0.0125
0.0125
0.0125
0.0125
0.0125
0.0125
0.0125
0.0125
0.0125
0.0125
0.0125
0.0125
0.0125
0.0125
0.0125
0.0125
0.0125
0.0125
0.0125
0.0125
0.0125
0.0125
0.0125
0.0125
0.0125
0.0125
0.0125
0.0125
0.0125
0.0125
0.0125
0.0125
0.0125
0.0125
0.0125
0.0125
0.0125
0.0125
0.0125
0.0125
0.0125
0.0125
0.0125
0.0125
0.0125
0.0125
0.0125
0.0125
0.0125
0.0125
0.0125
0.0125
0.0125
0.0125
0.0125
0.0125
0.0125
0.0125
0.0125
0.0125
0.0125
0.0125
0.0125
SCALARS pressure double 1
LOOKUP_TABLE default
410.808
1912.98
-3920.08
1601.76
2238.82
237.758
7642.53
5671.52
7310.17
2368.57
1795.6
2876.04
-2002.55
589.196
-1636.79
2481.37
55.3125
1598
1852.75
-341.428
297.392
-8154.32
731.329
-1316.26
-7828.33
8616.29
2334.62
3095.27
-2267.73
234.002
-375.512
-1785.75
-960.298
2096.51
2139.81
5227.23
-1634.69
-2934.65
5026.81
-1359.49
-6768.96
-874.402
-12505.3
2912.04
-3652.2
1159.05
-1603.55
-367.915
-9790.42
-4281.75
-4426.46
-7114.06
5135.63
1979.16
13576.4
-1111.54
-221.101
5882.76
-15224.3
662.548
-6619.28
-7096.41
-5568.11
2352.99
SCALARS density double 1
LOOKUP_TABLE default
1004.28
1020.09
960.051
1016.8
1023.56
1002.48
1082.73
1060.76
1078.99
1024.94
1018.85
1030.36
979.389
1006.15
983.121
1026.14
1000.58
1016.76
1019.46
996.455
1003.1
918.691
1007.63
986.404
921.811
1093.75
1024.58
1032.71
976.692
1002.44
996.102
981.6
990.063
1022.04
1022.5
1055.87
983.143
969.941
1053.67
985.961
932.024
990.947
878.047
1030.75
962.729
1012.13
983.461
996.181
903.192
956.447
955.008
928.685
1054.86
1020.8
1151.65
988.507
997.703
1063.09
853.566
1006.91
933.476
928.855
943.736
1024.77
