# vtk DataFile Version 3.0
Frame: 35, Time: 0.6
ASCII
DATASET UNSTRUCTURED_GRID
POINTS 64 double
0.905633 0.289316 0 
0.894796 0.267202 0 
0.880386 0.301505 0 
0.869198 0.279085 0 
0.882878 0.246107 0 
0.873518 0.222462 0 
0.859231 0.256567 0 
0.848212 0.231501 0 
0.867265 0.199603 0 
0.856348 0.175934 0 
0.840518 0.208303 0 
0.831665 0.184809 0 
0.847512 0.151188 0 
0.837175 0.128452 0 
0.822653 0.161336 0 
0.812182 0.138184 0 
0.857598 0.312592 0 
0.844958 0.290117 0 
0.834333 0.323226 0 
0.82077 0.299309 0 
0.836006 0.267155 0 
0.825829 0.242857 0 
0.812152 0.277106 0 
0.802834 0.252415 0 
0.816012 0.218784 0 
0.807463 0.19543 0 
0.792717 0.228236 0 
0.782823 0.205115 0 
0.798788 0.171214 0 
0.787253 0.148296 0 
0.77448 0.181774 0 
0.763147 0.159342 0 
0.810638 0.334217 0 
0.797834 0.312146 0 
0.787549 0.345791 0 
0.775924 0.323025 0 
0.789933 0.28835 0 
0.780403 0.26402 0 
0.76576 0.298862 0 
0.757368 0.27475 0 
0.770044 0.240712 0 
0.759834 0.217171 0 
0.747522 0.252389 0 
0.738191 0.229552 0 
0.750621 0.193777 0 
0.740307 0.171159 0 
0.727279 0.206738 0 
0.716522 0.183589 0 
0.763611 0.355246 0 
0.752756 0.332618 0 
0.740313 0.367307 0 
0.728799 0.344318 0 
0.742307 0.309114 0 
0.732761 0.285492 0 
0.7193 0.320245 0 
0.708112 0.297351 0 
0.723865 0.261733 0 
0.714016 0.238463 0 
0.699028 0.274429 0 
0.689749 0.250572 0 
0.701989 0.214906 0 
0.691018 0.192007 0 
0.678268 0.227637 0 
0.668191 0.204035 0 
CELLS 64 128
1 0
1 1
1 2
1 3
1 4
1 5
1 6
1 7
1 8
1 9
1 10
1 11
1 12
1 13
1 14
1 15
1 16
1 17
1 18
1 19
1 20
1 21
1 22
1 23
1 24
1 25
1 26
1 27
1 28
1 29
1 30
1 31
1 32
1 33
1 34
1 35
1 36
1 37
1 38
1 39
1 40
1 41
1 42
1 43
1 44
1 45
1 46
1 47
1 48
1 49
1 50
1 51
1 52
1 53
1 54
1 55
1 56
1 57
1 58
1 59
1 60
1 61
1 62
1 63
CELL_TYPES 64
1
1
1
1
1
1
1
1
1
1
1
1
1
1
1
1
1
1
1
1
1
1
1
1
1
1
1
1
1
1
1
1
1
1
1
1
1
1
1
1
1
1
1
1
1
1
1
1
1
1
1
1
1
1
1
1
1
1
1
1
1
1
1
1
POINT_DATA 64
VECTORS displacement double
0.393133 -0.323184 0 
0.382296 -0.370298 0 
0.342886 -0.310995 0 
0.331698 -0.358415 0 
0.370378 -0.416393 0 
0.361018 -0.465038 0 
0.321731 -0.405933 0 
0.310712 -0.455999 0 
0.354765 -0.512897 0 
0.343848 -0.561566 0 
0.303018 -0.504197 0 
0.294165 -0.552691 0 
0.335012 -0.611312 0 
0.324675 -0.659048 0 
0.285153 -0.601164 0 
0.274682 -0.649316 0 
0.295098 -0.299908 0 
0.282458 -0.347383 0 
0.246833 -0.289274 0 
0.23327 -0.338191 0 
0.273506 -0.395345 0 
0.263329 -0.444643 0 
0.224652 -0.385394 0 
0.215334 -0.435085 0 
0.253512 -0.493716 0 
0.244963 -0.54207 0 
0.205217 -0.484264 0 
0.195323 -0.532385 0 
0.236288 -0.591286 0 
0.224753 -0.639204 0 
0.18698 -0.580726 0 
0.175647 -0.628158 0 
0.198138 -0.278283 0 
0.185334 -0.325354 0 
0.150049 -0.266709 0 
0.138424 -0.314475 0 
0.177433 -0.37415 0 
0.167903 -0.42348 0 
0.12826 -0.363638 0 
0.119868 -0.41275 0 
0.157544 -0.471788 0 
0.147334 -0.520329 0 
0.110022 -0.460111 0 
0.100691 -0.507948 0 
0.138121 -0.568723 0 
0.127807 -0.616341 0 
0.0897794 -0.555762 0 
0.0790224 -0.603911 0 
0.101111 -0.257254 0 
0.0902555 -0.304882 0 
0.0528132 -0.245193 0 
0.0412985 -0.293182 0 
0.0798072 -0.353386 0 
0.0702612 -0.402008 0 
0.0317995 -0.342255 0 
0.0206117 -0.390149 0 
0.0613653 -0.450767 0 
0.0515162 -0.499037 0 
0.011528 -0.438071 0 
0.00224874 -0.486928 0 
0.0394889 -0.547594 0 
0.0285179 -0.595493 0 
-0.0092317 -0.534863 0 
-0.0193088 -0.583465 0 
VECTORS velocity double
-1.0841 -0.427855 0 
-1.55281 -0.427782 0 
-1.40461 -0.312968 0 
-1.60493 -0.106644 0 
-0.937962 -0.823687 0 
-1.33625 -0.815265 0 
-1.29495 -0.149367 0 
-1.67223 -1.07365 0 
-0.978243 -0.327458 0 
-1.46518 -0.998349 0 
-1.6019 -0.886119 0 
-1.64859 -1.11402 0 
-1.38469 -0.851078 0 
-1.5482 -0.968661 0 
-1.63967 -0.678387 0 
-1.31139 -0.724345 0 
-1.6221 -1.55053 0 
-1.40615 -1.91373 0 
-2.09532 -1.21241 0 
-2.29463 -1.49273 0 
-1.13023 -1.44806 0 
-1.29073 -1.90073 0 
-2.01909 -1.34647 0 
-1.88403 -0.924639 0 
-1.72108 -1.2364 0 
-1.55519 -0.822556 0 
-2.00199 -0.379479 0 
-1.51263 -0.460967 0 
-1.70658 -0.985204 0 
-1.26364 -1.02957 0 
-1.45769 -0.643408 0 
-1.78677 -0.344011 0 
-2.02113 -1.57324 0 
-1.32849 -1.03539 0 
-1.38313 -0.827145 0 
-0.816109 -0.796044 0 
-1.30394 -1.03377 0 
-1.46489 -0.574146 0 
-1.06122 -0.269391 0 
-1.97349 -0.185558 0 
-1.22804 -0.397388 0 
-0.866339 -0.712056 0 
-2.20253 -1.0028 0 
-1.59287 -0.876218 0 
-1.19014 -1.25393 0 
-1.62432 -0.930646 0 
-1.70366 -1.05934 0 
-1.92368 -1.37274 0 
-1.07112 -0.20486 0 
-1.54127 -0.663208 0 
-1.56061 -0.739647 0 
-1.72753 -0.333264 0 
-1.59614 -0.516107 0 
-2.10742 -0.325878 0 
-1.41663 -0.628957 0 
-1.78858 -0.785872 0 
-1.69575 -0.62298 0 
-1.47189 -0.828001 0 
-1.53456 -1.20843 0 
-1.50382 -1.24584 0 
-1.57986 -0.915344 0 
-2.00697 -0.356968 0 
-1.45716 -0.500652 0 
-1.43393 -0.792005 0 
SCALARS mass double 1
LOOKUP_TABLE default
0.625
0.625
0.625
0.625
0.625
0.625
0.625
0.625
0.625
0.625
0.625
0.625
0.625
0.625
0.625
0.625
0.625
0.625
0.625
0.625
0.625
0.625
0.625
0.625
0.625
0.625
0.625
0.625
0.625
0.625
0.625
0.625
0.625
0.625
0.625
0.625
0.625
0.625
0.625
0.625
0.625
0.625
0.625
0.625
0.625
0.625
0.625
0.625
0.625
0.625
0.625
0.625
0.625
0.625
0.625
0.625
0.625
0.625
0.625
0.625
0.625
0.625
0.625
0.625
SCALARS volume double 1
LOOKUP_TABLE default
0.000638821
0.000596826
0.000616982
0.000651159
0.000606534
0.000614083
0.000626903
0.000603641
0.000636319
0.000629107
0.000647131
0.000650608
0.000638473
0.000636694
0.00062452
0.000626055
0.000650938
0.000615558
0.000659391
0.000630497
0.000634769
0.000648028
0.000616908
0.000617545
0.00059188
0.000633541
0.000634816
0.0006477
0.000622975
0.000656631
0.000611949
0.000651433
0.000609256
0.000594892
0.000617609
0.000621407
0.000589961
0.00062578
0.000643962
0.000649342
0.000614088
0.000613648
0.00061738
0.000584313
0.000628318
0.000601855
0.000638195
0.000640892
0.00064074
0.000618273
0.000621412
0.000635091
0.000595751
0.000645482
0.000655281
0.000648329
0.000631478
0.000647743
0.000621013
0.000626663
0.000640013
0.000652185
0.000598088
0.000602538
VECTORS momentum double
-0.677561 -0.267409 0 
-0.970507 -0.267363 0 
-0.877881 -0.195605 0 
-1.00308 -0.0666524 0 
-0.586226 -0.514804 0 
-0.835156 -0.509541 0 
-0.809343 -0.0933546 0 
-1.04515 -0.671029 0 
-0.611402 -0.204661 0 
-0.915736 -0.623968 0 
-1.00119 -0.553825 0 
-1.03037 -0.69626 0 
-0.865429 -0.531924 0 
-0.967627 -0.605413 0 
-1.02479 -0.423992 0 
-0.819618 -0.452716 0 
-1.01381 -0.96908 0 
-0.878842 -1.19608 0 
-1.30957 -0.757757 0 
-1.43414 -0.932959 0 
-0.706394 -0.905039 0 
-0.806708 -1.18795 0 
-1.26193 -0.841546 0 
-1.17752 -0.577899 0 
-1.07568 -0.772751 0 
-0.971992 -0.514097 0 
-1.25125 -0.237174 0 
-0.945393 -0.288104 0 
-1.06661 -0.615753 0 
-0.789774 -0.643484 0 
-0.911056 -0.40213 0 
-1.11673 -0.215007 0 
-1.26321 -0.983274 0 
-0.830305 -0.647118 0 
-0.864459 -0.516966 0 
-0.510068 -0.497528 0 
-0.814962 -0.646106 0 
-0.915559 -0.358841 0 
-0.663261 -0.168369 0 
-1.23343 -0.115974 0 
-0.767522 -0.248367 0 
-0.541462 -0.445035 0 
-1.37658 -0.626751 0 
-0.995545 -0.547636 0 
-0.743835 -0.783705 0 
-1.0152 -0.581654 0 
-1.06479 -0.66209 0 
-1.2023 -0.857964 0 
-0.669451 -0.128038 0 
-0.963292 -0.414505 0 
-0.975383 -0.462279 0 
-1.07971 -0.20829 0 
-0.997589 -0.322567 0 
-1.31713 -0.203674 0 
-0.885392 -0.393098 0 
-1.11786 -0.49117 0 
-1.05984 -0.389363 0 
-0.919929 -0.517501 0 
-0.959099 -0.755268 0 
-0.939887 -0.778651 0 
-0.987413 -0.57209 0 
-1.25436 -0.223105 0 
-0.910722 -0.312908 0 
-0.896206 -0.495003 0 
VECTORS body_force double
0 -9.81 0 
0 -9.81 0 
0 -9.81 0 
0 -9.81 0 
0 -9.81 0 
0 -9.81 0 
0 -9.81 0 
0 -9.81 0 
0 -9.81 0 
0 -9.81 0 
0 -9.81 0 
0 -9.81 0 
0 -9.81 0 
0 -9.81 0 
0 -9.81 0 
0 -9.81 0 
0 -9.81 0 
0 -9.81 0 
0 -9.81 0 
0 -9.81 0 
0 -9.81 0 
0 -9.81 0 
0 -9.81 0 
0 -9.81 0 
0 -9.81 0 
0 -9.81 0 
0 -9.81 0 
0 -9.81 0 
0 -9.81 0 
0 -9.81 0 
0 -9.81 0 
0 -9.81 0 
0 -9.81 0 
0 -9.81 0 
0 -9.81 0 
0 -9.81 0 
0 -9.81 0 
0 -9.81 0 
0 -9.81 0 
0 -9.81 0 
0 -9.81 0 
0 -9.81 0 
0 -9.81 0 
0 -9.81 0 
0 -9.81 0 
0 -9.81 0 
0 -9.81 0 
0 -9.81 0 
0 -9.81 0 
0 -9.81 0 
0 -9.81 0 
0 -9.81 0 
0 -9.81 0 
0 -9.81 0 
0 -9.81 0 
0 -9.81 0 
0 -9.81 0 
0 -9.81 0 
0 -9.81 0 
0 -9.81 0 
0 -9.81 0 
0 -9.81 0 
0 -9.81 0 
0 -9.81 0 
TENSORS cauchy_stress double
3109.13 -3835.86 0
-3835.86 1097.28 0
0 0 0

-3614.56 -2372.5 0
-2372.5 -5255.98 0
0 0 0

230.563 -669.655 0
-669.655 -2713.5 0
0 0 0

7463.97 -4338.31 0
-4338.31 421.209 0
0 0 0

-1505.85 2454.72 0
2454.72 -4261.71 0
0 0 0

-184.948 -6792.02 0
-6792.02 -3203.73 0
0 0 0

-1727.63 -1261.24 0
-1261.24 2312.18 0
0 0 0

-7533.33 -1318.04 0
-1318.04 846.336 0
0 0 0

6458.96 787.445 0
787.445 -3007.42 0
0 0 0

3296.35 3198.77 0
3198.77 -2036.71 0
0 0 0

4870.54 -5515.73 0
-5515.73 1821.27 0
0 0 0

5920.84 -787.032 0
-787.032 1801.54 0
0 0 0

3170.78 -2863.3 0
-2863.3 930.581 0
0 0 0

3290.49 1654.91 0
1654.91 274.537 0
0 0 0

2711.9 -1365.19 0
-1365.19 -2859.74 0
0 0 0

2003.28 -1393.94 0
-1393.94 -1679.04 0
0 0 0

8850.85 823.674 0
823.674 -1031.2 0
0 0 0

466.34 -212.759 0
-212.759 -3393.66 0
0 0 0

6131.44 5278.77 0
5278.77 4169.43 0
0 0 0

1946.25 -4109.7 0
-4109.7 -262.181 0
0 0 0

2551.44 -269.632 0
-269.632 431.018 0
0 0 0

3297 836.517 0
836.517 3661.23 0
0 0 0

-1857.07 2002.81 0
2002.81 -648.955 0
0 0 0

-3800.19 -344.641 0
-344.641 1492.5 0
0 0 0

-5184.13 1945.22 0
1945.22 -5286.53 0
0 0 0

2493.93 329.651 0
329.651 116.324 0
0 0 0

1400.86 -2505.86 0
-2505.86 1595.85 0
0 0 0

2294.1 -2684.6 0
-2684.6 4566.67 0
0 0 0

-469.166 -1017.92 0
-1017.92 -154.875 0
0 0 0

6523.49 -882.827 0
-882.827 2970.96 0
0 0 0

-1503.83 -4343.13 0
-4343.13 -2554.49 0
0 0 0

4160.03 1704.99 0
1704.99 3806 0
0 0 0

-2535.79 -6150.18 0
-6150.18 -2370.58 0
0 0 0

-7810.04 545.293 0
545.293 -1684.63 0
0 0 0

-4131.24 -849.594 0
-849.594 1843.5 0
0 0 0

-2299.34 2810.99 0
2810.99 1190.67 0
0 0 0

-10798.1 -6169.69 0
-6169.69 -297.07 0
0 0 0

-5384.25 390.088 0
390.088 5624.18 0
0 0 0

2695.52 -2724.18 0
-2724.18 3052.07 0
0 0 0

7810.77 -3503.41 0
-3503.41 -463.058 0
0 0 0

-6496.96 -2808.57 0
-2808.57 3109.86 0
0 0 0

-4148.29 -1339.89 0
-1339.89 623.13 0
0 0 0

698.32 550.749 0
550.749 -3057.23 0
0 0 0

-3817.18 99.6725 0
99.6725 -9128.09 0
0 0 0

414.877 -4083.31 0
-4083.31 603.309 0
0 0 0

-3363.49 -134.405 0
-134.405 -3893.34 0
0 0 0

-1066.21 -3930.15 0
-3930.15 5083.92 0
0 0 0

3535.57 -1106.77 0
-1106.77 1293 0
0 0 0

3025.95 -2322.79 0
-2322.79 1757.06 0
0 0 0

327.414 -2323.28 0
-2323.28 -2408.5 0
0 0 0

-523.947 1516.24 0
1516.24 -583.159 0
0 0 0

2461.72 -728.238 0
-728.238 618.338 0
0 0 0

-6521.54 -1310.92 0
-1310.92 -2695.51 0
0 0 0

2951.31 -2847.24 0
-2847.24 3249.83 0
0 0 0

3661.34 -244.08 0
-244.08 5437.14 0
0 0 0

5741.2 -1569.29 0
-1569.29 1306.23 0
0 0 0

267.433 -3674.84 0
-3674.84 1715.4 0
0 0 0

4049.77 2179.88 0
2179.88 2823.84 0
0 0 0

3051.96 -643.365 0
-643.365 -4282.7 0
0 0 0

-615.548 -897.771 0
-897.771 1126.58 0
0 0 0

5877.22 988.667 0
988.667 -1312.31 0
0 0 0

5737.11 -1615.67 0
-1615.67 2450.75 0
0 0 0

-3097.94 -377.816 0
-377.816 -5366.15 0
0 0 0

-4079.68 -1461.48 0
-1461.48 -2959.03 0
0 0 0

TENSORS velocity_gradient double
-2.22569 -0.330729 0
10.8462 0.974283 0
0 0 0

2.07787 -1.36168 0
11.7761 0.497886 0
0 0 0

5.19581 -7.62723 0
15.1478 -2.81625 0
0 0 0

4.45673 -2.96661 0
13.2897 -2.23413 0
0 0 0

2.81394 0.167106 0
9.47806 0.745208 0
0 0 0

3.01386 1.03774 0
6.55756 0.0483984 0
0 0 0

3.11023 -3.56631 0
10.7455 -3.36726 0
0 0 0

3.18335 1.14884 0
2.41759 -2.67839 0
0 0 0

2.88906 1.78832 0
3.67115 0.849306 0
0 0 0

0.238006 1.10838 0
0.448996 1.14368 0
0 0 0

2.18407 0.933322 0
-2.23467 -3.03299 0
0 0 0

1.3489 -0.327715 0
-1.71582 0.640701 0
0 0 0

-1.15181 0.739737 0
-1.24138 0.474414 0
0 0 0

-1.57262 0.121595 0
-1.40346 0.899879 0
0 0 0

0.795842 -0.540133 0
-0.908489 0.95078 0
0 0 0

-0.595754 -2.39747 0
-0.974431 -0.206478 0
0 0 0

4.55341 -8.3009 0
14.9603 -2.69708 0
0 0 0

0.688022 -3.53472 0
0.433681 -4.26672 0
0 0 0

-5.9633 -5.0831 0
-5.9029 -1.13081 0
0 0 0

-1.87375 -1.82611 0
-4.05669 -1.72823 0
0 0 0

2.19791 -2.69937 0
-2.90027 -4.19215 0
0 0 0

4.05343 0.132519 0
-2.3301 -2.99687 0
0 0 0

1.00307 0.168686 0
-3.20174 -3.46851 0
0 0 0

3.48329 0.649649 0
-2.84886 -3.02869 0
0 0 0

2.75015 -0.390029 0
-2.26326 -2.96614 0
0 0 0

1.63572 -0.888328 0
-2.04037 0.600198 0
0 0 0

0.468809 -1.85404 0
-1.28703 -1.95723 0
0 0 0

-1.6908 -2.6577 0
2.44758 -0.382408 0
0 0 0

0.402056 -0.824605 0
-0.352419 1.37049 0
0 0 0

0.211674 -3.82169 0
-1.51181 -0.551714 0
0 0 0

-1.02751 0.566947 0
1.69783 -0.629323 0
0 0 0

0.540163 1.35695 0
-0.55695 -1.76559 0
0 0 0

-7.88437 -0.860748 0
-6.80596 0.854034 0
0 0 0

-1.2807 0.952995 0
-7.87108 1.50699 0
0 0 0

-0.211884 2.8793 0
-8.72121 2.21388 0
0 0 0

0.454892 2.25815 0
-9.83592 1.01182 0
0 0 0

1.61783 1.9453 0
-9.43082 -2.00919 0
0 0 0

1.97597 2.08398 0
-6.43364 -0.848661 0
0 0 0

1.38701 2.47865 0
-10.2232 0.801433 0
0 0 0

1.82122 2.42123 0
-7.72875 1.97369 0
0 0 0

1.43935 -3.8508 0
-3.24222 1.6427 0
0 0 0

-0.645208 -4.76517 0
0.544148 3.30356 0
0 0 0

-0.68264 0.420129 0
0.428293 3.08803 0
0 0 0

-0.0950494 -4.06874 0
2.10571 3.76558 0
0 0 0

0.640991 1.77581 0
1.37122 -2.15883 0
0 0 0

8.0752 3.27646 0
0.137553 -2.6246 0
0 0 0

3.71413 -2.23209 0
-0.959344 2.28772 0
0 0 0

6.70358 5.88527 0
-0.805638 -0.830664 0
0 0 0

0.346271 2.64141 0
-7.59298 -0.189682 0
0 0 0

0.29283 3.16508 0
-7.54739 0.249258 0
0 0 0

3.55196 -0.513783 0
-0.619157 -2.47742 0
0 0 0

1.90622 2.4325 0
1.60402 1.34439 0
0 0 0

0.809842 3.22677 0
4.38415 0.483133 0
0 0 0

-0.567885 1.33567 0
5.18482 2.8942 0
0 0 0

1.14726 2.53325 0
3.61226 2.39127 0
0 0 0

0.261429 0.377622 0
5.12062 2.84988 0
0 0 0

-2.41304 0.642325 0
4.90349 2.78849 0
0 0 0

-1.59564 -0.0185376 0
3.31316 0.506584 0
0 0 0

-3.28154 -0.59834 0
4.18987 1.74926 0
0 0 0

-2.01986 0.906269 0
-2.65082 -0.3955 0
0 0 0

1.21298 1.703 0
-0.338717 -0.870234 0
0 0 0

-5.14484 6.6378 0
-2.31055 -0.413333 0
0 0 0

-2.38462 1.52303 0
-2.76568 -0.604491 0
0 0 0

-3.73288 1.17711 0
-1.72761 -0.489372 0
0 0 0

SCALARS active double 1
LOOKUP_TABLE default
1
1
1
1
1
1
1
1
1
1
1
1
1
1
1
1
1
1
1
1
1
1
1
1
1
1
1
1
1
1
1
1
1
1
1
1
1
1
1
1
1
1
1
1
1
1
1
1
1
1
1
1
1
1
1
1
1
1
1
1
1
1
1
1
SCALARS extent double 1
LOOKUP_TABLE default
0.0125
0.0125
0.0125
0.0125
0.0125
0.0125
0.0125
0.0125
0.0125
0.0125
0.0125
0.0125
0.0125
0.0125
0.0125
0.0125
0.0125
0.0125
0.0125
0.0125
0.0125
0.0125
0.0125
0.0125
0.0125
0.0125
0.0125
0.0125
0.0125
0.0125
0.0125
0.0125
0.0125
0.0125
0.0125
0.0125
0.0125
0.0125
0.0125
0.0125
0.0125
0.0125
0.0125
0.0125
0.0125
0.0125
0.0125
0.0125
0.0125
0.0125
0.0125
0.0125
0.0125
0.0125
0.0125
0.0125
0.0125
0.0125
0.0125
0.0125
0.0125
0.0125
0.0125
0.0125
SCALARS pressure double 1
LOOKUP_TABLE default
-2103.2
4435.27
1241.47
-3942.59
2883.78
1694.34
-292.273
3343.5
-1725.77
-629.818
-3345.91
-3861.19
-2050.68
-1782.51
73.9244
-162.122
-3909.82
1463.66
-5150.44
-842.033
-1491.23
-3479.11
1253.01
1153.84
5235.33
-1305.13
-1498.35
-3430.38
312.021
-4747.22
2029.16
-3983.02
2453.19
4747.33
1143.87
554.335
5547.6
-119.967
-2873.8
-3673.85
1693.55
1762.58
1179.46
6472.63
-509.093
3628.41
-2008.85
-2414.29
-2391.51
1040.54
553.553
-1540.03
4608.53
-3100.57
-4549.24
-3523.72
-991.418
-3436.81
615.366
-255.517
-2282.46
-4093.93
4232.05
3519.36
SCALARS density double 1
LOOKUP_TABLE default
978.364
1047.21
1012.99
959.826
1030.45
1017.78
996.965
1035.38
982.212
993.471
965.801
960.639
978.899
981.633
1000.77
998.315
960.153
1015.34
947.845
991.281
984.611
964.464
1013.12
1012.07
1055.96
986.518
984.538
964.953
1003.25
951.828
1021.33
959.423
1025.84
1050.61
1011.97
1005.78
1059.39
998.753
970.555
962.513
1017.77
1018.5
1012.34
1069.63
994.719
1038.46
979.325
975.204
975.435
1010.88
1005.77
984.111
1049.1
968.268
953.79
964.017
989.742
964.888
1006.42
997.346
976.542
958.317
1045
1037.28
