# vtk DataFile Version 3.0
Frame: 32, Time: 0.55
ASCII
DATASET UNSTRUCTURED_GRID
POINTS 64 double
0.169463 0.0880761 0 
0.168977 0.113138 0 
0.193772 0.0884067 0 
0.193292 0.113453 0 
0.166011 0.137669 0 
0.166163 0.163048 0 
0.191366 0.137402 0 
0.191733 0.161525 0 
0.163947 0.188074 0 
0.163854 0.213059 0 
0.190733 0.186674 0 
0.189189 0.211097 0 
0.166684 0.238903 0 
0.166288 0.263339 0 
0.192169 0.237406 0 
0.191993 0.262863 0 
0.219516 0.0898166 0 
0.218334 0.115093 0 
0.243343 0.0891378 0 
0.242657 0.113986 0 
0.216104 0.139205 0 
0.215194 0.162594 0 
0.242077 0.138297 0 
0.240359 0.161456 0 
0.213989 0.187721 0 
0.211769 0.211693 0 
0.239697 0.186572 0 
0.237711 0.210267 0 
0.214864 0.236933 0 
0.216881 0.264924 0 
0.239887 0.23603 0 
0.240984 0.263191 0 
0.268304 0.0872568 0 
0.266446 0.112985 0 
0.295831 0.0892991 0 
0.291867 0.114205 0 
0.266964 0.137998 0 
0.264689 0.1615 0 
0.292747 0.139022 0 
0.289852 0.163086 0 
0.264279 0.18591 0 
0.262661 0.209721 0 
0.288722 0.18743 0 
0.287294 0.211002 0 
0.263896 0.236974 0 
0.265277 0.263028 0 
0.288062 0.236617 0 
0.290155 0.263074 0 
0.320846 0.0901401 0 
0.315399 0.115741 0 
0.34542 0.0901647 0 
0.340272 0.115924 0 
0.317563 0.140139 0 
0.315146 0.164082 0 
0.343989 0.139224 0 
0.341141 0.164606 0 
0.313413 0.187665 0 
0.312979 0.211413 0 
0.339091 0.189153 0 
0.339924 0.212311 0 
0.312249 0.236631 0 
0.313928 0.261986 0 
0.337752 0.237389 0 
0.340063 0.26161 0 
CELLS 64 128
1 0
1 1
1 2
1 3
1 4
1 5
1 6
1 7
1 8
1 9
1 10
1 11
1 12
1 13
1 14
1 15
1 16
1 17
1 18
1 19
1 20
1 21
1 22
1 23
1 24
1 25
1 26
1 27
1 28
1 29
1 30
1 31
1 32
1 33
1 34
1 35
1 36
1 37
1 38
1 39
1 40
1 41
1 42
1 43
1 44
1 45
1 46
1 47
1 48
1 49
1 50
1 51
1 52
1 53
1 54
1 55
1 56
1 57
1 58
1 59
1 60
1 61
1 62
1 63
CELL_TYPES 64
1
1
1
1
1
1
1
1
1
1
1
1
1
1
1
1
1
1
1
1
1
1
1
1
1
1
1
1
1
1
1
1
1
1
1
1
1
1
1
1
1
1
1
1
1
1
1
1
1
1
1
1
1
1
1
1
1
1
1
1
1
1
1
1
POINT_DATA 64
VECTORS displacement double
-0.243037 -0.324424 0 
-0.243523 -0.324362 0 
-0.243728 -0.324093 0 
-0.244208 -0.324047 0 
-0.246489 -0.324831 0 
-0.246337 -0.324452 0 
-0.246134 -0.325098 0 
-0.245767 -0.325975 0 
-0.248553 -0.324426 0 
-0.248646 -0.324441 0 
-0.246767 -0.325826 0 
-0.248311 -0.326403 0 
-0.245816 -0.323597 0 
-0.246212 -0.324161 0 
-0.245331 -0.325094 0 
-0.245507 -0.324637 0 
-0.242984 -0.322683 0 
-0.244166 -0.322407 0 
-0.244157 -0.323362 0 
-0.244843 -0.323514 0 
-0.246396 -0.323295 0 
-0.247306 -0.324906 0 
-0.245423 -0.324203 0 
-0.247141 -0.326044 0 
-0.248511 -0.324779 0 
-0.250731 -0.325807 0 
-0.247803 -0.325928 0 
-0.249789 -0.327233 0 
-0.247636 -0.325567 0 
-0.245619 -0.322576 0 
-0.247613 -0.32647 0 
-0.246516 -0.324309 0 
-0.244196 -0.325243 0 
-0.246054 -0.324515 0 
-0.241669 -0.323201 0 
-0.245633 -0.323295 0 
-0.245536 -0.324502 0 
-0.247811 -0.326 0 
-0.244753 -0.323478 0 
-0.247648 -0.324414 0 
-0.248221 -0.32659 0 
-0.249839 -0.327779 0 
-0.248778 -0.32507 0 
-0.250206 -0.326498 0 
-0.248604 -0.325526 0 
-0.247223 -0.324472 0 
-0.249438 -0.325883 0 
-0.247345 -0.324426 0 
-0.241654 -0.32236 0 
-0.247101 -0.321759 0 
-0.24208 -0.322335 0 
-0.247228 -0.321576 0 
-0.244937 -0.322361 0 
-0.247354 -0.323418 0 
-0.243511 -0.323276 0 
-0.246359 -0.322894 0 
-0.249087 -0.324835 0 
-0.249521 -0.326087 0 
-0.248409 -0.323347 0 
-0.247576 -0.325189 0 
-0.250251 -0.325869 0 
-0.248572 -0.325514 0 
-0.249748 -0.325111 0 
-0.247437 -0.32589 0 
VECTORS velocity double
-0.716978 -1.16506 0 
-0.73185 -0.827208 0 
-0.768425 -0.64087 0 
-1.2233 -0.849657 0 
-1.15092 -1.44775 0 
-1.04353 -0.763774 0 
-1.11504 -1.09845 0 
-0.974931 -0.428449 0 
-1.06124 -0.623995 0 
-1.48084 -0.788913 0 
-0.943506 -0.530306 0 
-1.01699 -1.22957 0 
-1.15494 -0.375113 0 
-1.00415 -0.486672 0 
-1.20037 -0.770892 0 
-0.960786 -0.51906 0 
-0.490604 -0.932569 0 
-0.930016 -0.645271 0 
-1.00793 -0.614981 0 
-0.975452 -0.268811 0 
-1.00001 -0.933974 0 
-1.05305 -0.570296 0 
-0.92382 -0.731113 0 
-1.1109 -0.566515 0 
-1.2116 -0.535903 0 
-1.33591 -1.04746 0 
-1.04209 -0.406958 0 
-1.23802 -1.00007 0 
-1.62974 -0.787906 0 
-0.93748 -0.517581 0 
-1.53422 -0.553635 0 
-0.984772 -0.584405 0 
-0.794829 -0.647212 0 
-1.17335 -0.736251 0 
-1.12451 -0.797771 0 
-1.07701 -0.615846 0 
-0.972 -1.00131 0 
-0.824425 -0.567589 0 
-0.809315 -1.02486 0 
-0.635667 -0.322101 0 
-0.958601 -0.632003 0 
-1.01387 -1.09233 0 
-1.11287 -0.296965 0 
-1.21609 -0.618162 0 
-1.61308 -0.900447 0 
-1.11723 -0.733505 0 
-1.60985 -0.538909 0 
-1.17045 -0.380079 0 
-1.09379 -0.724782 0 
-1.00311 -0.371929 0 
-1.05604 -0.586347 0 
-0.961381 -0.938389 0 
-1.24145 -1.05525 0 
-0.708095 -0.54211 0 
-0.971897 -0.899388 0 
-0.936959 -0.337562 0 
-0.92943 -0.438811 0 
-1.10858 -0.942769 0 
-1.01627 -0.650656 0 
-1.07631 -0.835099 0 
-1.40604 -0.611236 0 
-1.25444 -0.662312 0 
-0.970607 -0.553034 0 
-1.5861 -0.528334 0 
SCALARS mass double 1
LOOKUP_TABLE default
0.625
0.625
0.625
0.625
0.625
0.625
0.625
0.625
0.625
0.625
0.625
0.625
0.625
0.625
0.625
0.625
0.625
0.625
0.625
0.625
0.625
0.625
0.625
0.625
0.625
0.625
0.625
0.625
0.625
0.625
0.625
0.625
0.625
0.625
0.625
0.625
0.625
0.625
0.625
0.625
0.625
0.625
0.625
0.625
0.625
0.625
0.625
0.625
0.625
0.625
0.625
0.625
0.625
0.625
0.625
0.625
0.625
0.625
0.625
0.625
0.625
0.625
0.625
0.625
SCALARS volume double 1
LOOKUP_TABLE default
0.000635604
0.000627177
0.000618358
0.000645489
0.000634393
0.000658943
0.000605851
0.000600907
0.000637085
0.000610591
0.000608492
0.000600339
0.000639467
0.00063729
0.00063146
0.000619442
0.000645416
0.00065979
0.00060785
0.000626637
0.000609716
0.000620126
0.000612484
0.000594801
0.000625559
0.00056
0.000617259
0.000613282
0.000650954
0.000630157
0.000621834
0.000627213
0.000661459
0.000620101
0.000617169
0.000610875
0.000635887
0.0005988
0.000620543
0.000593449
0.000619053
0.000586895
0.000657299
0.000587924
0.000638439
0.00060482
0.000649789
0.000623309
0.000642423
0.000615504
0.000617498
0.00063988
0.000613857
0.000620925
0.000619861
0.000632184
0.000600227
0.000618568
0.000604052
0.000609344
0.000622486
0.000641691
0.000628299
0.000614603
VECTORS momentum double
-0.448111 -0.72816 0 
-0.457406 -0.517005 0 
-0.480265 -0.400544 0 
-0.764563 -0.531035 0 
-0.719324 -0.904842 0 
-0.652206 -0.477359 0 
-0.696898 -0.686534 0 
-0.609332 -0.267781 0 
-0.663276 -0.389997 0 
-0.925525 -0.493071 0 
-0.589691 -0.331441 0 
-0.635619 -0.768482 0 
-0.721836 -0.234445 0 
-0.627592 -0.30417 0 
-0.750233 -0.481807 0 
-0.600491 -0.324413 0 
-0.306628 -0.582856 0 
-0.58126 -0.403295 0 
-0.629959 -0.384363 0 
-0.609658 -0.168007 0 
-0.625005 -0.583734 0 
-0.658157 -0.356435 0 
-0.577388 -0.456946 0 
-0.69431 -0.354072 0 
-0.75725 -0.334939 0 
-0.834946 -0.654665 0 
-0.651306 -0.254349 0 
-0.77376 -0.625044 0 
-1.01859 -0.492441 0 
-0.585925 -0.323488 0 
-0.958886 -0.346022 0 
-0.615483 -0.365253 0 
-0.496768 -0.404508 0 
-0.733345 -0.460157 0 
-0.702818 -0.498607 0 
-0.673134 -0.384904 0 
-0.6075 -0.625816 0 
-0.515266 -0.354743 0 
-0.505822 -0.64054 0 
-0.397292 -0.201313 0 
-0.599126 -0.395002 0 
-0.63367 -0.682705 0 
-0.695546 -0.185603 0 
-0.760057 -0.386351 0 
-1.00818 -0.56278 0 
-0.698269 -0.458441 0 
-1.00616 -0.336818 0 
-0.731534 -0.237549 0 
-0.683621 -0.452988 0 
-0.626945 -0.232456 0 
-0.660023 -0.366467 0 
-0.600863 -0.586493 0 
-0.775906 -0.659531 0 
-0.44256 -0.338818 0 
-0.607435 -0.562117 0 
-0.5856 -0.210976 0 
-0.580894 -0.274257 0 
-0.692864 -0.589231 0 
-0.635166 -0.40666 0 
-0.672692 -0.521937 0 
-0.878776 -0.382023 0 
-0.784025 -0.413945 0 
-0.606629 -0.345646 0 
-0.991311 -0.330209 0 
VECTORS body_force double
0 -9.81 0 
0 -9.81 0 
0 -9.81 0 
0 -9.81 0 
0 -9.81 0 
0 -9.81 0 
0 -9.81 0 
0 -9.81 0 
0 -9.81 0 
0 -9.81 0 
0 -9.81 0 
0 -9.81 0 
0 -9.81 0 
0 -9.81 0 
0 -9.81 0 
0 -9.81 0 
0 -9.81 0 
0 -9.81 0 
0 -9.81 0 
0 -9.81 0 
0 -9.81 0 
0 -9.81 0 
0 -9.81 0 
0 -9.81 0 
0 -9.81 0 
0 -9.81 0 
0 -9.81 0 
0 -9.81 0 
0 -9.81 0 
0 -9.81 0 
0 -9.81 0 
0 -9.81 0 
0 -9.81 0 
0 -9.81 0 
0 -9.81 0 
0 -9.81 0 
0 -9.81 0 
0 -9.81 0 
0 -9.81 0 
0 -9.81 0 
0 -9.81 0 
0 -9.81 0 
0 -9.81 0 
0 -9.81 0 
0 -9.81 0 
0 -9.81 0 
0 -9.81 0 
0 -9.81 0 
0 -9.81 0 
0 -9.81 0 
0 -9.81 0 
0 -9.81 0 
0 -9.81 0 
0 -9.81 0 
0 -9.81 0 
0 -9.81 0 
0 -9.81 0 
0 -9.81 0 
0 -9.81 0 
0 -9.81 0 
0 -9.81 0 
0 -9.81 0 
0 -9.81 0 
0 -9.81 0 
TENSORS cauchy_stress double
2369.98 41.3733 0
41.3733 865.39 0
0 0 0

-1338.29 -3146.64 0
-3146.64 2006.92 0
0 0 0

-533.288 770.718 0
770.718 -1521.36 0
0 0 0

3128.89 -532.475 0
-532.475 3074.33 0
0 0 0

668.045 -292.92 0
-292.92 2200.52 0
0 0 0

4020.33 74.0491 0
74.0491 6149.96 0
0 0 0

654.213 -2014.15 0
-2014.15 -6638.52 0
0 0 0

-3729.99 -715.926 0
-715.926 -3829.95 0
0 0 0

3448.08 -2988.22 0
-2988.22 234.808 0
0 0 0

-3227.54 2933.26 0
2933.26 -1257.81 0
0 0 0

-2454.29 -4134.95 0
-4134.95 -2693.45 0
0 0 0

-3937.61 3188.97 0
3188.97 -3804.25 0
0 0 0

2504.96 -2410.55 0
-2410.55 1895.72 0
0 0 0

691.158 2395.2 0
2395.2 3053.72 0
0 0 0

-4519.87 -1155.71 0
-1155.71 6497.21 0
0 0 0

1174.38 -719.277 0
-719.277 -2892.13 0
0 0 0

3835.41 872.966 0
872.966 2346.05 0
0 0 0

3028.4 1597.02 0
1597.02 7388.83 0
0 0 0

-2745.71 -1401.18 0
-1401.18 -2604.97 0
0 0 0

-1116.52 1005.36 0
1005.36 1619.7 0
0 0 0

1246.88 1405.03 0
1405.03 -6007.99 0
0 0 0

1669.76 2891.98 0
2891.98 -3175.37 0
0 0 0

2225.5 -4552.81 0
-4552.81 -6115.57 0
0 0 0

-3383.94 -627.79 0
-627.79 -6140.02 0
0 0 0

137.307 -1143.46 0
-1143.46 34.5962 0
0 0 0

-9343.53 -1068.58 0
-1068.58 -11774.6 0
0 0 0

-2871.84 -1350.56 0
-1350.56 475.235 0
0 0 0

992.437 -3273.02 0
-3273.02 -4632.09 0
0 0 0

1480.25 1504.19 0
1504.19 6344.11 0
0 0 0

-353.556 -1690.98 0
-1690.98 1933.69 0
0 0 0

-3469.2 2363.43 0
2363.43 2492.55 0
0 0 0

-4491.82 2469.15 0
2469.15 5171.52 0
0 0 0

7422.76 934.212 0
934.212 3480.48 0
0 0 0

-3116.76 5986.25 0
5986.25 1603.46 0
0 0 0

1234.82 -329.577 0
-329.577 -3659.65 0
0 0 0

-3597.76 2904.71 0
2904.71 -798.163 0
0 0 0

4231.01 -1595.35 0
-1595.35 -909.959 0
0 0 0

-537.679 1171.82 0
1171.82 -7697.86 0
0 0 0

1146.32 -4449.26 0
-4449.26 -2522.49 0
0 0 0

-3005.55 -1080.97 0
-1080.97 -6956.12 0
0 0 0

-2382.09 1547.51 0
1547.51 543.564 0
0 0 0

-5420.42 -1313.74 0
-1313.74 -6676.93 0
0 0 0

3082.22 88.952 0
88.952 6607.66 0
0 0 0

1207.63 -4473.13 0
-4473.13 -12968.1 0
0 0 0

-4711.67 5775.56 0
5775.56 8803.02 0
0 0 0

1031.48 -349.225 0
-349.225 -7343.16 0
0 0 0

-131.551 4397.63 0
4397.63 7611.57 0
0 0 0

-3340.54 -403.761 0
-403.761 2819.54 0
0 0 0

2903.08 2558.01 0
2558.01 2384.44 0
0 0 0

-4789.41 4516.02 0
4516.02 1845.2 0
0 0 0

-662.066 125.861 0
125.861 -1660.29 0
0 0 0

1434.9 992.29 0
992.29 3089.93 0
0 0 0

353.357 -772.296 0
-772.296 -3812.82 0
0 0 0

2293.32 -880.529 0
-880.529 -3551.42 0
0 0 0

-800.227 -2.35039 0
-2.35039 -787.6 0
0 0 0

-374.805 -1009.52 0
-1009.52 2572.59 0
0 0 0

-4263.43 2021.27 0
2021.27 -3514.2 0
0 0 0

3368.81 -765.756 0
-765.756 -5358.21 0
0 0 0

-1833.03 264.369 0
264.369 -4722.86 0
0 0 0

2824.04 -2766.6 0
-2766.6 -7702.62 0
0 0 0

-1572.49 4858.92 0
4858.92 797.281 0
0 0 0

644.58 836.198 0
836.198 4423.75 0
0 0 0

-544.688 -2308.98 0
-2308.98 1557.02 0
0 0 0

-1403.32 8.76341 0
8.76341 -1822.66 0
0 0 0

TENSORS velocity_gradient double
-1.17906 -3.71656 0
4.08435 -0.00828916 0
0 0 0

-1.20954 -3.87265 0
4.37837 0.839168 0
0 0 0

-1.1828 -4.4298 0
4.0641 0.364667 0
0 0 0

-1.16696 -3.34397 0
4.33143 1.03832 0
0 0 0

-0.682675 -3.93437 0
4.5914 0.814211 0
0 0 0

-0.044797 -2.71059 0
3.36011 3.32721 0
0 0 0

-0.690905 -3.38928 0
4.58807 1.03461 0
0 0 0

-0.0901752 -1.98891 0
3.51376 0.883647 0
0 0 0

0.659311 -2.77121 0
0.976019 3.53247 0
0 0 0

0.342193 0.571867 0
-0.89502 3.89083 0
0 0 0

0.619121 -2.01571 0
1.1121 0.974386 0
0 0 0

0.431 -0.590488 0
-0.781553 2.4057 0
0 0 0

-0.839664 0.442541 0
-2.40507 3.72559 0
0 0 0

-0.532283 2.66578 0
-1.92345 -0.434566 0
0 0 0

-0.773917 -0.72808 0
-2.32106 2.2299 0
0 0 0

-0.556425 4.12466 0
-1.95702 1.59378 0
0 0 0

-1.10248 -4.06083 0
3.73636 0.403116 0
0 0 0

-0.126415 -2.35119 0
3.02247 0.262059 0
0 0 0

-1.19788 -3.40222 0
3.53535 0.341186 0
0 0 0

-0.179973 -1.24813 0
3.07385 -0.796212 0
0 0 0

0.966959 -2.44966 0
1.97349 0.356525 0
0 0 0

1.07789 -2.20641 0
1.50288 0.155629 0
0 0 0

0.923395 -1.27299 0
2.01528 -0.772362 0
0 0 0

1.10832 -2.85673 0
1.50582 0.09297 0
0 0 0

0.427826 -2.17667 0
1.44025 0.158494 0
0 0 0

-0.461838 -1.64909 0
0.921897 1.32969 0
0 0 0

0.458508 -2.84148 0
1.44321 0.0944392 0
0 0 0

-0.392812 -2.88458 0
0.979079 0.306197 0
0 0 0

-1.6619 -1.79869 0
-0.0722503 1.20576 0
0 0 0

-1.88974 4.93367 0
-0.991744 1.63665 0
0 0 0

-1.61903 -2.99189 0
-0.036737 0.217304 0
0 0 0

-1.92937 5.49472 0
-0.944483 0.967639 0
0 0 0

-3.13452 -2.19333 0
-1.46725 0.350456 0
0 0 0

-1.43424 0.364734 0
-1.01753 -0.521054 0
0 0 0

-2.14277 -0.751568 0
-1.12589 0.339484 0
0 0 0

-1.33964 2.29784 0
-0.977943 0.287782 0
0 0 0

0.466339 0.403354 0
-0.222299 -0.504895 0
0 0 0

1.41097 -2.97041 0
0.498614 0.536608 0
0 0 0

0.544492 2.3603 0
-0.189599 0.313915 0
0 0 0

1.42191 -2.79552 0
0.545203 1.28179 0
0 0 0

1.58076 -2.97275 0
1.22203 0.52662 0
0 0 0

1.2334 -4.00043 0
1.65713 -0.0830531 0
0 0 0

1.59111 -2.8029 0
1.26615 1.25035 0
0 0 0

1.18073 -5.04509 0
1.66156 0.00482861 0
0 0 0

0.0764966 -4.05749 0
1.75445 -0.0782529 0
0 0 0

-1.36199 4.57251 0
1.34434 0.202956 0
0 0 0

0.0934444 -5.08317 0
1.75303 0.00803251 0
0 0 0

-1.36285 2.90934 0
1.34392 -0.623931 0
0 0 0

0.502991 -0.357442 0
-0.13184 -0.245905 0
0 0 0

-0.0266379 2.24947 0
-0.492507 0.419997 0
0 0 0

0.73357 -0.199729 0
0.413838 -0.800745 0
0 0 0

-0.0336303 1.35572 0
-0.493625 0.27711 0
0 0 0

-0.90298 2.17364 0
-0.63261 0.407874 0
0 0 0

-0.801533 -2.26117 0
-0.897127 1.32265 0
0 0 0

-0.556777 1.25681 0
-0.693129 0.190472 0
0 0 0

-0.785552 -1.5016 0
-0.904988 0.949038 0
0 0 0

-0.113977 -2.31021 0
-1.23532 1.34678 0
0 0 0

0.576291 -5.12794 0
-0.980546 0.541276 0
0 0 0

-0.0696755 -1.56038 0
-1.25711 0.977949 0
0 0 0

0.603067 -4.34694 0
-0.948097 1.48775 0
0 0 0

1.30715 -5.14535 0
-0.09484 0.520182 0
0 0 0

-0.361245 -0.128428 0
0.466769 -0.77135 0
0 0 0

1.32918 -4.40668 0
-0.0681412 1.41535 0
0 0 0

-0.298415 -4.36123 0
0.463287 -0.536747 0
0 0 0

SCALARS active double 1
LOOKUP_TABLE default
1
1
1
1
1
1
1
1
1
1
1
1
1
1
1
1
1
1
1
1
1
1
1
1
1
1
1
1
1
1
1
1
1
1
1
1
1
1
1
1
1
1
1
1
1
1
1
1
1
1
1
1
1
1
1
1
1
1
1
1
1
1
1
1
SCALARS extent double 1
LOOKUP_TABLE default
0.0125
0.0125
0.0125
0.0125
0.0125
0.0125
0.0125
0.0125
0.0125
0.0125
0.0125
0.0125
0.0125
0.0125
0.0125
0.0125
0.0125
0.0125
0.0125
0.0125
0.0125
0.0125
0.0125
0.0125
0.0125
0.0125
0.0125
0.0125
0.0125
0.0125
0.0125
0.0125
0.0125
0.0125
0.0125
0.0125
0.0125
0.0125
0.0125
0.0125
0.0125
0.0125
0.0125
0.0125
0.0125
0.0125
0.0125
0.0125
0.0125
0.0125
0.0125
0.0125
0.0125
0.0125
0.0125
0.0125
0.0125
0.0125
0.0125
0.0125
0.0125
0.0125
0.0125
0.0125
SCALARS pressure double 1
LOOKUP_TABLE default
-1617.69
-334.314
1027.33
-3101.61
-1434.28
-5085.14
2992.15
3779.97
-1841.45
2242.68
2573.87
3870.93
-2200.34
-1872.44
-988.672
858.875
-3090.73
-5208.62
2675.34
-251.59
2380.55
752.806
1945.03
4761.98
-85.9518
10559.1
1198.3
1819.83
-3912.18
-790.066
488.326
-339.852
-5451.62
756.648
1212.42
2197.96
-1660.52
4117.77
688.083
4980.83
919.263
6048.68
-4844.94
5880.23
-2045.68
3155.84
-3740.01
260.498
-2643.76
1472.11
1161.18
-2262.41
1729.73
629.049
793.914
-1098.89
3888.82
994.699
3277.94
2439.29
387.607
-2534.16
-506.167
1612.99
SCALARS density double 1
LOOKUP_TABLE default
983.317
996.529
1010.74
968.258
985.194
948.489
1031.61
1040.09
981.031
1023.6
1027.13
1041.08
977.376
980.715
989.77
1008.97
968.368
947.271
1028.21
997.387
1025.07
1007.86
1020.43
1050.77
999.107
1116.07
1012.54
1019.11
960.13
991.817
1005.09
996.472
944.88
1007.9
1012.69
1023.12
982.879
1043.76
1007.18
1053.17
1009.61
1064.93
950.861
1063.06
978.95
1033.37
961.851
1002.71
972.879
1015.43
1012.15
976.746
1018.15
1006.56
1008.29
988.637
1041.27
1010.4
1034.68
1025.69
1004.04
973.989
994.75
1016.92
