# vtk DataFile Version 3.0
Frame: 22, Time: 0.384
ASCII
DATASET UNSTRUCTURED_GRID
POINTS 64 double
0.57538 0.323586 0 
0.59822 0.332974 0 
0.585279 0.298686 0 
0.609096 0.309721 0 
0.621422 0.343508 0 
0.645976 0.353068 0 
0.632216 0.320574 0 
0.656235 0.329791 0 
0.670149 0.361034 0 
0.693888 0.368217 0 
0.679937 0.33652 0 
0.702697 0.343441 0 
0.717582 0.374863 0 
0.741432 0.382571 0 
0.725803 0.350564 0 
0.749977 0.359035 0 
0.597041 0.275411 0 
0.619068 0.287245 0 
0.607782 0.252179 0 
0.629979 0.264253 0 
0.641664 0.296465 0 
0.664793 0.304953 0 
0.652964 0.271698 0 
0.675866 0.280516 0 
0.689131 0.311643 0 
0.711925 0.318338 0 
0.699681 0.287791 0 
0.723629 0.29502 0 
0.735838 0.326658 0 
0.759184 0.336099 0 
0.746719 0.303471 0 
0.769969 0.313504 0 
0.617528 0.229727 0 
0.63999 0.239615 0 
0.624603 0.205197 0 
0.648446 0.214897 0 
0.663507 0.248103 0 
0.686997 0.256342 0 
0.672711 0.223964 0 
0.694664 0.231851 0 
0.710712 0.263354 0 
0.734087 0.271817 0 
0.718859 0.23894 0 
0.743895 0.247052 0 
0.756837 0.27988 0 
0.780072 0.288541 0 
0.766418 0.255165 0 
0.790118 0.26367 0 
0.633675 0.181977 0 
0.657102 0.191389 0 
0.641717 0.158516 0 
0.664575 0.166639 0 
0.680423 0.199114 0 
0.703562 0.208525 0 
0.688684 0.174904 0 
0.712783 0.184138 0 
0.727982 0.216714 0 
0.752525 0.222735 0 
0.73455 0.192541 0 
0.758555 0.197735 0 
0.776483 0.229938 0 
0.79977 0.239122 0 
0.783188 0.205157 0 
0.807525 0.214846 0 
CELLS 64 128
1 0
1 1
1 2
1 3
1 4
1 5
1 6
1 7
1 8
1 9
1 10
1 11
1 12
1 13
1 14
1 15
1 16
1 17
1 18
1 19
1 20
1 21
1 22
1 23
1 24
1 25
1 26
1 27
1 28
1 29
1 30
1 31
1 32
1 33
1 34
1 35
1 36
1 37
1 38
1 39
1 40
1 41
1 42
1 43
1 44
1 45
1 46
1 47
1 48
1 49
1 50
1 51
1 52
1 53
1 54
1 55
1 56
1 57
1 58
1 59
1 60
1 61
1 62
1 63
CELL_TYPES 64
1
1
1
1
1
1
1
1
1
1
1
1
1
1
1
1
1
1
1
1
1
1
1
1
1
1
1
1
1
1
1
1
1
1
1
1
1
1
1
1
1
1
1
1
1
1
1
1
1
1
1
1
1
1
1
1
1
1
1
1
1
1
1
1
POINT_DATA 64
VECTORS displacement double
0.0628805 -0.288914 0 
0.08572 -0.304526 0 
0.0477787 -0.313814 0 
0.071596 -0.327779 0 
0.108922 -0.318992 0 
0.133476 -0.334432 0 
0.0947159 -0.341926 0 
0.118735 -0.357709 0 
0.157649 -0.351466 0 
0.181388 -0.369283 0 
0.142437 -0.37598 0 
0.165197 -0.394059 0 
0.205082 -0.387637 0 
0.228932 -0.404929 0 
0.188303 -0.411936 0 
0.212477 -0.428465 0 
0.0345406 -0.337089 0 
0.0565675 -0.350255 0 
0.0202819 -0.360321 0 
0.0424792 -0.373247 0 
0.0791641 -0.366035 0 
0.102293 -0.382547 0 
0.0654644 -0.390802 0 
0.088366 -0.406984 0 
0.126631 -0.400857 0 
0.149425 -0.419162 0 
0.112181 -0.424709 0 
0.136129 -0.44248 0 
0.173338 -0.435842 0 
0.196684 -0.451401 0 
0.159219 -0.459029 0 
0.182469 -0.473996 0 
0.00502846 -0.382773 0 
0.0274899 -0.397885 0 
-0.0128969 -0.407303 0 
0.0109461 -0.422603 0 
0.0510073 -0.414397 0 
0.0744971 -0.431158 0 
0.0352112 -0.438536 0 
0.057164 -0.455649 0 
0.0982117 -0.449146 0 
0.121587 -0.465683 0 
0.0813589 -0.47356 0 
0.106395 -0.490448 0 
0.144337 -0.48262 0 
0.167572 -0.498959 0 
0.128918 -0.507335 0 
0.152618 -0.52383 0 
-0.028825 -0.430523 0 
-0.00539806 -0.446111 0 
-0.0457828 -0.453984 0 
-0.0229253 -0.470861 0 
0.0179228 -0.463386 0 
0.0410624 -0.478975 0 
0.00118437 -0.487596 0 
0.0252831 -0.503362 0 
0.0654817 -0.495786 0 
0.0900251 -0.514765 0 
0.0470497 -0.519959 0 
0.0710551 -0.539765 0 
0.113983 -0.532562 0 
0.13727 -0.548378 0 
0.0956877 -0.557343 0 
0.120025 -0.572654 0 
VECTORS velocity double
2.82489 3.96025 0 
3.60943 2.83054 0 
1.56442 2.92484 0 
2.36222 1.83598 0 
3.59843 2.2864 0 
3.8128 2.17541 0 
2.35768 1.66727 0 
2.35024 1.22753 0 
3.90654 1.66702 0 
3.85008 1.39592 0 
2.36 0.491343 0 
2.28434 0.210702 0 
3.7326 1.62301 0 
4.17167 -0.17239 0 
2.27138 0.412512 0 
3.27777 -0.384789 0 
1.77747 3.24037 0 
2.52439 1.82394 0 
1.06354 3.1192 0 
1.96131 1.74718 0 
2.75826 1.86371 0 
3.27096 1.36836 0 
2.02549 1.14701 0 
2.55626 1.00635 0 
3.25084 0.878865 0 
2.79252 0.749083 0 
2.6158 0.669138 0 
2.44583 0.537461 0 
2.40892 0.768509 0 
3.20089 0.317179 0 
2.22021 0.671402 0 
2.81198 -0.0989579 0 
0.113784 2.1484 0 
1.15339 1.33478 0 
-0.870838 2.11118 0 
0.292097 1.02238 0 
1.23385 0.359789 0 
1.04859 0.457476 0 
0.533687 0.048745 0 
0.33368 0.130604 0 
1.2574 0.0442934 0 
1.32979 -0.29402 0 
0.270544 -0.42003 0 
0.391552 -0.657636 0 
1.0448 -0.187263 0 
1.70281 -1.0312 0 
0.260708 -0.306897 0 
1.13135 -0.878635 0 
-0.644938 1.96685 0 
-0.0439178 0.554919 0 
-1.18874 1.27848 0 
-0.951757 0.259924 0 
0.1434 0.0353858 0 
0.516528 0.267273 0 
-0.98936 -0.155589 0 
-0.90413 -0.687414 0 
0.886618 0.404384 0 
0.811835 0.154192 0 
-0.21573 -0.892928 0 
0.0029173 -0.810629 0 
0.527373 0.281907 0 
1.35076 -0.766896 0 
-0.890669 -0.173391 0 
0.148075 -1.14138 0 
SCALARS mass double 1
LOOKUP_TABLE default
0.625
0.625
0.625
0.625
0.625
0.625
0.625
0.625
0.625
0.625
0.625
0.625
0.625
0.625
0.625
0.625
0.625
0.625
0.625
0.625
0.625
0.625
0.625
0.625
0.625
0.625
0.625
0.625
0.625
0.625
0.625
0.625
0.625
0.625
0.625
0.625
0.625
0.625
0.625
0.625
0.625
0.625
0.625
0.625
0.625
0.625
0.625
0.625
0.625
0.625
0.625
0.625
0.625
0.625
0.625
0.625
0.625
0.625
0.625
0.625
0.625
0.625
0.625
0.625
SCALARS volume double 1
LOOKUP_TABLE default
0.000645687
0.000642371
0.000634606
0.000654439
0.000646623
0.000645074
0.000626703
0.000644317
0.000630277
0.000627262
0.000634152
0.000624473
0.000634832
0.000629547
0.000615846
0.000629686
0.00064767
0.000621549
0.000644565
0.00062258
0.000629748
0.000673144
0.000645935
0.00064596
0.000605834
0.000630033
0.000679045
0.00062888
0.000642252
0.000615567
0.000640543
0.00063645
0.000607966
0.000655884
0.000640587
0.000670557
0.000612734
0.000637462
0.000630561
0.00060436
0.000651233
0.000608116
0.000652905
0.00063859
0.000617706
0.000649696
0.000658269
0.000656659
0.000626583
0.000618096
0.000622864
0.000594849
0.000624018
0.000613054
0.000654561
0.000640463
0.000594913
0.000622828
0.000615831
0.000619359
0.000644143
0.000649578
0.000617003
0.000628383
VECTORS momentum double
1.76555 2.47515 0 
2.25589 1.76908 0 
0.977761 1.82802 0 
1.47639 1.14748 0 
2.24902 1.429 0 
2.383 1.35963 0 
1.47355 1.04204 0 
1.4689 0.767206 0 
2.44159 1.04189 0 
2.4063 0.872453 0 
1.475 0.307089 0 
1.42771 0.131689 0 
2.33288 1.01438 0 
2.6073 -0.107744 0 
1.41961 0.25782 0 
2.04861 -0.240493 0 
1.11092 2.02523 0 
1.57774 1.13996 0 
0.664713 1.9495 0 
1.22582 1.09199 0 
1.72392 1.16482 0 
2.04435 0.855224 0 
1.26593 0.716883 0 
1.59766 0.628967 0 
2.03177 0.549291 0 
1.74533 0.468177 0 
1.63487 0.418211 0 
1.52865 0.335913 0 
1.50558 0.480318 0 
2.00056 0.198237 0 
1.38763 0.419626 0 
1.75749 -0.0618487 0 
0.0711149 1.34275 0 
0.720868 0.834236 0 
-0.544274 1.31949 0 
0.182561 0.63899 0 
0.771155 0.224868 0 
0.65537 0.285923 0 
0.333555 0.0304656 0 
0.20855 0.0816278 0 
0.785873 0.0276834 0 
0.831117 -0.183763 0 
0.16909 -0.262519 0 
0.24472 -0.411023 0 
0.652999 -0.117039 0 
1.06426 -0.644499 0 
0.162942 -0.191811 0 
0.707094 -0.549147 0 
-0.403086 1.22928 0 
-0.0274486 0.346825 0 
-0.742962 0.799047 0 
-0.594848 0.162452 0 
0.0896247 0.0221161 0 
0.32283 0.167046 0 
-0.61835 -0.0972432 0 
-0.565081 -0.429634 0 
0.554136 0.25274 0 
0.507397 0.0963701 0 
-0.134832 -0.55808 0 
0.00182331 -0.506643 0 
0.329608 0.176192 0 
0.844225 -0.47931 0 
-0.556668 -0.108369 0 
0.092547 -0.713363 0 
VECTORS body_force double
0 -9.81 0 
0 -9.81 0 
0 -9.81 0 
0 -9.81 0 
0 -9.81 0 
0 -9.81 0 
0 -9.81 0 
0 -9.81 0 
0 -9.81 0 
0 -9.81 0 
0 -9.81 0 
0 -9.81 0 
0 -9.81 0 
0 -9.81 0 
0 -9.81 0 
0 -9.81 0 
0 -9.81 0 
0 -9.81 0 
0 -9.81 0 
0 -9.81 0 
0 -9.81 0 
0 -9.81 0 
0 -9.81 0 
0 -9.81 0 
0 -9.81 0 
0 -9.81 0 
0 -9.81 0 
0 -9.81 0 
0 -9.81 0 
0 -9.81 0 
0 -9.81 0 
0 -9.81 0 
0 -9.81 0 
0 -9.81 0 
0 -9.81 0 
0 -9.81 0 
0 -9.81 0 
0 -9.81 0 
0 -9.81 0 
0 -9.81 0 
0 -9.81 0 
0 -9.81 0 
0 -9.81 0 
0 -9.81 0 
0 -9.81 0 
0 -9.81 0 
0 -9.81 0 
0 -9.81 0 
0 -9.81 0 
0 -9.81 0 
0 -9.81 0 
0 -9.81 0 
0 -9.81 0 
0 -9.81 0 
0 -9.81 0 
0 -9.81 0 
0 -9.81 0 
0 -9.81 0 
0 -9.81 0 
0 -9.81 0 
0 -9.81 0 
0 -9.81 0 
0 -9.81 0 
0 -9.81 0 
TENSORS cauchy_stress double
-821.002 -1665.77 0
-1665.77 7083.17 0
0 0 0

2220.6 750.487 0
750.487 3051.43 0
0 0 0

-2159.82 765.569 0
765.569 5093.01 0
0 0 0

10071.7 -315.318 0
-315.318 -1220.51 0
0 0 0

4765.06 105.214 0
105.214 1775.62 0
0 0 0

6223.94 -1327.45 0
-1327.45 -144.539 0
0 0 0

-355.951 871.12 0
871.12 879.216 0
0 0 0

5484.67 -3139.3 0
-3139.3 369.063 0
0 0 0

1885.19 -1834.89 0
-1834.89 -268.339 0
0 0 0

-967.103 -1913.41 0
-1913.41 1661.89 0
0 0 0

-233.649 -5351.43 0
-5351.43 3029.08 0
0 0 0

-1529.98 -5167.13 0
-5167.13 1367.65 0
0 0 0

1439.17 -2869.36 0
-2869.36 1562.45 0
0 0 0

-74.3509 249.93 0
249.93 1468.39 0
0 0 0

-676.39 -4010.65 0
-4010.65 -2160.92 0
0 0 0

915.627 4697.69 0
4697.69 520.732 0
0 0 0

-2256.18 -295.996 0
-295.996 9107.89 0
0 0 0

-726.809 493.336 0
493.336 -338.09 0
0 0 0

-1243.66 3704.43 0
3704.43 7171.24 0
0 0 0

-2391.62 -2896.71 0
-2896.71 1645.48 0
0 0 0

-4465.59 -2372.82 0
-2372.82 5920.95 0
0 0 0

6703.34 -3230.73 0
-3230.73 7567.44 0
0 0 0

7414.96 -6993.34 0
-6993.34 -1078.91 0
0 0 0

4493.51 -6949.3 0
-6949.3 1850.01 0
0 0 0

-959.666 -6164.36 0
-6164.36 -5030.02 0
0 0 0

565.492 -4465.67 0
-4465.67 976.874 0
0 0 0

10916 -7104.52 0
-7104.52 5033.1 0
0 0 0

2104.32 -4500.1 0
-4500.1 -914.069 0
0 0 0

4063.23 -1574.42 0
-1574.42 1173.27 0
0 0 0

-256.514 690.697 0
690.697 -2667.99 0
0 0 0

3379.16 -1622.87 0
-1622.87 1344.77 0
0 0 0

35.6292 -164.68 0
-164.68 3455.48 0
0 0 0

-6562.86 4595.03 0
4595.03 1248.75 0
0 0 0

3030.86 -1032.57 0
-1032.57 6244.52 0
0 0 0

-656.654 4292.13 0
4292.13 5393.9 0
0 0 0

6729.95 2776.35 0
2776.35 6800.21 0
0 0 0

-1773.92 -696.863 0
-696.863 -2037.66 0
0 0 0

1998.51 -2550.35 0
-2550.35 1798.16 0
0 0 0

-3400.28 -453.159 0
-453.159 5103.74 0
0 0 0

-9633.52 -745.366 0
-745.366 3175.43 0
0 0 0

3478.02 -3467.77 0
-3467.77 4428.95 0
0 0 0

-2479.86 -2499.12 0
-2499.12 -2786.7 0
0 0 0

8903.77 930.576 0
930.576 -503.879 0
0 0 0

-256.111 -3536.43 0
-3536.43 4392.7 0
0 0 0

-1286.85 -3141.06 0
-3141.06 -970.655 0
0 0 0

-664.332 -2337.08 0
-2337.08 8116.76 0
0 0 0

2945.21 -3049.41 0
-3049.41 7028.16 0
0 0 0

4687.92 -836.396 0
-836.396 4814.52 0
0 0 0

-1451.41 3654.7 0
3654.7 1937.83 0
0 0 0

-4353.06 -1107.09 0
-1107.09 2216.91 0
0 0 0

-641.377 -200.468 0
-200.468 -16.9307 0
0 0 0

-4984.88 -2182.49 0
-2182.49 -4523.56 0
0 0 0

-2010.08 -561.355 0
-561.355 1707.61 0
0 0 0

-593.204 1261.23 0
1261.23 -3117.98 0
0 0 0

6636.03 1549.62 0
1549.62 2250.97 0
0 0 0

-1904.68 -1212.65 0
-1212.65 6604.69 0
0 0 0

-507.744 -1823.14 0
-1823.14 -8980.11 0
0 0 0

-294.692 -420.201 0
-420.201 -374.684 0
0 0 0

-4228.15 -3665.55 0
-3665.55 1386.11 0
0 0 0

-1570.82 -1246.04 0
-1246.04 -172.621 0
0 0 0

-1314.47 587.819 0
587.819 7116.32 0
0 0 0

629.607 104.263 0
104.263 6788.07 0
0 0 0

961.244 2007.06 0
2007.06 -3437.71 0
0 0 0

906.6 951.722 0
951.722 131.48 0
0 0 0

TENSORS velocity_gradient double
5.9123 18.1835 0
-20.1407 0.928558 0
0 0 0

5.61412 19.037 0
-19.5468 2.40056 0
0 0 0

4.04229 19.3249 0
-21.3625 -1.98954 0
0 0 0

4.84726 18.1215 0
-20.1751 2.80514 0
0 0 0

-2.03263 15.7417 0
-19.9723 2.87529 0
0 0 0

-4.44429 15.1639 0
-19.0685 2.39234 0
0 0 0

2.5597 13.4863 0
-20.1076 2.94177 0
0 0 0

-2.97384 9.61662 0
-16.0146 3.04592 0
0 0 0

-3.61905 16.5184 0
-14.2659 4.58384 0
0 0 0

-3.29183 17.5554 0
-13.8492 5.90453 0
0 0 0

-4.07258 9.3613 0
-14.7743 3.00713 0
0 0 0

-2.14181 10.0318 0
-12.9866 2.94648 0
0 0 0

-0.229409 16.9793 0
-16.0238 3.53351 0
0 0 0

-0.793922 15.325 0
-17.6777 -1.31318 0
0 0 0

0.581259 15.2746 0
-11.7177 2.29695 0
0 0 0

-0.410948 14.0734 0
-12.4343 -3.43264 0
0 0 0

0.296698 21.6851 0
-21.6559 -2.77617 0
0 0 0

4.67776 24.5373 0
-23.4413 0.642521 0
0 0 0

1.21883 26.9846 0
-30.0467 2.32644 0
0 0 0

2.11965 25.8296 0
-28.3664 3.13047 0
0 0 0

5.59514 25.6556 0
-21.4531 5.25567 0
0 0 0

-4.1747 13.2411 0
-14.7357 4.06036 0
0 0 0

-1.75132 28.0981 0
-19.9635 7.35105 0
0 0 0

-4.78879 29.0253 0
-15.1263 8.33262 0
0 0 0

-4.12297 9.38063 0
-14.7215 2.98686 0
0 0 0

-5.29212 11.3525 0
-10.902 2.90131 0
0 0 0

-5.70423 29.6173 0
-13.5914 8.7396 0
0 0 0

-8.60452 27.7101 0
-10.6413 7.92124 0
0 0 0

-3.50456 16.3451 0
-10.954 2.75605 0
0 0 0

-0.971287 20.2758 0
-10.1863 3.8665 0
0 0 0

-7.58903 20.7695 0
-11.11 3.91804 0
0 0 0

-2.44091 21.0167 0
-14.4027 5.99197 0
0 0 0

1.8836 29.8718 0
-28.4466 4.83507 0
0 0 0

1.3266 28.6978 0
-29.6958 2.20209 0
0 0 0

3.02954 26.2084 0
-25.5216 4.2125 0
0 0 0

1.92973 27.939 0
-24.4152 1.64372 0
0 0 0

-4.87682 26.7036 0
-16.2502 3.99333 0
0 0 0

-5.49816 29.152 0
-15.6463 8.47108 0
0 0 0

-1.02216 24.1938 0
-18.9441 3.56222 0
0 0 0

-2.49542 20.339 0
-17.755 6.15584 0
0 0 0

-7.10787 29.3728 0
-9.8057 8.63059 0
0 0 0

-7.54848 28.1823 0
-10.0367 8.00634 0
0 0 0

-4.52353 16.1343 0
-8.47412 5.29336 0
0 0 0

-5.74666 16.2177 0
-9.10153 4.37071 0
0 0 0

-1.41705 26.6162 0
-12.7461 6.39067 0
0 0 0

-1.98632 23.8457 0
-14.7393 1.8398 0
0 0 0

1.99118 24.6133 0
-8.07044 4.22582 0
0 0 0

1.02017 22.5536 0
-9.772 -0.29503 0
0 0 0

2.37069 14.7251 0
-22.2219 3.89093 0
0 0 0

2.53827 15.986 0
-21.3778 1.20053 0
0 0 0

1.1833 15.1534 0
-18.717 2.62659 0
0 0 0

1.03644 16.4665 0
-20.396 0.886422 0
0 0 0

2.4396 19.5531 0
-21.3018 2.00409 0
0 0 0

0.934679 18.7018 0
-9.24606 6.30283 0
0 0 0

1.57171 17.9297 0
-20.7459 -0.0701206 0
0 0 0

3.26913 17.7259 0
-6.60317 0.807448 0
0 0 0

-0.704973 14.4915 0
-6.51878 4.45215 0
0 0 0

-0.685915 11.4248 0
-5.52927 2.31765 0
0 0 0

2.69924 16.284 0
-5.7423 2.98554 0
0 0 0

-1.54956 12.8007 0
-3.16071 3.64901 0
0 0 0

0.635968 13.4111 0
-5.35565 0.396158 0
0 0 0

-0.0476104 15.2155 0
-8.63858 -1.11301 0
0 0 0

-1.92569 13.88 0
-3.41139 0.0901359 0
0 0 0

1.26503 14.9306 0
-13.0988 -1.19144 0
0 0 0

SCALARS active double 1
LOOKUP_TABLE default
1
1
1
1
1
1
1
1
1
1
1
1
1
1
1
1
1
1
1
1
1
1
1
1
1
1
1
1
1
1
1
1
1
1
1
1
1
1
1
1
1
1
1
1
1
1
1
1
1
1
1
1
1
1
1
1
1
1
1
1
1
1
1
1
SCALARS extent double 1
LOOKUP_TABLE default
0.0125
0.0125
0.0125
0.0125
0.0125
0.0125
0.0125
0.0125
0.0125
0.0125
0.0125
0.0125
0.0125
0.0125
0.0125
0.0125
0.0125
0.0125
0.0125
0.0125
0.0125
0.0125
0.0125
0.0125
0.0125
0.0125
0.0125
0.0125
0.0125
0.0125
0.0125
0.0125
0.0125
0.0125
0.0125
0.0125
0.0125
0.0125
0.0125
0.0125
0.0125
0.0125
0.0125
0.0125
0.0125
0.0125
0.0125
0.0125
0.0125
0.0125
0.0125
0.0125
0.0125
0.0125
0.0125
0.0125
0.0125
0.0125
0.0125
0.0125
0.0125
0.0125
0.0125
0.0125
SCALARS pressure double 1
LOOKUP_TABLE default
-3131.08
-2636.02
-1466.59
-4425.6
-3270.34
-3039.7
-261.633
-2926.87
-808.424
-347.393
-1397.72
81.1651
-1500.81
-697.021
1418.66
-718.18
-3425.86
532.449
-2963.79
373.07
-727.681
-7135.39
-3168.02
-3171.76
2994.84
-771.183
-7974.54
-595.128
-2618.25
1462.25
-2361.96
-1745.55
2657.05
-4637.69
-2368.62
-6765.08
1905.79
-1898.33
-851.733
3229.04
-3953.49
2633.28
-4199.95
-2068.29
1128.75
-3726.22
-4986.69
-4751.22
-243.213
1068.07
329.154
4754.22
151.234
1855.59
-4443.5
-2350.01
4743.93
334.688
1421.02
871.722
-2900.92
-3708.84
1238.23
-519.04
SCALARS density double 1
LOOKUP_TABLE default
967.961
972.958
984.863
955.017
966.56
968.882
997.283
970.019
991.628
996.394
985.569
1000.84
984.513
992.777
1014.86
992.559
964.998
1005.55
969.647
1003.89
992.461
928.478
967.589
967.552
1031.64
992.012
920.411
993.83
973.138
1015.32
975.735
982.01
1028.02
952.913
975.667
932.061
1020.02
980.451
991.181
1034.15
959.718
1027.76
957.261
978.719
1011.81
961.989
949.46
951.788
997.474
1011.17
1003.43
1050.69
1001.57
1019.49
954.839
975.856
1050.57
1003.49
1014.89
1009.11
970.281
962.162
1012.96
994.617
