# vtk DataFile Version 3.0
Frame: 10, Time: 0.184
ASCII
DATASET UNSTRUCTURED_GRID
POINTS 64 double
0.4125 0.243719 0 
0.4125 0.268719 0 
0.4375 0.243719 0 
0.4375 0.268719 0 
0.4125 0.293719 0 
0.4125 0.318719 0 
0.4375 0.293719 0 
0.4375 0.318719 0 
0.4125 0.343719 0 
0.4125 0.368719 0 
0.4375 0.343719 0 
0.4375 0.368719 0 
0.4125 0.393719 0 
0.4125 0.418719 0 
0.4375 0.393719 0 
0.4375 0.418719 0 
0.4625 0.243719 0 
0.4625 0.268719 0 
0.4875 0.243719 0 
0.4875 0.268719 0 
0.4625 0.293719 0 
0.4625 0.318719 0 
0.4875 0.293719 0 
0.4875 0.318719 0 
0.4625 0.343719 0 
0.4625 0.368719 0 
0.4875 0.343719 0 
0.4875 0.368719 0 
0.4625 0.393719 0 
0.4625 0.418719 0 
0.4875 0.393719 0 
0.4875 0.418719 0 
0.5125 0.243719 0 
0.5125 0.268719 0 
0.5375 0.243719 0 
0.5375 0.268719 0 
0.5125 0.293719 0 
0.5125 0.318719 0 
0.5375 0.293719 0 
0.5375 0.318719 0 
0.5125 0.343719 0 
0.5125 0.368719 0 
0.5375 0.343719 0 
0.5375 0.368719 0 
0.5125 0.393719 0 
0.5125 0.418719 0 
0.5375 0.393719 0 
0.5375 0.418719 0 
0.5625 0.243719 0 
0.5625 0.268719 0 
0.5875 0.243719 0 
0.5875 0.268719 0 
0.5625 0.293719 0 
0.5625 0.318719 0 
0.5875 0.293719 0 
0.5875 0.318719 0 
0.5625 0.343719 0 
0.5625 0.368719 0 
0.5875 0.343719 0 
0.5875 0.368719 0 
0.5625 0.393719 0 
0.5625 0.418719 0 
0.5875 0.393719 0 
0.5875 0.418719 0 
CELLS 64 128
1 0
1 1
1 2
1 3
1 4
1 5
1 6
1 7
1 8
1 9
1 10
1 11
1 12
1 13
1 14
1 15
1 16
1 17
1 18
1 19
1 20
1 21
1 22
1 23
1 24
1 25
1 26
1 27
1 28
1 29
1 30
1 31
1 32
1 33
1 34
1 35
1 36
1 37
1 38
1 39
1 40
1 41
1 42
1 43
1 44
1 45
1 46
1 47
1 48
1 49
1 50
1 51
1 52
1 53
1 54
1 55
1 56
1 57
1 58
1 59
1 60
1 61
1 62
1 63
CELL_TYPES 64
1
1
1
1
1
1
1
1
1
1
1
1
1
1
1
1
1
1
1
1
1
1
1
1
1
1
1
1
1
1
1
1
1
1
1
1
1
1
1
1
1
1
1
1
1
1
1
1
1
1
1
1
1
1
1
1
1
1
1
1
1
1
1
1
POINT_DATA 64
VECTORS displacement double
-3.60942e-17 -0.168781 0 
-5.4785e-17 -0.168781 0 
-4.9319e-17 -0.168781 0 
-5.73455e-17 -0.168781 0 
-5.94978e-17 -0.168781 0 
-5.26929e-17 -0.168781 0 
-5.73668e-17 -0.168781 0 
-5.19915e-17 -0.168781 0 
-4.54865e-17 -0.168781 0 
-4.98685e-17 -0.168781 0 
-4.7434e-17 -0.168781 0 
-4.99646e-17 -0.168781 0 
-4.90489e-17 -0.168781 0 
-4.69521e-17 -0.168781 0 
-5.03127e-17 -0.168781 0 
-4.89832e-17 -0.168781 0 
-5.78413e-17 -0.168781 0 
-5.93189e-17 -0.168781 0 
-6.1661e-17 -0.168781 0 
-6.07051e-17 -0.168781 0 
-5.67742e-17 -0.168781 0 
-5.28562e-17 -0.168781 0 
-5.772e-17 -0.168781 0 
-5.52871e-17 -0.168781 0 
-5.01756e-17 -0.168781 0 
-5.07949e-17 -0.168781 0 
-5.37112e-17 -0.168781 0 
-5.23596e-17 -0.168781 0 
-5.11933e-17 -0.168781 0 
-4.98581e-17 -0.168781 0 
-5.16906e-17 -0.168781 0 
-4.9577e-17 -0.168781 0 
-6.51534e-17 -0.168781 0 
-6.19294e-17 -0.168781 0 
-6.83182e-17 -0.168781 0 
-6.29917e-17 -0.168781 0 
-5.88455e-17 -0.168781 0 
-5.73718e-17 -0.168781 0 
-6.01509e-17 -0.168781 0 
-5.91101e-17 -0.168781 0 
-5.66535e-17 -0.168781 0 
-5.4209e-17 -0.168781 0 
-5.90026e-17 -0.168781 0 
-5.63434e-17 -0.168781 0 
-5.3207e-17 -0.168781 0 
-5.03066e-17 -0.168781 0 
-5.57427e-17 -0.168781 0 
-5.20469e-17 -0.168781 0 
-7.50607e-17 -0.168781 0 
-6.44969e-17 -0.168781 0 
-8.53809e-17 -0.168781 0 
-6.64449e-17 -0.168781 0 
-5.92447e-17 -0.168781 0 
-5.92501e-17 -0.168781 0 
-5.61271e-17 -0.168781 0 
-5.77915e-17 -0.168781 0 
-6.1284e-17 -0.168781 0 
-5.77383e-17 -0.168781 0 
-6.34978e-17 -0.168781 0 
-5.83937e-17 -0.168781 0 
-5.69017e-17 -0.168781 0 
-5.35776e-17 -0.168781 0 
-5.66841e-17 -0.168781 0 
-5.48988e-17 -0.168781 0 
VECTORS velocity double
4.89266e-15 -1.81485 0 
-1.63704e-15 -1.81485 0 
1.16671e-15 -1.81485 0 
-7.36114e-16 -1.81485 0 
-2.09158e-15 -1.81485 0 
-2.66484e-16 -1.81485 0 
-7.21364e-16 -1.81485 0 
-1.40768e-16 -1.81485 0 
-2.47483e-16 -1.81485 0 
-5.73224e-16 -1.81485 0 
-7.15702e-16 -1.81485 0 
-3.34657e-16 -1.81485 0 
4.80398e-16 -1.81485 0 
-8.65862e-16 -1.81485 0 
-4.88661e-16 -1.81485 0 
-1.30309e-15 -1.81485 0 
-6.49527e-16 -1.81485 0 
-2.99962e-16 -1.81485 0 
-5.56042e-16 -1.81485 0 
-3.2859e-16 -1.81485 0 
-1.68105e-16 -1.81485 0 
-2.69239e-16 -1.81485 0 
-4.31808e-16 -1.81485 0 
-6.51896e-16 -1.81485 0 
-9.43891e-16 -1.81485 0 
-4.44516e-16 -1.81485 0 
-9.3205e-16 -1.81485 0 
-9.02801e-16 -1.81485 0 
-7.29488e-16 -1.81485 0 
-1.18208e-15 -1.81485 0 
-2.42082e-16 -1.81485 0 
-5.0284e-16 -1.81485 0 
-3.73184e-16 -1.81485 0 
-2.45291e-16 -1.81485 0 
-1.00952e-16 -1.81485 0 
-5.00657e-17 -1.81485 0 
-6.28918e-16 -1.81485 0 
-9.10402e-16 -1.81485 0 
-7.59436e-16 -1.81485 0 
-1.04475e-15 -1.81485 0 
-8.52814e-16 -1.81485 0 
-1.2421e-15 -1.81485 0 
-7.06181e-16 -1.81485 0 
-1.46243e-15 -1.81485 0 
-9.82207e-17 -1.81485 0 
-2.59702e-17 -1.81485 0 
-2.97905e-16 -1.81485 0 
2.48526e-16 -1.81485 0 
-1.66328e-15 -1.81485 0 
2.26081e-16 -1.81485 0 
-5.06018e-15 -1.81485 0 
5.83148e-16 -1.81485 0 
1.73261e-16 -1.81485 0 
-5.37057e-16 -1.81485 0 
2.16917e-15 -1.81485 0 
6.12689e-16 -1.81485 0 
-7.44125e-16 -1.81485 0 
-1.34226e-15 -1.81485 0 
-9.66645e-16 -1.81485 0 
-8.81595e-16 -1.81485 0 
-9.17586e-16 -1.81485 0 
9.042e-17 -1.81485 0 
-1.95726e-15 -1.81485 0 
-5.00288e-16 -1.81485 0 
SCALARS mass double 1
LOOKUP_TABLE default
0.625
0.625
0.625
0.625
0.625
0.625
0.625
0.625
0.625
0.625
0.625
0.625
0.625
0.625
0.625
0.625
0.625
0.625
0.625
0.625
0.625
0.625
0.625
0.625
0.625
0.625
0.625
0.625
0.625
0.625
0.625
0.625
0.625
0.625
0.625
0.625
0.625
0.625
0.625
0.625
0.625
0.625
0.625
0.625
0.625
0.625
0.625
0.625
0.625
0.625
0.625
0.625
0.625
0.625
0.625
0.625
0.625
0.625
0.625
0.625
0.625
0.625
0.625
0.625
SCALARS volume double 1
LOOKUP_TABLE default
0.000625
0.000625
0.000625
0.000625
0.000625
0.000625
0.000625
0.000625
0.000625
0.000625
0.000625
0.000625
0.000625
0.000625
0.000625
0.000625
0.000625
0.000625
0.000625
0.000625
0.000625
0.000625
0.000625
0.000625
0.000625
0.000625
0.000625
0.000625
0.000625
0.000625
0.000625
0.000625
0.000625
0.000625
0.000625
0.000625
0.000625
0.000625
0.000625
0.000625
0.000625
0.000625
0.000625
0.000625
0.000625
0.000625
0.000625
0.000625
0.000625
0.000625
0.000625
0.000625
0.000625
0.000625
0.000625
0.000625
0.000625
0.000625
0.000625
0.000625
0.000625
0.000625
0.000625
0.000625
VECTORS momentum double
3.05792e-15 -1.13428 0 
-1.02315e-15 -1.13428 0 
7.29193e-16 -1.13428 0 
-4.60071e-16 -1.13428 0 
-1.30724e-15 -1.13428 0 
-1.66553e-16 -1.13428 0 
-4.50852e-16 -1.13428 0 
-8.79799e-17 -1.13428 0 
-1.54677e-16 -1.13428 0 
-3.58265e-16 -1.13428 0 
-4.47314e-16 -1.13428 0 
-2.09161e-16 -1.13428 0 
3.00249e-16 -1.13428 0 
-5.41164e-16 -1.13428 0 
-3.05413e-16 -1.13428 0 
-8.14431e-16 -1.13428 0 
-4.05954e-16 -1.13428 0 
-1.87477e-16 -1.13428 0 
-3.47526e-16 -1.13428 0 
-2.05369e-16 -1.13428 0 
-1.05066e-16 -1.13428 0 
-1.68274e-16 -1.13428 0 
-2.6988e-16 -1.13428 0 
-4.07435e-16 -1.13428 0 
-5.89932e-16 -1.13428 0 
-2.77822e-16 -1.13428 0 
-5.82531e-16 -1.13428 0 
-5.64251e-16 -1.13428 0 
-4.5593e-16 -1.13428 0 
-7.38801e-16 -1.13428 0 
-1.51301e-16 -1.13428 0 
-3.14275e-16 -1.13428 0 
-2.3324e-16 -1.13428 0 
-1.53307e-16 -1.13428 0 
-6.30953e-17 -1.13428 0 
-3.1291e-17 -1.13428 0 
-3.93074e-16 -1.13428 0 
-5.69001e-16 -1.13428 0 
-4.74647e-16 -1.13428 0 
-6.52971e-16 -1.13428 0 
-5.33009e-16 -1.13428 0 
-7.76315e-16 -1.13428 0 
-4.41363e-16 -1.13428 0 
-9.14016e-16 -1.13428 0 
-6.1388e-17 -1.13428 0 
-1.62314e-17 -1.13428 0 
-1.86191e-16 -1.13428 0 
1.55329e-16 -1.13428 0 
-1.03955e-15 -1.13428 0 
1.413e-16 -1.13428 0 
-3.16261e-15 -1.13428 0 
3.64468e-16 -1.13428 0 
1.08288e-16 -1.13428 0 
-3.35661e-16 -1.13428 0 
1.35573e-15 -1.13428 0 
3.8293e-16 -1.13428 0 
-4.65078e-16 -1.13428 0 
-8.3891e-16 -1.13428 0 
-6.04153e-16 -1.13428 0 
-5.50997e-16 -1.13428 0 
-5.73491e-16 -1.13428 0 
5.65125e-17 -1.13428 0 
-1.22329e-15 -1.13428 0 
-3.1268e-16 -1.13428 0 
VECTORS body_force double
0 -9.81 0 
0 -9.81 0 
0 -9.81 0 
0 -9.81 0 
0 -9.81 0 
0 -9.81 0 
0 -9.81 0 
0 -9.81 0 
0 -9.81 0 
0 -9.81 0 
0 -9.81 0 
0 -9.81 0 
0 -9.81 0 
0 -9.81 0 
0 -9.81 0 
0 -9.81 0 
0 -9.81 0 
0 -9.81 0 
0 -9.81 0 
0 -9.81 0 
0 -9.81 0 
0 -9.81 0 
0 -9.81 0 
0 -9.81 0 
0 -9.81 0 
0 -9.81 0 
0 -9.81 0 
0 -9.81 0 
0 -9.81 0 
0 -9.81 0 
0 -9.81 0 
0 -9.81 0 
0 -9.81 0 
0 -9.81 0 
0 -9.81 0 
0 -9.81 0 
0 -9.81 0 
0 -9.81 0 
0 -9.81 0 
0 -9.81 0 
0 -9.81 0 
0 -9.81 0 
0 -9.81 0 
0 -9.81 0 
0 -9.81 0 
0 -9.81 0 
0 -9.81 0 
0 -9.81 0 
0 -9.81 0 
0 -9.81 0 
0 -9.81 0 
0 -9.81 0 
0 -9.81 0 
0 -9.81 0 
0 -9.81 0 
0 -9.81 0 
0 -9.81 0 
0 -9.81 0 
0 -9.81 0 
0 -9.81 0 
0 -9.81 0 
0 -9.81 0 
0 -9.81 0 
0 -9.81 0 
TENSORS cauchy_stress double
-1.32361e-11 -2.29575e-11 0
-2.29575e-11 1.04755e-10 0
0 0 0

-2.41205e-11 -8.52094e-12 0
-8.52094e-12 -3.00194e-11 0
0 0 0

-2.52513e-11 1.56183e-12 0
1.56183e-12 7.67194e-11 0
0 0 0

-3.78643e-11 -6.78853e-12 0
-6.78853e-12 -6.20883e-11 0
0 0 0

-1.74429e-11 -1.38011e-12 0
-1.38011e-12 -6.25559e-11 0
0 0 0

7.6407e-12 9.7423e-12 0
9.7423e-12 1.06344e-11 0
0 0 0

-4.67164e-11 -5.93037e-12 0
-5.93037e-12 -1.30861e-10 0
0 0 0

-3.54507e-13 1.55484e-12 0
1.55484e-12 -8.02109e-12 0
0 0 0

-1.26464e-12 -1.64437e-12 0
-1.64437e-12 1.70241e-11 0
0 0 0

5.92002e-12 -8.98404e-12 0
-8.98404e-12 1.47984e-11 0
0 0 0

-9.31389e-12 -4.49853e-12 0
-4.49853e-12 -1.7575e-12 0
0 0 0

5.49408e-12 2.35035e-12 0
2.35035e-12 1.38045e-11 0
0 0 0

-3.49474e-12 -7.61433e-13 0
-7.61433e-13 4.8075e-12 0
0 0 0

8.77987e-12 4.44077e-13 0
4.44077e-13 4.13182e-11 0
0 0 0

-5.38306e-12 1.97931e-12 0
1.97931e-12 4.01432e-13 0
0 0 0

-6.69653e-12 4.64668e-12 0
4.64668e-12 5.20663e-12 0
0 0 0

1.02635e-11 -1.51731e-11 0
-1.51731e-11 6.31253e-11 0
0 0 0

-3.74597e-11 -1.91367e-12 0
-1.91367e-12 -7.31879e-11 0
0 0 0

1.379e-11 -2.58485e-12 0
-2.58485e-12 7.13537e-11 0
0 0 0

-3.32451e-11 -5.59109e-12 0
-5.59109e-12 -6.33539e-11 0
0 0 0

-5.54541e-11 -8.64755e-12 0
-8.64755e-12 -1.19693e-10 0
0 0 0

-1.57828e-11 9.65974e-12 0
9.65974e-12 -1.18943e-11 0
0 0 0

-7.13897e-11 -1.80439e-12 0
-1.80439e-12 -1.56876e-10 0
0 0 0

-1.3493e-11 6.60354e-12 0
6.60354e-12 -6.55133e-12 0
0 0 0

-8.33241e-12 -5.05519e-12 0
-5.05519e-12 1.68202e-11 0
0 0 0

-4.07296e-13 -9.97236e-12 0
-9.97236e-12 1.50971e-11 0
0 0 0

-2.48801e-11 3.07715e-12 0
3.07715e-12 -2.1791e-11 0
0 0 0

-6.1543e-12 -5.23365e-12 0
-5.23365e-12 1.68743e-12 0
0 0 0

3.62449e-12 -1.49219e-11 0
-1.49219e-11 1.35576e-11 0
0 0 0

6.36742e-12 -8.88919e-12 0
-8.88919e-12 1.19736e-11 0
0 0 0

-1.41654e-11 -6.54863e-12 0
-6.54863e-12 -2.7952e-11 0
0 0 0

2.28558e-11 -1.19256e-12 0
-1.19256e-12 5.04466e-11 0
0 0 0

2.81266e-11 2.86228e-12 0
2.86228e-12 9.80889e-11 0
0 0 0

-4.46266e-11 1.24695e-11 0
1.24695e-11 -9.32331e-11 0
0 0 0

6.40436e-12 7.34796e-12 0
7.34796e-12 4.74038e-11 0
0 0 0

-2.59989e-11 6.84611e-12 0
6.84611e-12 -4.97684e-11 0
0 0 0

-4.74979e-11 4.83682e-12 0
4.83682e-12 -9.74405e-11 0
0 0 0

-1.98584e-11 -7.88223e-12 0
-7.88223e-12 -2.8507e-11 0
0 0 0

-5.69406e-11 5.65051e-12 0
5.65051e-12 -1.19474e-10 0
0 0 0

-2.41082e-11 -1.00516e-11 0
-1.00516e-11 -3.84232e-11 0
0 0 0

1.73269e-12 -4.67229e-12 0
-4.67229e-12 2.8136e-11 0
0 0 0

-2.56224e-11 2.22929e-12 0
2.22929e-12 -3.78948e-11 0
0 0 0

2.8724e-12 1.55747e-12 0
1.55747e-12 3.07953e-11 0
0 0 0

-1.58738e-11 7.3244e-13 0
7.3244e-13 -1.5148e-11 0
0 0 0

-1.42819e-11 -1.33928e-11 0
-1.33928e-11 -7.31796e-12 0
0 0 0

7.93409e-12 -1.14257e-11 0
-1.14257e-11 3.63624e-11 0
0 0 0

-1.46814e-11 -3.06192e-12 0
-3.06192e-12 -8.25017e-12 0
0 0 0

1.53624e-11 -3.22023e-12 0
-3.22023e-12 5.36952e-11 0
0 0 0

-6.26237e-12 1.11519e-13 0
1.11519e-13 9.12352e-11 0
0 0 0

-3.62507e-11 -2.1135e-12 0
-2.1135e-12 -6.46054e-11 0
0 0 0

-7.31121e-12 2.18709e-11 0
2.18709e-11 8.87879e-11 0
0 0 0

-1.8912e-11 2.10057e-11 0
2.10057e-11 -2.41485e-11 0
0 0 0

-3.49144e-11 1.27999e-12 0
1.27999e-12 -1.13442e-10 0
0 0 0

1.53604e-11 2.3311e-12 0
2.3311e-12 2.08817e-11 0
0 0 0

-3.81194e-11 2.27292e-12 0
2.27292e-12 -1.20921e-10 0
0 0 0

2.22985e-12 -5.7552e-12 0
-5.7552e-12 -9.75617e-12 0
0 0 0

1.17359e-12 2.00419e-12 0
2.00419e-12 2.54441e-11 0
0 0 0

-3.49382e-11 -5.9096e-14 0
-5.9096e-14 -7.48005e-11 0
0 0 0

1.62784e-13 2.84669e-12 0
2.84669e-12 2.30855e-11 0
0 0 0

-8.28489e-12 3.22485e-12 0
3.22485e-12 -1.26094e-11 0
0 0 0

-1.18592e-11 2.62794e-13 0
2.62794e-13 -2.99032e-11 0
0 0 0

-9.52696e-12 -3.64949e-12 0
-3.64949e-12 -8.67943e-12 0
0 0 0

-1.02463e-11 -9.74862e-13 0
-9.74862e-13 -2.61398e-11 0
0 0 0

-6.16907e-12 2.00979e-12 0
2.00979e-12 -8.44349e-13 0
0 0 0

TENSORS velocity_gradient double
-1.77609e-14 -5.96167e-15 0
1.26565e-14 -1.72085e-13 0
0 0 0

-3.77937e-15 -4.45961e-14 0
2.30926e-14 7.99361e-14 0
0 0 0

-1.77609e-14 7.03308e-16 0
3.37508e-14 -1.36779e-13 0
0 0 0

-3.77937e-15 -2.81757e-14 0
2.13163e-14 4.9738e-14 0
0 0 0

1.1651e-14 -3.62373e-14 0
1.79856e-14 -8.14904e-14 0
0 0 0

6.26787e-15 1.39786e-14 0
-1.59872e-14 8.34888e-14 0
0 0 0

1.1651e-14 -2.37771e-14 0
1.33227e-15 -9.81437e-14 0
0 0 0

6.26787e-15 2.64774e-15 0
-2.84217e-14 0 0
0 0 0

-4.65456e-15 1.21904e-14 0
-4.87388e-14 7.91589e-14 0
0 0 0

-6.99095e-15 1.44783e-15 0
-5.15143e-14 5.32907e-15 0
0 0 0

-4.65456e-15 2.49324e-15 0
-7.10543e-14 4.26326e-14 0
0 0 0

-6.99095e-15 1.56504e-15 0
-7.10543e-14 4.26326e-14 0
0 0 0

-6.72766e-15 -6.05096e-16 0
-4.44089e-14 1.24345e-14 0
0 0 0

-3.39357e-15 -1.29381e-14 0
-8.88178e-15 -2.30926e-14 0
0 0 0

-6.72766e-15 9.64044e-17 0
-3.55271e-14 2.13163e-14 0
0 0 0

-3.39357e-15 -8.72646e-15 0
-1.42109e-14 -1.42109e-14 0
0 0 0

-1.4889e-14 3.97414e-15 0
-2.34257e-14 -1.51323e-13 0
0 0 0

-9.23841e-15 -1.6178e-14 0
1.77636e-15 8.70415e-14 0
0 0 0

-1.4889e-14 3.85083e-15 0
6.66134e-15 -1.63869e-13 0
0 0 0

-9.23841e-15 -8.60279e-15 0
-2.13163e-14 3.55271e-14 0
0 0 0

-1.99442e-15 -1.44218e-14 0
-9.99201e-15 -9.52571e-14 0
0 0 0

-1.7125e-15 -3.87149e-15 0
-7.10543e-15 -2.13163e-14 0
0 0 0

-1.99442e-15 -8.1713e-15 0
-2.08722e-14 -1.4877e-13 0
0 0 0

-1.7125e-15 -5.5791e-15 0
-1.42109e-14 -1.42109e-14 0
0 0 0

-3.22945e-15 -2.82784e-15 0
-9.32587e-15 1.90958e-14 0
0 0 0

-7.38351e-16 3.44188e-15 0
-3.01981e-14 4.08562e-14 0
0 0 0

-3.22945e-15 -3.77283e-15 0
-4.44089e-15 2.39808e-14 0
0 0 0

-7.38351e-16 7.07834e-15 0
-2.84217e-14 1.42109e-14 0
0 0 0

2.95564e-15 2.38044e-15 0
-7.87148e-14 3.4972e-14 0
0 0 0

7.85898e-15 -3.99617e-15 0
-5.15143e-14 -2.30926e-14 0
0 0 0

2.95564e-15 6.24701e-15 0
-6.30607e-14 -2.04281e-14 0
0 0 0

7.85898e-15 1.25277e-15 0
-7.10543e-14 0 0
0 0 0

-1.19748e-14 3.16798e-15 0
9.99201e-16 -1.5532e-13 0
0 0 0

-4.84014e-15 1.48289e-16 0
8.88178e-15 5.15143e-14 0
0 0 0

-1.19748e-14 1.92558e-15 0
-9.32587e-15 -1.79856e-13 0
0 0 0

-4.84014e-15 1.00753e-14 0
0 5.68434e-14 0
0 0 0

4.59423e-15 -1.06783e-15 0
1.55431e-15 -1.12133e-13 0
0 0 0

3.67214e-15 -8.37369e-15 0
1.77636e-15 1.59872e-14 0
0 0 0

4.59423e-15 6.88863e-15 0
3.59712e-14 -1.34559e-13 0
0 0 0

3.67214e-15 -1.22553e-14 0
1.42109e-14 1.42109e-14 0
0 0 0

-1.11286e-16 -5.98979e-15 0
-5.55112e-15 3.70814e-14 0
0 0 0

-1.83107e-15 8.33154e-15 0
1.06581e-14 -4.61853e-14 0
0 0 0

-1.11286e-16 -9.47873e-15 0
2.66454e-15 2.66454e-15 0
0 0 0

-1.83107e-15 7.20148e-15 0
-3.55271e-14 -4.9738e-14 0
0 0 0

-2.8205e-15 7.89651e-15 0
-4.9627e-14 -2.12053e-14 0
0 0 0

-8.53598e-16 5.2831e-15 0
-2.66454e-14 4.44089e-14 0
0 0 0

-2.8205e-15 7.32896e-15 0
-5.81757e-14 -5.81757e-14 0
0 0 0

-8.53598e-16 8.09482e-15 0
-2.13163e-14 7.10543e-15 0
0 0 0

-1.97201e-14 4.09076e-15 0
-1.9873e-14 -1.61982e-13 0
0 0 0

-1.23511e-15 2.64333e-14 0
-8.88178e-15 3.37508e-14 0
0 0 0

-1.97201e-14 9.6635e-15 0
-8.88178e-15 -1.79412e-13 0
0 0 0

-1.23511e-15 4.92225e-14 0
-2.13163e-14 6.39488e-14 0
0 0 0

2.03782e-14 1.99099e-14 0
-5.32907e-15 -1.33227e-13 0
0 0 0

1.72739e-14 -1.928e-14 0
3.01981e-14 5.86198e-14 0
0 0 0

2.03782e-14 3.79959e-14 0
1.06581e-14 -1.1724e-13 0
0 0 0

1.72739e-14 -2.94477e-14 0
7.10543e-15 3.55271e-14 0
0 0 0

7.15084e-15 -1.62177e-14 0
1.59872e-14 3.01981e-14 0
0 0 0

-2.03306e-15 2.17868e-15 0
5.50671e-14 -3.01981e-14 0
0 0 0

7.15084e-15 -2.62068e-14 0
2.84217e-14 2.84217e-14 0
0 0 0

-2.03306e-15 -6.73684e-15 0
5.68434e-14 -2.84217e-14 0
0 0 0

-1.04033e-14 3.67795e-15 0
7.11653e-14 -2.83107e-14 0
0 0 0

-7.31072e-15 1.26848e-14 0
3.73035e-14 8.88178e-15 0
0 0 0

-1.04033e-14 -3.05651e-15 0
7.77156e-14 -3.59712e-14 0
0 0 0

-7.31072e-15 1.90531e-14 0
8.52651e-14 -2.84217e-14 0
0 0 0

SCALARS active double 1
LOOKUP_TABLE default
1
1
1
1
1
1
1
1
1
1
1
1
1
1
1
1
1
1
1
1
1
1
1
1
1
1
1
1
1
1
1
1
1
1
1
1
1
1
1
1
1
1
1
1
1
1
1
1
1
1
1
1
1
1
1
1
1
1
1
1
1
1
1
1
SCALARS extent double 1
LOOKUP_TABLE default
0.0125
0.0125
0.0125
0.0125
0.0125
0.0125
0.0125
0.0125
0.0125
0.0125
0.0125
0.0125
0.0125
0.0125
0.0125
0.0125
0.0125
0.0125
0.0125
0.0125
0.0125
0.0125
0.0125
0.0125
0.0125
0.0125
0.0125
0.0125
0.0125
0.0125
0.0125
0.0125
0.0125
0.0125
0.0125
0.0125
0.0125
0.0125
0.0125
0.0125
0.0125
0.0125
0.0125
0.0125
0.0125
0.0125
0.0125
0.0125
0.0125
0.0125
0.0125
0.0125
0.0125
0.0125
0.0125
0.0125
0.0125
0.0125
0.0125
0.0125
0.0125
0.0125
0.0125
0.0125
SCALARS pressure double 1
LOOKUP_TABLE default
-4.57594e-11
2.70699e-11
-2.57341e-11
4.99763e-11
3.99994e-11
-9.13754e-12
8.87885e-11
4.1878e-12
-7.87972e-12
-1.03592e-11
5.53569e-12
-9.64931e-12
-6.56377e-13
-2.50491e-11
2.49081e-12
7.4495e-13
-3.66944e-11
5.53238e-11
-4.25718e-11
4.82995e-11
8.75735e-11
1.38386e-11
1.14133e-10
1.00222e-11
-4.24388e-12
-7.34491e-12
2.33356e-11
2.23343e-12
-8.59107e-12
-9.17053e-12
2.10587e-11
-3.66512e-11
-6.31077e-11
6.89298e-11
-2.69041e-11
3.78836e-11
7.24692e-11
2.41827e-11
8.82071e-11
3.12657e-11
-1.49343e-11
3.17586e-11
-1.68338e-11
1.55109e-11
1.07999e-11
-2.21482e-11
1.14658e-11
-3.45288e-11
-4.24864e-11
5.04281e-11
-4.07383e-11
2.15303e-11
7.41783e-11
-1.8121e-11
7.952e-11
3.76316e-12
-1.33088e-11
5.48694e-11
-1.16242e-11
1.04471e-11
2.08812e-11
9.10319e-12
1.8193e-11
3.50671e-12
SCALARS density double 1
LOOKUP_TABLE default
1000
1000
1000
1000
1000
1000
1000
1000
1000
1000
1000
1000
1000
1000
1000
1000
1000
1000
1000
1000
1000
1000
1000
1000
1000
1000
1000
1000
1000
1000
1000
1000
1000
1000
1000
1000
1000
1000
1000
1000
1000
1000
1000
1000
1000
1000
1000
1000
1000
1000
1000
1000
1000
1000
1000
1000
1000
1000
1000
1000
1000
1000
1000
1000
