# vtk DataFile Version 3.0
Frame: 56, Time: 0.951
ASCII
DATASET UNSTRUCTURED_GRID
POINTS 64 double
0.0685923 0.0435891 0 
0.0626595 0.0664589 0 
0.0930771 0.0509402 0 
0.0865315 0.0744437 0 
0.0534054 0.0887965 0 
0.0484678 0.113424 0 
0.0787001 0.0975886 0 
0.0729628 0.122192 0 
0.0437762 0.137095 0 
0.0390836 0.1633 0 
0.0677497 0.147134 0 
0.0604696 0.171298 0 
0.0365687 0.190359 0 
0.0328044 0.217166 0 
0.0565862 0.197747 0 
0.0510841 0.223998 0 
0.117595 0.060342 0 
0.109033 0.0835261 0 
0.141153 0.0674597 0 
0.132313 0.0906944 0 
0.101015 0.107062 0 
0.0941797 0.130309 0 
0.126406 0.114939 0 
0.119124 0.137251 0 
0.0880495 0.155289 0 
0.0801799 0.18005 0 
0.112412 0.16149 0 
0.105782 0.185032 0 
0.076401 0.206469 0 
0.0707179 0.233834 0 
0.101162 0.210915 0 
0.0943885 0.236603 0 
0.165223 0.0731906 0 
0.154263 0.0967653 0 
0.191863 0.0833966 0 
0.178522 0.1053 0 
0.148693 0.1217 0 
0.141143 0.145431 0 
0.173152 0.129251 0 
0.164782 0.152285 0 
0.135385 0.17044 0 
0.129798 0.1939 0 
0.15919 0.176808 0 
0.152797 0.201645 0 
0.124627 0.218868 0 
0.118386 0.243303 0 
0.146909 0.226485 0 
0.140105 0.250968 0 
0.216242 0.091384 0 
0.201053 0.114336 0 
0.239591 0.0993316 0 
0.224415 0.121435 0 
0.196409 0.138393 0 
0.18846 0.161457 0 
0.221123 0.144095 0 
0.213091 0.167343 0 
0.182672 0.184794 0 
0.17712 0.209342 0 
0.207056 0.19264 0 
0.202576 0.21815 0 
0.169333 0.233956 0 
0.162233 0.257898 0 
0.194228 0.243105 0 
0.190293 0.267463 0 
CELLS 64 128
1 0
1 1
1 2
1 3
1 4
1 5
1 6
1 7
1 8
1 9
1 10
1 11
1 12
1 13
1 14
1 15
1 16
1 17
1 18
1 19
1 20
1 21
1 22
1 23
1 24
1 25
1 26
1 27
1 28
1 29
1 30
1 31
1 32
1 33
1 34
1 35
1 36
1 37
1 38
1 39
1 40
1 41
1 42
1 43
1 44
1 45
1 46
1 47
1 48
1 49
1 50
1 51
1 52
1 53
1 54
1 55
1 56
1 57
1 58
1 59
1 60
1 61
1 62
1 63
CELL_TYPES 64
1
1
1
1
1
1
1
1
1
1
1
1
1
1
1
1
1
1
1
1
1
1
1
1
1
1
1
1
1
1
1
1
1
1
1
1
1
1
1
1
1
1
1
1
1
1
1
1
1
1
1
1
1
1
1
1
1
1
1
1
1
1
1
1
POINT_DATA 64
VECTORS displacement double
-0.343908 -0.368911 0 
-0.34984 -0.371041 0 
-0.344423 -0.36156 0 
-0.350968 -0.363056 0 
-0.359095 -0.373703 0 
-0.364032 -0.374076 0 
-0.3588 -0.364911 0 
-0.364537 -0.365308 0 
-0.368724 -0.375405 0 
-0.373416 -0.3742 0 
-0.36975 -0.365366 0 
-0.37703 -0.366202 0 
-0.375931 -0.372141 0 
-0.379696 -0.370334 0 
-0.380914 -0.364753 0 
-0.386416 -0.363502 0 
-0.344905 -0.352158 0 
-0.353467 -0.353974 0 
-0.346347 -0.34504 0 
-0.355187 -0.346806 0 
-0.361485 -0.355438 0 
-0.36832 -0.357191 0 
-0.361094 -0.347561 0 
-0.368376 -0.350249 0 
-0.37445 -0.357211 0 
-0.38232 -0.35745 0 
-0.375088 -0.35101 0 
-0.381718 -0.352468 0 
-0.386099 -0.356031 0 
-0.391782 -0.353666 0 
-0.386338 -0.351585 0 
-0.393111 -0.350897 0 
-0.347277 -0.339309 0 
-0.358237 -0.340735 0 
-0.345637 -0.329103 0 
-0.358978 -0.3322 0 
-0.363807 -0.3408 0 
-0.371357 -0.342069 0 
-0.364348 -0.333249 0 
-0.372718 -0.335215 0 
-0.377115 -0.34206 0 
-0.382702 -0.3436 0 
-0.37831 -0.335692 0 
-0.384703 -0.335855 0 
-0.387873 -0.343632 0 
-0.394114 -0.344197 0 
-0.390591 -0.336015 0 
-0.397395 -0.336532 0 
-0.346258 -0.321116 0 
-0.361447 -0.323164 0 
-0.347909 -0.313168 0 
-0.363085 -0.316065 0 
-0.366091 -0.324107 0 
-0.37404 -0.326043 0 
-0.366377 -0.318405 0 
-0.374409 -0.320157 0 
-0.379828 -0.327706 0 
-0.38538 -0.328158 0 
-0.380444 -0.31986 0 
-0.384924 -0.31935 0 
-0.393167 -0.328544 0 
-0.400267 -0.329602 0 
-0.393272 -0.319395 0 
-0.397207 -0.320037 0 
VECTORS velocity double
0.681263 -0.556065 0 
-0.321861 -0.174596 0 
0.42298 0.166847 0 
-0.604226 0.129686 0 
-0.30576 -0.429212 0 
-0.293309 0.312484 0 
-0.472219 -0.584767 0 
-0.1234 -0.00531715 0 
0.120605 0.633426 0 
-0.352927 0.412967 0 
0.272102 0.254796 0 
0.347399 0.197386 0 
-0.140264 0.0673065 0 
-1.44511 -0.265264 0 
0.319074 0.342684 0 
-0.041109 -0.070963 0 
0.361673 -0.0673168 0 
-0.439739 0.198461 0 
0.423932 0.335271 0 
-0.103704 0.309433 0 
-0.383838 -0.348149 0 
-0.0816307 -0.100297 0 
0.00862228 -0.281649 0 
-0.0573641 0.048803 0 
-0.147088 -0.138098 0 
0.0666054 -0.084601 0 
-0.456017 0.343897 0 
-0.488418 0.333664 0 
0.0733149 0.196443 0 
-0.502382 0.240792 0 
-0.0669616 0.517299 0 
-0.632495 0.190865 0 
0.61963 0.562118 0 
-0.484775 0.246425 0 
0.138404 0.786215 0 
-0.457303 0.952548 0 
-0.402712 -0.291725 0 
-0.0601356 -0.0150379 0 
-0.12644 0.62289 0 
-0.190643 0.771805 0 
-0.738822 0.346947 0 
-0.834496 0.626095 0 
-1.14677 0.727023 0 
-0.907499 0.741911 0 
-0.138486 0.411304 0 
-0.27454 0.604195 0 
0.191955 0.789735 0 
-0.0871704 0.764945 0 
0.434221 0.669996 0 
-0.103697 0.900264 0 
-0.227674 1.32357 0 
-0.413446 1.23121 0 
-0.23444 0.349247 0 
-0.350367 0.713243 0 
-0.281878 1.27365 0 
-0.658889 1.136 0 
-0.996914 0.685293 0 
-0.691398 0.227614 0 
-0.746104 0.938662 0 
-0.611043 0.988066 0 
-0.457674 0.631167 0 
-0.866033 0.759423 0 
-0.437034 0.962251 0 
-0.628426 1.02532 0 
SCALARS mass double 1
LOOKUP_TABLE default
0.625
0.625
0.625
0.625
0.625
0.625
0.625
0.625
0.625
0.625
0.625
0.625
0.625
0.625
0.625
0.625
0.625
0.625
0.625
0.625
0.625
0.625
0.625
0.625
0.625
0.625
0.625
0.625
0.625
0.625
0.625
0.625
0.625
0.625
0.625
0.625
0.625
0.625
0.625
0.625
0.625
0.625
0.625
0.625
0.625
0.625
0.625
0.625
0.625
0.625
0.625
0.625
0.625
0.625
0.625
0.625
0.625
0.625
0.625
0.625
0.625
0.625
0.625
0.625
SCALARS volume double 1
LOOKUP_TABLE default
0.000581911
0.000630549
0.000615974
0.000613044
0.000616913
0.000608069
0.000631217
0.000620115
0.000537716
0.000517698
0.000598429
0.000586775
0.000504716
0.00047108
0.000581521
0.000568826
0.000646589
0.000620575
0.000629885
0.000600841
0.000635478
0.000622916
0.000623251
0.00057905
0.000635292
0.000585634
0.000620176
0.000626197
0.000618302
0.000584912
0.000619634
0.000631995
0.000642421
0.000599868
0.000626733
0.000622736
0.000646796
0.000619734
0.000616172
0.000606154
0.00062142
0.000591395
0.000649086
0.000620898
0.000607468
0.000597243
0.000624302
0.000594425
0.000641183
0.000631602
0.000621521
0.000612287
0.000602549
0.000616122
0.000613029
0.000611047
0.000609508
0.000641529
0.000654441
0.000623088
0.000600295
0.000626767
0.000633668
0.000609054
VECTORS momentum double
0.425789 -0.347541 0 
-0.201163 -0.109123 0 
0.264362 0.104279 0 
-0.377641 0.0810539 0 
-0.1911 -0.268258 0 
-0.183318 0.195302 0 
-0.295137 -0.365479 0 
-0.0771253 -0.00332322 0 
0.0753781 0.395891 0 
-0.220579 0.258105 0 
0.170064 0.159248 0 
0.217124 0.123366 0 
-0.0876647 0.0420666 0 
-0.903192 -0.16579 0 
0.199421 0.214178 0 
-0.0256931 -0.0443519 0 
0.226045 -0.042073 0 
-0.274837 0.124038 0 
0.264957 0.209544 0 
-0.0648149 0.193395 0 
-0.239899 -0.217593 0 
-0.0510192 -0.0626854 0 
0.00538893 -0.176031 0 
-0.0358525 0.0305019 0 
-0.0919303 -0.0863111 0 
0.0416284 -0.0528756 0 
-0.285011 0.214935 0 
-0.305262 0.20854 0 
0.0458218 0.122777 0 
-0.313988 0.150495 0 
-0.041851 0.323312 0 
-0.395309 0.119291 0 
0.387269 0.351324 0 
-0.302985 0.154015 0 
0.0865023 0.491385 0 
-0.285814 0.595342 0 
-0.251695 -0.182328 0 
-0.0375847 -0.00939867 0 
-0.0790251 0.389306 0 
-0.119152 0.482378 0 
-0.461764 0.216842 0 
-0.52156 0.391309 0 
-0.716728 0.45439 0 
-0.567187 0.463694 0 
-0.0865536 0.257065 0 
-0.171588 0.377622 0 
0.119972 0.493585 0 
-0.0544815 0.47809 0 
0.271388 0.418747 0 
-0.0648109 0.562665 0 
-0.142296 0.827232 0 
-0.258404 0.769507 0 
-0.146525 0.218279 0 
-0.21898 0.445777 0 
-0.176174 0.796032 0 
-0.411805 0.710002 0 
-0.623071 0.428308 0 
-0.432124 0.142259 0 
-0.466315 0.586664 0 
-0.381902 0.617541 0 
-0.286046 0.394479 0 
-0.54127 0.474639 0 
-0.273146 0.601407 0 
-0.392766 0.640825 0 
VECTORS body_force double
0 -9.81 0 
0 -9.81 0 
0 -9.81 0 
0 -9.81 0 
0 -9.81 0 
0 -9.81 0 
0 -9.81 0 
0 -9.81 0 
0 -9.81 0 
0 -9.81 0 
0 -9.81 0 
0 -9.81 0 
0 -9.81 0 
0 -9.81 0 
0 -9.81 0 
0 -9.81 0 
0 -9.81 0 
0 -9.81 0 
0 -9.81 0 
0 -9.81 0 
0 -9.81 0 
0 -9.81 0 
0 -9.81 0 
0 -9.81 0 
0 -9.81 0 
0 -9.81 0 
0 -9.81 0 
0 -9.81 0 
0 -9.81 0 
0 -9.81 0 
0 -9.81 0 
0 -9.81 0 
0 -9.81 0 
0 -9.81 0 
0 -9.81 0 
0 -9.81 0 
0 -9.81 0 
0 -9.81 0 
0 -9.81 0 
0 -9.81 0 
0 -9.81 0 
0 -9.81 0 
0 -9.81 0 
0 -9.81 0 
0 -9.81 0 
0 -9.81 0 
0 -9.81 0 
0 -9.81 0 
0 -9.81 0 
0 -9.81 0 
0 -9.81 0 
0 -9.81 0 
0 -9.81 0 
0 -9.81 0 
0 -9.81 0 
0 -9.81 0 
0 -9.81 0 
0 -9.81 0 
0 -9.81 0 
0 -9.81 0 
0 -9.81 0 
0 -9.81 0 
0 -9.81 0 
0 -9.81 0 
TENSORS cauchy_stress double
-624.479 1147.68 0
1147.68 -13113 0
0 0 0

1982.66 1160.35 0
1160.35 -282.779 0
0 0 0

-362.798 138.035 0
138.035 -2434.59 0
0 0 0

-512.973 -445.942 0
-445.942 -3201.51 0
0 0 0

-1163.92 1946.71 0
1946.71 -1340.7 0
0 0 0

-8422.14 6057.95 0
6057.95 3140.74 0
0 0 0

3408.38 2828.35 0
2828.35 -1504.91 0
0 0 0

-4192.52 3325.77 0
3325.77 2683.63 0
0 0 0

-21231.5 3222.22 0
3222.22 -7695.52 0
0 0 0

-32486.2 -551.553 0
-551.553 -3736.78 0
0 0 0

-8624.16 4116.19 0
4116.19 269.629 0
0 0 0

-14478 4566.98 0
4566.98 2341.36 0
0 0 0

-35268 -148.148 0
-148.148 -5838.88 0
0 0 0

-49759.7 -1128.38 0
-1128.38 -4610.31 0
0 0 0

-18501.5 878.177 0
878.177 4635.17 0
0 0 0

-20643.8 1484.16 0
1484.16 2532.84 0
0 0 0

4037.63 2748.61 0
2748.61 2492.94 0
0 0 0

-3917.33 1414.64 0
1414.64 2551.07 0
0 0 0

2893.82 1877.28 0
1877.28 -1396.73 0
0 0 0

-4803.88 -1073.03 0
-1073.03 -2777.21 0
0 0 0

-2796.32 9408.05 0
9408.05 5993.46 0
0 0 0

-1006.88 3659.66 0
3659.66 364.662 0
0 0 0

-1792.87 4034.3 0
4034.3 1253.9 0
0 0 0

-7114.4 2264.66 0
2264.66 -7570.64 0
0 0 0

-3766.16 -577.072 0
-577.072 6907.25 0
0 0 0

-9700.9 -708.873 0
-708.873 -2809.85 0
0 0 0

-7714.89 4158.38 0
4158.38 6224.86 0
0 0 0

-217.076 3087.62 0
3087.62 585.144 0
0 0 0

-7524.53 3011.21 0
3011.21 5452.5 0
0 0 0

-10547.2 -5260.7 0
-5260.7 -2200.92 0
0 0 0

-4630.55 2757.25 0
2757.25 2972.48 0
0 0 0

-208.002 -3299.56 0
-3299.56 2348.25 0
0 0 0

2374.1 1163.22 0
1163.22 2912.78 0
0 0 0

-6945.72 -2517.58 0
-2517.58 -947.098 0
0 0 0

613.552 3669.71 0
3669.71 -81.0033 0
0 0 0

147.419 -562.298 0
-562.298 -845.183 0
0 0 0

2915.27 2047.42 0
2047.42 3676.9 0
0 0 0

-1604.75 16.2342 0
16.2342 -22.3789 0
0 0 0

-607.03 1449.2 0
1449.2 -2128.52 0
0 0 0

-4355.14 1960.77 0
1960.77 -1532.76 0
0 0 0

-3311.96 3236.79 0
3236.79 2207.41 0
0 0 0

-4420.22 4944.56 0
4944.56 -6208.04 0
0 0 0

833.554 400.831 0
400.831 6438.26 0
0 0 0

909.147 3461.01 0
3461.01 -2175.37 0
0 0 0

-8401.53 3867.81 0
3867.81 2929.96 0
0 0 0

-2768.66 959.733 0
959.733 -5967.57 0
0 0 0

-5961.2 646.491 0
646.491 5746.43 0
0 0 0

-8001.72 -121.721 0
-121.721 -1644 0
0 0 0

1564.11 783.226 0
783.226 3351.83 0
0 0 0

-1793.52 -2418.16 0
-2418.16 3814.1 0
0 0 0

-999.137 644.891 0
644.891 -74.1984 0
0 0 0

-1876.25 -1084.33 0
-1084.33 -2075.65 0
0 0 0

-4715.43 1064.53 0
1064.53 -2319.8 0
0 0 0

-1364.67 1980.18 0
1980.18 -1386.75 0
0 0 0

-3194.6 -66.7419 0
-66.7419 -524.377 0
0 0 0

-321.829 -924.347 0
-924.347 -4019.96 0
0 0 0

-4316.45 1719.41 0
1719.41 -510.466 0
0 0 0

1807.9 3700.07 0
3700.07 3211.98 0
0 0 0

1680.11 -1867.21 0
-1867.21 7171.71 0
0 0 0

-1670.31 1776.43 0
1776.43 1081.05 0
0 0 0

-6640.5 -2094.86 0
-2094.86 -1115.38 0
0 0 0

-2685.59 2082.85 0
2082.85 3228.53 0
0 0 0

1890.3 718.926 0
718.926 758.334 0
0 0 0

-4696.1 633.455 0
633.455 -273.928 0
0 0 0

TENSORS velocity_gradient double
1.02472 -12.4341 0
4.93028 -3.38593 0
0 0 0

0.82248 -6.28225 0
3.404 2.45676 0
0 0 0

1.16129 -8.79151 0
4.85373 -1.19195 0
0 0 0

0.488576 -7.29163 0
2.34165 -0.754689 0
0 0 0

-0.819525 -5.79985 0
-2.34482 3.95965 0
0 0 0

-2.64552 4.27063 0
-8.52543 5.69639 0
0 0 0

-0.537974 -3.88252 0
-0.633032 1.74772 0
0 0 0

-2.07972 3.2422 0
-2.54001 5.3385 0
0 0 0

-1.14151 4.20183 0
-6.50148 5.22073 0
0 0 0

-0.585425 -2.14856 0
-1.2876 -4.30481 0
0 0 0

-3.55947 2.20512 0
-3.79135 4.29057 0
0 0 0

-2.87113 -2.20481 0
-0.736014 -1.01046 0
0 0 0

-2.07883 -2.01332 0
2.38999 -4.63785 0
0 0 0

-4.95971 -4.5065 0
2.56507 -3.19102 0
0 0 0

-1.48647 -3.62947 0
3.71885 -2.25514 0
0 0 0

-2.22072 -6.25928 0
5.0449 -3.74169 0
0 0 0

3.16364 -8.09928 0
6.32534 -2.28095 0
0 0 0

2.84137 -7.98375 0
6.68951 -2.41148 0
0 0 0

3.06704 -8.425 0
6.4345 -1.91289 0
0 0 0

2.74414 -8.30574 0
6.79937 -2.04765 0
0 0 0

0.608404 1.13112 0
3.44058 3.63324 0
0 0 0

-2.55425 1.79271 0
-2.60864 3.9509 0
0 0 0

0.758083 -1.89878 0
6.55347 2.86213 0
0 0 0

-2.03093 -0.991101 0
5.96226 3.05454 0
0 0 0

-3.62494 -0.520952 0
-3.3542 3.81113 0
0 0 0

-2.42166 -1.1884 0
0.772991 2.40192 0
0 0 0

-4.79381 -1.46882 0
5.44191 5.59547 0
0 0 0

-7.09289 -0.80892 0
5.00804 5.67924 0
0 0 0

-0.990124 -5.14078 0
4.94779 -1.3524 0
0 0 0

0.750528 -5.49878 0
8.01555 -1.97682 0
0 0 0

-4.3846 -3.07114 0
5.23196 1.08815 0
0 0 0

0.709889 -3.93394 0
8.1067 0.625853 0
0 0 0

1.22049 -8.83369 0
10.2316 -1.0478 0
0 0 0

1.03075 -7.8075 0
10.5844 -0.748586 0
0 0 0

1.03336 -9.33681 0
10.7082 0.233585 0
0 0 0

0.589852 -5.94392 0
11.297 0.979282 0
0 0 0

0.0415121 -4.42705 0
8.18398 2.24242 0
0 0 0

-3.01893 -3.82822 0
5.75687 2.76739 0
0 0 0

0.019073 -5.38437 0
10.4639 1.36531 0
0 0 0

-0.502924 -5.40219 0
9.24163 2.58078 0
0 0 0

-5.68885 -3.82573 0
5.30293 5.22951 0
0 0 0

-8.07101 -3.26064 0
4.93305 5.31725 0
0 0 0

-0.918034 -5.43298 0
6.34124 3.77532 0
0 0 0

-2.9087 1.04048 0
3.96713 3.32114 0
0 0 0

-5.17301 1.19729 0
5.31243 1.91532 0
0 0 0

-0.428298 -0.0212724 0
5.95523 1.75023 0
0 0 0

-3.44873 5.08304 0
4.88726 2.45779 0
0 0 0

0.297356 -3.81071 0
5.28015 2.87603 0
0 0 0

-1.69246 -8.22843 0
6.82256 0.343953 0
0 0 0

-0.0429359 -5.78835 0
8.76086 0.624827 0
0 0 0

-1.15932 -5.60865 0
6.82321 0.707913 0
0 0 0

-0.00927736 -4.8833 0
7.53475 1.42833 0
0 0 0

0.0390579 -5.83841 0
9.68778 0.612415 0
0 0 0

-0.665576 -5.90759 0
8.30757 0.0786671 0
0 0 0

1.03727 -5.03009 0
8.50784 1.29185 0
0 0 0

0.773933 -6.56915 0
8.25037 -1.78236 0
0 0 0

-1.0453 -5.81567 0
5.35003 0.794608 0
0 0 0

-1.79926 4.45586 0
3.34739 2.60226 0
0 0 0

-0.126072 -6.36106 0
7.39404 -1.58438 0
0 0 0

-0.824163 3.28337 0
3.74861 1.73808 0
0 0 0

-3.20987 4.91058 0
3.37366 2.59379 0
0 0 0

-2.81092 -8.94216 0
3.46455 1.22695 0
0 0 0

-3.44481 3.51032 0
3.04135 2.52407 0
0 0 0

-1.00371 -3.5563 0
3.56131 1.51533 0
0 0 0

SCALARS active double 1
LOOKUP_TABLE default
1
1
1
1
1
1
1
1
1
1
1
1
1
1
1
1
1
1
1
1
1
1
1
1
1
1
1
1
1
1
1
1
1
1
1
1
1
1
1
1
1
1
1
1
1
1
1
1
1
1
1
1
1
1
1
1
1
1
1
1
1
1
1
1
SCALARS extent double 1
LOOKUP_TABLE default
0.0125
0.0125
0.0125
0.0125
0.0125
0.0125
0.0125
0.0125
0.0125
0.0125
0.0125
0.0125
0.0125
0.0125
0.0125
0.0125
0.0125
0.0125
0.0125
0.0125
0.0125
0.0125
0.0125
0.0125
0.0125
0.0125
0.0125
0.0125
0.0125
0.0125
0.0125
0.0125
0.0125
0.0125
0.0125
0.0125
0.0125
0.0125
0.0125
0.0125
0.0125
0.0125
0.0125
0.0125
0.0125
0.0125
0.0125
0.0125
0.0125
0.0125
0.0125
0.0125
0.0125
0.0125
0.0125
0.0125
0.0125
0.0125
0.0125
0.0125
0.0125
0.0125
0.0125
0.0125
SCALARS pressure double 1
LOOKUP_TABLE default
6868.72
-849.943
1398.69
1857.24
1252.31
2640.7
-951.735
754.446
14463.5
18111.5
4177.27
6068.31
20553.4
27185
6933.16
9055.5
-3265.28
683.131
-748.543
3790.55
-1598.57
321.109
269.488
7342.52
-1570.54
6255.38
745.015
-184.034
1036.01
6374.06
829.035
-1070.12
-2643.44
3946.41
-266.275
348.882
-3296.09
813.567
1367.77
2943.95
552.276
5314.13
-3635.9
633.11
2735.79
4368.11
107.387
4822.86
-2457.97
-1010.29
536.668
1975.95
3517.62
1375.71
1859.49
2170.89
2413.46
-2509.94
-4425.91
294.626
3877.94
-271.466
-1324.32
2485.02
SCALARS density double 1
LOOKUP_TABLE default
1074.05
991.2
1014.65
1019.5
1013.11
1027.84
990.151
1007.88
1162.32
1207.27
1044.4
1065.14
1238.32
1326.74
1074.77
1098.75
966.611
1007.13
992.245
1040.21
983.512
1003.35
1002.81
1079.35
983.799
1067.22
1007.78
998.088
1010.83
1068.54
1008.66
988.932
972.883
1041.9
997.235
1003.63
966.302
1008.5
1014.33
1031.09
1005.76
1056.82
962.893
1006.61
1028.86
1046.48
1001.12
1051.44
974.761
989.548
1005.6
1020.76
1037.26
1014.41
1019.53
1022.83
1025.42
974.234
955.014
1003.07
1041.15
997.181
986.322
1026.18
