# vtk DataFile Version 3.0
Frame: 21, Time: 0.367
ASCII
DATASET UNSTRUCTURED_GRID
POINTS 64 double
0.347227 0.0728344 0 
0.353 0.0964646 0 
0.371501 0.0649419 0 
0.376785 0.0892705 0 
0.356637 0.119689 0 
0.362378 0.143569 0 
0.380869 0.112555 0 
0.386121 0.136565 0 
0.367945 0.168394 0 
0.372651 0.192698 0 
0.392307 0.162337 0 
0.395892 0.186641 0 
0.37917 0.217545 0 
0.382587 0.241177 0 
0.403157 0.21113 0 
0.407314 0.235359 0 
0.395625 0.0593875 0 
0.399686 0.0850558 0 
0.418863 0.0545161 0 
0.421903 0.080539 0 
0.404683 0.109704 0 
0.410152 0.13466 0 
0.428239 0.105351 0 
0.433641 0.12945 0 
0.416876 0.160463 0 
0.42036 0.184107 0 
0.440777 0.155155 0 
0.447159 0.180099 0 
0.426486 0.206902 0 
0.432668 0.233809 0 
0.451855 0.204707 0 
0.457474 0.230761 0 
0.44286 0.0490763 0 
0.44374 0.0758062 0 
0.468217 0.0458275 0 
0.465733 0.0724988 0 
0.450029 0.101548 0 
0.456234 0.126276 0 
0.472397 0.0986436 0 
0.480847 0.124052 0 
0.463809 0.152059 0 
0.47182 0.17715 0 
0.489303 0.149493 0 
0.497064 0.172043 0 
0.476701 0.202371 0 
0.483597 0.226352 0 
0.501764 0.194341 0 
0.509233 0.218667 0 
0.49376 0.0425199 0 
0.487606 0.0691361 0 
0.518973 0.0425478 0 
0.512363 0.0676313 0 
0.493761 0.093056 0 
0.502765 0.115788 0 
0.518723 0.0884355 0 
0.527157 0.108313 0 
0.511246 0.139646 0 
0.520397 0.162358 0 
0.535142 0.131401 0 
0.54421 0.154974 0 
0.526103 0.186528 0 
0.533657 0.212801 0 
0.550604 0.180864 0 
0.559108 0.205669 0 
CELLS 64 128
1 0
1 1
1 2
1 3
1 4
1 5
1 6
1 7
1 8
1 9
1 10
1 11
1 12
1 13
1 14
1 15
1 16
1 17
1 18
1 19
1 20
1 21
1 22
1 23
1 24
1 25
1 26
1 27
1 28
1 29
1 30
1 31
1 32
1 33
1 34
1 35
1 36
1 37
1 38
1 39
1 40
1 41
1 42
1 43
1 44
1 45
1 46
1 47
1 48
1 49
1 50
1 51
1 52
1 53
1 54
1 55
1 56
1 57
1 58
1 59
1 60
1 61
1 62
1 63
CELL_TYPES 64
1
1
1
1
1
1
1
1
1
1
1
1
1
1
1
1
1
1
1
1
1
1
1
1
1
1
1
1
1
1
1
1
1
1
1
1
1
1
1
1
1
1
1
1
1
1
1
1
1
1
1
1
1
1
1
1
1
1
1
1
1
1
1
1
POINT_DATA 64
VECTORS displacement double
-0.0652731 -0.339666 0 
-0.0595004 -0.341035 0 
-0.0659989 -0.347558 0 
-0.0607151 -0.348229 0 
-0.0558625 -0.342811 0 
-0.0501223 -0.343931 0 
-0.0566311 -0.349945 0 
-0.0513795 -0.350935 0 
-0.0445549 -0.344106 0 
-0.0398485 -0.344802 0 
-0.0451935 -0.350163 0 
-0.0416079 -0.350859 0 
-0.0333304 -0.344955 0 
-0.0299135 -0.346323 0 
-0.0343435 -0.35137 0 
-0.0301856 -0.352141 0 
-0.066875 -0.353113 0 
-0.0628136 -0.352444 0 
-0.0686365 -0.357984 0 
-0.0655971 -0.356961 0 
-0.0578168 -0.352796 0 
-0.0523479 -0.35284 0 
-0.0592614 -0.357149 0 
-0.053859 -0.35805 0 
-0.0456241 -0.352037 0 
-0.0421404 -0.353393 0 
-0.0467226 -0.357345 0 
-0.0403407 -0.357401 0 
-0.0360135 -0.355598 0 
-0.0298323 -0.353691 0 
-0.0356453 -0.357793 0 
-0.0300259 -0.356739 0 
-0.0696401 -0.363424 0 
-0.0687603 -0.361694 0 
-0.0692826 -0.366672 0 
-0.0717674 -0.365001 0 
-0.0624711 -0.360952 0 
-0.0562656 -0.361224 0 
-0.0651026 -0.363856 0 
-0.0566526 -0.363448 0 
-0.0486911 -0.360441 0 
-0.0406804 -0.36035 0 
-0.048197 -0.363007 0 
-0.0404364 -0.365457 0 
-0.0357993 -0.360129 0 
-0.0289029 -0.361148 0 
-0.0357359 -0.368159 0 
-0.0282666 -0.368833 0 
-0.0687397 -0.36998 0 
-0.0748937 -0.368364 0 
-0.0685275 -0.369952 0 
-0.075137 -0.369869 0 
-0.0687392 -0.369444 0 
-0.0597348 -0.371712 0 
-0.0687775 -0.374065 0 
-0.0603431 -0.379187 0 
-0.0512543 -0.372854 0 
-0.0421032 -0.375142 0 
-0.0523583 -0.381099 0 
-0.0432903 -0.382526 0 
-0.0363971 -0.375972 0 
-0.0288431 -0.374699 0 
-0.0368962 -0.381636 0 
-0.0283925 -0.381831 0 
VECTORS velocity double
-0.965264 1.64934 0 
-0.249897 1.64778 0 
-0.884281 0.937641 0 
-0.450538 1.26223 0 
-0.983499 0.63809 0 
-1.12713 0.957363 0 
-0.897155 0.510118 0 
-1.23263 0.625777 0 
-1.06246 1.38924 0 
-1.63033 0.55628 0 
-1.16419 1.08319 0 
-0.986116 0.829877 0 
-1.44409 0.332125 0 
-1.78153 0.716161 0 
-1.11343 0.493157 0 
-2.64288 0.590072 0 
-0.500147 1.08372 0 
-0.4632 1.59983 0 
-0.827312 0.655495 0 
-0.531301 1.57487 0 
-0.782918 0.827105 0 
-1.02382 0.807932 0 
-0.742722 0.958256 0 
-1.0742 0.871878 0 
-1.10835 1.25216 0 
-0.564581 1.13723 0 
-1.48168 1.41592 0 
-0.748328 1.46427 0 
-0.685409 0.835044 0 
-2.70435 0.853453 0 
-0.353855 1.61056 0 
-2.53419 0.742106 0 
-1.62619 0.0866796 0 
-0.802362 1.25618 0 
-2.1173 0.829421 0 
-1.60593 1.80619 0 
-0.763379 1.36748 0 
-0.386761 1.63561 0 
-1.05175 1.71053 0 
0.194091 1.72532 0 
-0.840594 1.85026 0 
-0.710575 1.35553 0 
0.201 1.63103 0 
-0.0223569 1.11774 0 
-0.816542 0.757281 0 
-1.90216 0.873015 0 
-0.655404 0.583125 0 
-1.5219 1.92313 0 
-1.64371 0.256532 0 
-2.00538 1.47539 0 
-2.26633 -0.139158 0 
-2.63212 0.569076 0 
-1.57402 1.04938 0 
-0.427223 0.885265 0 
-2.03501 0.212397 0 
-0.636878 -0.00534015 0 
-0.0073309 1.35049 0 
-0.234417 1.80223 0 
0.156707 0.614862 0 
-0.483642 1.3072 0 
-0.903052 1.74157 0 
-1.68257 2.51467 0 
-1.90576 1.37178 0 
-1.22625 2.34386 0 
SCALARS mass double 1
LOOKUP_TABLE default
0.625
0.625
0.625
0.625
0.625
0.625
0.625
0.625
0.625
0.625
0.625
0.625
0.625
0.625
0.625
0.625
0.625
0.625
0.625
0.625
0.625
0.625
0.625
0.625
0.625
0.625
0.625
0.625
0.625
0.625
0.625
0.625
0.625
0.625
0.625
0.625
0.625
0.625
0.625
0.625
0.625
0.625
0.625
0.625
0.625
0.625
0.625
0.625
0.625
0.625
0.625
0.625
0.625
0.625
0.625
0.625
0.625
0.625
0.625
0.625
0.625
0.625
0.625
0.625
SCALARS volume double 1
LOOKUP_TABLE default
0.000626206
0.000608773
0.000650304
0.000602644
0.000634971
0.000681839
0.000578252
0.000612065
0.000606026
0.000608813
0.000624097
0.000583698
0.000650773
0.000560778
0.000613422
0.00058884
0.000630184
0.000620675
0.000636741
0.000611301
0.000621616
0.000670767
0.000572734
0.000594227
0.000683492
0.000590363
0.000616076
0.000636283
0.000651385
0.000624082
0.00065313
0.00065267
0.000634153
0.00060076
0.000583335
0.000608835
0.000574966
0.000612532
0.000580999
0.000630586
0.000678896
0.000623078
0.000680804
0.000568447
0.00064612
0.00063929
0.000634079
0.000653956
0.000597906
0.00063401
0.000581446
0.000614267
0.000559772
0.000608411
0.000508035
0.000614758
0.000606115
0.000573379
0.000671854
0.00063312
0.000686539
0.000665876
0.0007109
0.000602785
VECTORS momentum double
-0.60329 1.03084 0 
-0.156185 1.02986 0 
-0.552675 0.586026 0 
-0.281586 0.788893 0 
-0.614687 0.398806 0 
-0.704458 0.598352 0 
-0.560722 0.318823 0 
-0.770394 0.391111 0 
-0.664036 0.868277 0 
-1.01895 0.347675 0 
-0.727618 0.676993 0 
-0.616323 0.518673 0 
-0.902554 0.207578 0 
-1.11346 0.447601 0 
-0.695895 0.308223 0 
-1.6518 0.368795 0 
-0.312592 0.677322 0 
-0.2895 0.999896 0 
-0.51707 0.409684 0 
-0.332063 0.984291 0 
-0.489324 0.516941 0 
-0.639889 0.504957 0 
-0.464201 0.59891 0 
-0.671377 0.544924 0 
-0.692717 0.782597 0 
-0.352863 0.710772 0 
-0.926049 0.884951 0 
-0.467705 0.915169 0 
-0.428381 0.521903 0 
-1.69022 0.533408 0 
-0.221159 1.0066 0 
-1.58387 0.463816 0 
-1.01637 0.0541747 0 
-0.501476 0.78511 0 
-1.32331 0.518388 0 
-1.0037 1.12887 0 
-0.477112 0.854674 0 
-0.241726 1.02226 0 
-0.657344 1.06908 0 
0.121307 1.07833 0 
-0.525371 1.15641 0 
-0.44411 0.847208 0 
0.125625 1.01939 0 
-0.0139731 0.698589 0 
-0.510339 0.473301 0 
-1.18885 0.545634 0 
-0.409628 0.364453 0 
-0.951189 1.20195 0 
-1.02732 0.160333 0 
-1.25336 0.92212 0 
-1.41646 -0.0869735 0 
-1.64507 0.355672 0 
-0.98376 0.655862 0 
-0.267014 0.553291 0 
-1.27188 0.132748 0 
-0.398049 -0.00333759 0 
-0.00458181 0.844053 0 
-0.146511 1.12639 0 
0.0979419 0.384289 0 
-0.302276 0.817 0 
-0.564408 1.08848 0 
-1.0516 1.57167 0 
-1.1911 0.857361 0 
-0.766409 1.46491 0 
VECTORS body_force double
0 -9.81 0 
0 -9.81 0 
0 -9.81 0 
0 -9.81 0 
0 -9.81 0 
0 -9.81 0 
0 -9.81 0 
0 -9.81 0 
0 -9.81 0 
0 -9.81 0 
0 -9.81 0 
0 -9.81 0 
0 -9.81 0 
0 -9.81 0 
0 -9.81 0 
0 -9.81 0 
0 -9.81 0 
0 -9.81 0 
0 -9.81 0 
0 -9.81 0 
0 -9.81 0 
0 -9.81 0 
0 -9.81 0 
0 -9.81 0 
0 -9.81 0 
0 -9.81 0 
0 -9.81 0 
0 -9.81 0 
0 -9.81 0 
0 -9.81 0 
0 -9.81 0 
0 -9.81 0 
0 -9.81 0 
0 -9.81 0 
0 -9.81 0 
0 -9.81 0 
0 -9.81 0 
0 -9.81 0 
0 -9.81 0 
0 -9.81 0 
0 -9.81 0 
0 -9.81 0 
0 -9.81 0 
0 -9.81 0 
0 -9.81 0 
0 -9.81 0 
0 -9.81 0 
0 -9.81 0 
0 -9.81 0 
0 -9.81 0 
0 -9.81 0 
0 -9.81 0 
0 -9.81 0 
0 -9.81 0 
0 -9.81 0 
0 -9.81 0 
0 -9.81 0 
0 -9.81 0 
0 -9.81 0 
0 -9.81 0 
0 -9.81 0 
0 -9.81 0 
0 -9.81 0 
0 -9.81 0 
TENSORS cauchy_stress double
570.646 -948.666 0
-948.666 -199.811 0
0 0 0

-2683.78 -3470.65 0
-3470.65 -2374.96 0
0 0 0

3442.25 -3889.81 0
-3889.81 4190 0
0 0 0

-5249.71 -4121.71 0
-4121.71 -1755.21 0
0 0 0

3723.27 -2327.73 0
-2327.73 -679.594 0
0 0 0

7723.96 474.588 0
474.588 9014.78 0
0 0 0

-7693.89 -3660.6 0
-3660.6 -7256.5 0
0 0 0

-4312.79 1801.97 0
1801.97 291.099 0
0 0 0

-1174.86 -3480.42 0
-3480.42 -4753.65 0
0 0 0

-4960.67 -373.956 0
-373.956 -85.438 0
0 0 0

-1197.98 4608.77 0
4608.77 920.083 0
0 0 0

-6351.16 3553.23 0
3553.23 -6796.4 0
0 0 0

1993.09 -6302.49 0
-6302.49 5777.97 0
0 0 0

-7302.44 -5775.82 0
-5775.82 -13548.8 0
0 0 0

-4733.37 2401.29 0
2401.29 1137.35 0
0 0 0

-2854.4 -5016.33 0
-5016.33 -8606.56 0
0 0 0

-2263.18 850.071 0
850.071 3851.71 0
0 0 0

-4207.36 6553.33 0
6553.33 2871.89 0
0 0 0

-2501.72 -2403.62 0
-2403.62 6080.9 0
0 0 0

-8348.34 4232.97 0
4232.97 4086.31 0
0 0 0

2648.98 7632.59 0
7632.59 -3692.95 0
0 0 0

8878.98 7662.35 0
7662.35 4711.48 0
0 0 0

-9083.02 3152.4 0
3152.4 -7711.29 0
0 0 0

-7440.06 1942.91 0
1942.91 -2269.74 0
0 0 0

10399.6 7726.89 0
7726.89 6804.72 0
0 0 0

2882.11 -3937.62 0
-3937.62 -13846.4 0
0 0 0

-5237.46 8734.97 0
8734.97 2471.77 0
0 0 0

3570.94 -820.714 0
-820.714 -130.344 0
0 0 0

5867.22 6035.64 0
6035.64 2084.48 0
0 0 0

-2017.92 1191.2 0
1191.2 1735.26 0
0 0 0

4578.78 5835.03 0
5835.03 3887.35 0
0 0 0

4124.73 3481.86 0
3481.86 4205.96 0
0 0 0

1472.75 -1406.04 0
-1406.04 1323.2 0
0 0 0

-11358.4 3691.99 0
3691.99 3751.38 0
0 0 0

-3698.85 -6499.33 0
-6499.33 -9568.6 0
0 0 0

-11762.4 -275.396 0
-275.396 6723.13 0
0 0 0

-10398.5 10228.2 0
10228.2 -5647.73 0
0 0 0

-861.689 8420.2 0
8420.2 -3013.37 0
0 0 0

-11720.4 8583.33 0
8583.33 -2318.68 0
0 0 0

-2242.22 3727.57 0
3727.57 3953.23 0
0 0 0

9689.65 17539.5 0
17539.5 6217.41 0
0 0 0

1182.14 7932.73 0
7932.73 -1774.35 0
0 0 0

7664.23 5066.65 0
5066.65 8782.35 0
0 0 0

-6786.32 -12674.5 0
-12674.5 -11452.9 0
0 0 0

1715.1 6467.79 0
6467.79 4676.1 0
0 0 0

12362.6 -3343.39 0
-3343.39 -8015.11 0
0 0 0

-749.826 -8261.02 0
-8261.02 3523.42 0
0 0 0

4793.18 2915.92 0
2915.92 3916.23 0
0 0 0

2395.1 -9626.46 0
-9626.46 -10918 0
0 0 0

-4453.74 -1322.44 0
-1322.44 7206.17 0
0 0 0

-3588.59 -4897.27 0
-4897.27 -10302.3 0
0 0 0

-978.713 6034.42 0
6034.42 -2352.34 0
0 0 0

-8452.27 4166.81 0
4166.81 -12744.3 0
0 0 0

-4469.35 239.101 0
239.101 -704.061 0
0 0 0

-6330.55 6895.39 0
6895.39 -33515.9 0
0 0 0

4251.36 1152.71 0
1152.71 -7428.82 0
0 0 0

-5022.12 1637.73 0
1637.73 -878.093 0
0 0 0

-6536.38 -995.855 0
-995.855 -10041.5 0
0 0 0

8528.56 -646.124 0
-646.124 5373.16 0
0 0 0

-190.707 -986.47 0
-986.47 2673.08 0
0 0 0

7179.69 2426.63 0
2426.63 10880.2 0
0 0 0

8576.41 9715.25 0
9715.25 3606.72 0
0 0 0

2958.34 -2162.99 0
-2162.99 21807.2 0
0 0 0

3219.85 -1863.58 0
-1863.58 -10179.5 0
0 0 0

TENSORS velocity_gradient double
0.0494873 3.3767 0
-3.66062 -2.76069 0
0 0 0

-0.531755 1.86187 0
-2.59678 -2.99518 0
0 0 0

2.35404 1.56955 0
-3.3438 -2.07323 0
0 0 0

0.142814 1.0941 0
-2.44921 -1.88087 0
0 0 0

-0.511746 -7.5863 0
-0.390568 -5.1036 0
0 0 0

0.0298233 -7.45262 0
1.69976 -4.58763 0
0 0 0

-0.673054 -7.04017 0
-1.01318 -2.99568 0
0 0 0

-0.129579 -6.91778 0
1.0845 -2.52328 0
0 0 0

2.63272 -7.54219 0
2.30982 -4.25242 0
0 0 0

6.0201 -6.86722 0
2.26483 -4.26138 0
0 0 0

1.78017 -4.17205 0
2.32114 -4.29718 0
0 0 0

4.9646 -3.90213 0
3.84087 -4.35992 0
0 0 0

2.92435 -9.74282 0
4.38592 -3.39564 0
0 0 0

-2.99336 -10.6569 0
7.38516 -2.93236 0
0 0 0

2.49556 -15.4864 0
5.75498 -1.8546 0
0 0 0

-2.95086 -16.4787 0
2.53276 -2.28836 0
0 0 0

-0.160485 -0.191152 0
-3.4883 -0.990751 0
0 0 0

-2.75128 0.101748 0
-0.353755 -0.528831 0
0 0 0

-12.6505 6.61641 0
-3.78361 6.58862 0
0 0 0

-6.66646 4.39168 0
0.747967 3.2689 0
0 0 0

-0.740272 -5.88187 0
5.05603 -0.875865 0
0 0 0

2.46204 -5.20311 0
7.83582 -0.347539 0
0 0 0

-1.42578 -1.42392 0
4.94739 1.87796 0
0 0 0

1.7707 -2.19544 0
7.32535 1.87325 0
0 0 0

4.5312 -3.34035 0
9.06469 -4.94181 0
0 0 0

4.42285 -3.35654 0
8.22571 -5.06721 0
0 0 0

4.39372 -3.02311 0
9.10138 -4.14982 0
0 0 0

5.12984 -3.794 0
5.32181 -5.66323 0
0 0 0

3.06038 -19.9927 0
6.73508 -5.04082 0
0 0 0

-2.60835 -21.8351 0
2.77192 -6.02843 0
0 0 0

3.57872 -20.1996 0
4.09031 -6.76483 0
0 0 0

4.59117 -24.6978 0
8.37064 -6.41908 0
0 0 0

-13.5806 16.8576 0
-3.99789 14.1963 0
0 0 0

-7.74822 9.50015 0
-0.477203 7.33858 0
0 0 0

-10.2491 19.7851 0
-3.02442 15.2438 0
0 0 0

-7.92521 13.0098 0
-3.99073 7.95996 0
0 0 0

-2.96415 5.32837 0
-0.77929 5.37943 0
0 0 0

3.25733 1.89575 0
-4.38486 3.45928 0
0 0 0

-4.19623 11.7306 0
-4.64186 6.56892 0
0 0 0

2.62871 9.21822 0
-4.41968 3.86492 0
0 0 0

9.38564 -1.29839 0
-3.58735 -0.773785 0
0 0 0

6.86427 -6.86848 0
-0.765857 -3.27714 0
0 0 0

9.20203 4.13663 0
-3.76094 2.16512 0
0 0 0

3.32671 -10.4942 0
0.956304 -0.161686 0
0 0 0

3.79924 -17.2451 0
2.67372 -2.61878 0
0 0 0

4.38276 -23.5323 0
7.41492 -1.07418 0
0 0 0

-4.48307 -11.0779 0
6.80684 0.465961 0
0 0 0

-6.52204 -21.5068 0
14.5773 4.82472 0
0 0 0

-9.096 18.6024 0
-4.50323 14.1417 0
0 0 0

-8.3529 15.9176 0
-3.89877 7.33473 0
0 0 0

-3.62738 16.2159 0
-13.2879 7.46625 0
0 0 0

-2.3851 19.008 0
-15.2677 7.40839 0
0 0 0

-4.68856 16.6734 0
-5.49694 7.20266 0
0 0 0

-0.1341 13.7268 0
-8.14639 5.90213 0
0 0 0

0.0679244 19.7135 0
-14.7021 7.57107 0
0 0 0

0.620826 11.3809 0
-11.6729 14.1844 0
0 0 0

-3.03919 13.3141 0
-0.651465 8.36303 0
0 0 0

-5.35955 -12.7801 0
4.90361 2.84002 0
0 0 0

-2.0802 10.4635 0
-3.5393 16.9471 0
0 0 0

-6.83307 -9.38635 0
4.88717 8.81472 0
0 0 0

-7.43889 -13.3039 0
8.03021 3.62754 0
0 0 0

-7.31214 -18.3642 0
12.9316 11.3702 0
0 0 0

-13.7574 -12.9495 0
10.9413 5.48855 0
0 0 0

-4.54967 -10.7146 0
10.7785 16.1765 0
0 0 0

SCALARS active double 1
LOOKUP_TABLE default
1
1
1
1
1
1
1
1
1
1
1
1
1
1
1
1
1
1
1
1
1
1
1
1
1
1
1
1
1
1
1
1
1
1
1
1
1
1
1
1
1
1
1
1
1
1
1
1
1
1
1
1
1
1
1
1
1
1
1
1
1
1
1
1
SCALARS extent double 1
LOOKUP_TABLE default
0.0125
0.0125
0.0125
0.0125
0.0125
0.0125
0.0125
0.0125
0.0125
0.0125
0.0125
0.0125
0.0125
0.0125
0.0125
0.0125
0.0125
0.0125
0.0125
0.0125
0.0125
0.0125
0.0125
0.0125
0.0125
0.0125
0.0125
0.0125
0.0125
0.0125
0.0125
0.0125
0.0125
0.0125
0.0125
0.0125
0.0125
0.0125
0.0125
0.0125
0.0125
0.0125
0.0125
0.0125
0.0125
0.0125
0.0125
0.0125
0.0125
0.0125
0.0125
0.0125
0.0125
0.0125
0.0125
0.0125
0.0125
0.0125
0.0125
0.0125
0.0125
0.0125
0.0125
0.0125
SCALARS pressure double 1
LOOKUP_TABLE default
-185.418
2529.37
-3816.13
3502.46
-1521.84
-8369.37
7475.19
2010.84
2964.26
2523.05
138.949
6573.78
-3885.53
10425.6
1798.01
5730.48
-794.264
667.733
-1789.59
2131.01
521.982
-6795.23
8397.16
4854.9
-8602.18
5482.12
1382.84
-1720.3
-3975.85
141.332
-4233.06
-4165.34
-1397.98
3803.5
6633.73
2519.62
8023.11
1937.53
7019.53
-855.506
-7953.53
296.108
-8223.29
9119.61
-3195.6
-2173.77
-1386.8
-4354.71
4261.43
-1376.22
6945.46
1665.52
10598.3
2586.7
19923.2
1588.73
2950.11
8288.96
-6950.86
-1241.19
-9029.93
-6091.57
-12382.8
3479.84
SCALARS density double 1
LOOKUP_TABLE default
998.074
1026.65
961.09
1037.1
984.297
916.639
1080.84
1021.13
1031.31
1026.59
1001.45
1070.76
960.396
1114.52
1018.88
1061.41
991.774
1006.97
981.56
1022.41
1005.44
931.769
1091.26
1051.79
914.422
1058.67
1014.49
982.268
959.494
1001.47
956.931
957.605
985.566
1040.35
1071.43
1026.55
1087.02
1020.35
1075.73
991.142
920.612
1003.08
918.033
1099.49
967.312
977.646
985.681
955.721
1045.32
985.789
1074.91
1017.47
1116.53
1027.27
1230.23
1016.66
1031.16
1090.03
930.262
987.175
910.364
938.613
879.167
1036.85
