# vtk DataFile Version 3.0
Frame: 30, Time: 0.517
ASCII
DATASET UNSTRUCTURED_GRID
POINTS 64 double
0.972032 0.373201 0 
0.969844 0.340976 0 
0.953356 0.372672 0 
0.949967 0.340922 0 
0.968105 0.310752 0 
0.965614 0.280642 0 
0.947296 0.312453 0 
0.943477 0.283246 0 
0.962105 0.251998 0 
0.957118 0.224952 0 
0.938878 0.256279 0 
0.934118 0.23034 0 
0.953623 0.198527 0 
0.950308 0.172665 0 
0.929875 0.204171 0 
0.924127 0.178283 0 
0.934252 0.372459 0 
0.930437 0.343192 0 
0.915051 0.373924 0 
0.910054 0.345636 0 
0.926414 0.315704 0 
0.921874 0.288901 0 
0.904338 0.320311 0 
0.899161 0.294173 0 
0.916366 0.262492 0 
0.910762 0.237844 0 
0.893517 0.268177 0 
0.886913 0.242558 0 
0.905966 0.21188 0 
0.899077 0.186426 0 
0.882057 0.217111 0 
0.875437 0.191961 0 
0.894593 0.378045 0 
0.887897 0.352837 0 
0.873413 0.38419 0 
0.866214 0.358541 0 
0.882358 0.326618 0 
0.875652 0.300123 0 
0.85965 0.331606 0 
0.853046 0.305967 0 
0.87008 0.274512 0 
0.864148 0.248515 0 
0.847206 0.281342 0 
0.84179 0.256468 0 
0.857576 0.223889 0 
0.850605 0.199517 0 
0.833214 0.232929 0 
0.82483 0.208847 0 
0.851021 0.389218 0 
0.843777 0.364329 0 
0.827069 0.397549 0 
0.819285 0.372204 0 
0.83724 0.339074 0 
0.829585 0.313678 0 
0.81365 0.347595 0 
0.806236 0.32285 0 
0.823557 0.287888 0 
0.8171 0.262981 0 
0.79947 0.29841 0 
0.792101 0.273687 0 
0.808172 0.238432 0 
0.800225 0.213909 0 
0.783601 0.248974 0 
0.776501 0.222818 0 
CELLS 64 128
1 0
1 1
1 2
1 3
1 4
1 5
1 6
1 7
1 8
1 9
1 10
1 11
1 12
1 13
1 14
1 15
1 16
1 17
1 18
1 19
1 20
1 21
1 22
1 23
1 24
1 25
1 26
1 27
1 28
1 29
1 30
1 31
1 32
1 33
1 34
1 35
1 36
1 37
1 38
1 39
1 40
1 41
1 42
1 43
1 44
1 45
1 46
1 47
1 48
1 49
1 50
1 51
1 52
1 53
1 54
1 55
1 56
1 57
1 58
1 59
1 60
1 61
1 62
1 63
CELL_TYPES 64
1
1
1
1
1
1
1
1
1
1
1
1
1
1
1
1
1
1
1
1
1
1
1
1
1
1
1
1
1
1
1
1
1
1
1
1
1
1
1
1
1
1
1
1
1
1
1
1
1
1
1
1
1
1
1
1
1
1
1
1
1
1
1
1
POINT_DATA 64
VECTORS displacement double
0.459532 -0.239299 0 
0.457344 -0.296524 0 
0.415856 -0.239828 0 
0.412467 -0.296578 0 
0.455605 -0.351748 0 
0.453114 -0.406858 0 
0.409796 -0.350047 0 
0.405977 -0.404254 0 
0.449605 -0.460502 0 
0.444618 -0.512548 0 
0.401378 -0.456221 0 
0.396618 -0.50716 0 
0.441123 -0.563973 0 
0.437808 -0.614835 0 
0.392375 -0.558329 0 
0.386627 -0.609217 0 
0.371752 -0.240041 0 
0.367937 -0.294308 0 
0.327551 -0.238576 0 
0.322554 -0.291864 0 
0.363914 -0.346796 0 
0.359374 -0.398599 0 
0.316838 -0.342189 0 
0.311661 -0.393327 0 
0.353866 -0.450008 0 
0.348262 -0.499656 0 
0.306017 -0.444323 0 
0.299413 -0.494942 0 
0.343466 -0.55062 0 
0.336577 -0.601074 0 
0.294557 -0.545389 0 
0.287937 -0.595539 0 
0.282093 -0.234455 0 
0.275397 -0.284663 0 
0.235913 -0.22831 0 
0.228714 -0.278959 0 
0.269858 -0.335882 0 
0.263152 -0.387377 0 
0.22215 -0.330894 0 
0.215546 -0.381533 0 
0.25758 -0.437988 0 
0.251648 -0.488985 0 
0.209706 -0.431158 0 
0.20429 -0.481032 0 
0.245076 -0.538611 0 
0.238105 -0.587983 0 
0.195714 -0.529571 0 
0.18733 -0.578653 0 
0.188521 -0.223282 0 
0.181277 -0.273171 0 
0.139569 -0.214951 0 
0.131785 -0.265296 0 
0.17474 -0.323426 0 
0.167085 -0.373822 0 
0.12615 -0.314905 0 
0.118736 -0.36465 0 
0.161057 -0.424612 0 
0.1546 -0.474519 0 
0.11197 -0.41409 0 
0.104601 -0.463813 0 
0.145672 -0.524068 0 
0.137725 -0.573591 0 
0.0961006 -0.513526 0 
0.0890008 -0.564682 0 
VECTORS velocity double
0.264617 -0.335774 0 
0.0504733 -1.08592 0 
-0.546624 -0.172603 0 
-0.950574 -1.4026 0 
0.414488 -0.972927 0 
0.573629 -1.61385 0 
-0.599663 -1.20292 0 
-0.583843 -1.71713 0 
0.633029 -1.61983 0 
0.223231 -2.30243 0 
-0.456574 -1.19774 0 
-0.425098 -1.14312 0 
0.48033 -2.06594 0 
-0.490703 -1.80162 0 
-0.352234 -0.907603 0 
-1.23282 -1.00398 0 
0.398117 -0.896812 0 
-0.0947707 -1.75505 0 
1.27936 -0.159932 0 
-0.000800531 -0.984916 0 
0.292221 -0.976332 0 
0.284867 -1.56767 0 
0.140804 -0.651927 0 
0.0483378 -0.888952 0 
0.0840172 -1.29365 0 
0.312389 -1.12143 0 
-0.268019 -0.952256 0 
0.147291 -1.08503 0 
0.210913 -1.31758 0 
-0.867247 -1.42243 0 
0.353972 -1.11508 0 
-0.874943 -1.17479 0 
1.78661 0.0838995 0 
0.525881 0.0354592 0 
1.86054 0.581759 0 
0.656239 0.676477 0 
0.692667 -0.143598 0 
0.47463 -0.0543324 0 
1.06479 0.592638 0 
0.603604 0.485262 0 
0.365913 -0.249755 0 
0.588669 -0.379278 0 
0.13559 -0.2449 0 
0.472722 0.0547676 0 
0.084446 -0.241815 0 
-0.688292 -0.266012 0 
0.0477067 0.630994 0 
-0.839924 0.440923 0 
2.6486 0.392181 0 
1.25747 0.225466 0 
2.65294 1.58441 0 
1.69067 1.76513 0 
1.51808 0.314323 0 
1.03006 0.413891 0 
1.85304 1.42931 0 
1.09048 1.65599 0 
0.840829 0.247665 0 
0.789216 0.113539 0 
1.32164 1.42527 0 
1.06923 1.1349 0 
0.776985 0.57441 0 
-0.534553 0.701368 0 
0.662613 2.17021 0 
-0.188556 2.0873 0 
SCALARS mass double 1
LOOKUP_TABLE default
0.625
0.625
0.625
0.625
0.625
0.625
0.625
0.625
0.625
0.625
0.625
0.625
0.625
0.625
0.625
0.625
0.625
0.625
0.625
0.625
0.625
0.625
0.625
0.625
0.625
0.625
0.625
0.625
0.625
0.625
0.625
0.625
0.625
0.625
0.625
0.625
0.625
0.625
0.625
0.625
0.625
0.625
0.625
0.625
0.625
0.625
0.625
0.625
0.625
0.625
0.625
0.625
0.625
0.625
0.625
0.625
0.625
0.625
0.625
0.625
0.625
0.625
0.625
0.625
SCALARS volume double 1
LOOKUP_TABLE default
0.000444492
0.000472211
0.000594319
0.000607677
0.000489726
0.000529543
0.000584895
0.000611686
0.000551531
0.00056606
0.000601983
0.000608931
0.000590514
0.000632989
0.000626389
0.000641181
0.000529593
0.000544764
0.000541606
0.00056882
0.000566976
0.00058563
0.000578637
0.000600872
0.000561046
0.000598507
0.000635595
0.000622452
0.000602476
0.000621942
0.000607674
0.000614439
0.00056462
0.000570164
0.000551514
0.000589706
0.000590237
0.000599049
0.000596435
0.000609845
0.000596983
0.000573679
0.000614504
0.000582693
0.000634296
0.000650872
0.000607231
0.00061816
0.000608882
0.000607778
0.00063344
0.000607063
0.000599142
0.000612421
0.000605981
0.000628822
0.000613781
0.000636168
0.000608147
0.000635961
0.000631308
0.000639135
0.000637437
0.000630132
VECTORS momentum double
0.165386 -0.209859 0 
0.0315458 -0.6787 0 
-0.34164 -0.107877 0 
-0.594109 -0.876624 0 
0.259055 -0.608079 0 
0.358518 -1.00866 0 
-0.37479 -0.751822 0 
-0.364902 -1.0732 0 
0.395643 -1.0124 0 
0.139519 -1.43902 0 
-0.285359 -0.748586 0 
-0.265686 -0.71445 0 
0.300206 -1.29121 0 
-0.306689 -1.12601 0 
-0.220146 -0.567252 0 
-0.770513 -0.627486 0 
0.248823 -0.560507 0 
-0.0592317 -1.09691 0 
0.799597 -0.0999576 0 
-0.000500332 -0.615572 0 
0.182638 -0.610207 0 
0.178042 -0.979791 0 
0.0880027 -0.407454 0 
0.0302111 -0.555595 0 
0.0525107 -0.808533 0 
0.195243 -0.700895 0 
-0.167512 -0.59516 0 
0.0920569 -0.678143 0 
0.131821 -0.823487 0 
-0.542029 -0.889016 0 
0.221232 -0.696927 0 
-0.546839 -0.734242 0 
1.11663 0.0524372 0 
0.328676 0.022162 0 
1.16284 0.363599 0 
0.410149 0.422798 0 
0.432917 -0.089749 0 
0.296644 -0.0339578 0 
0.665496 0.370399 0 
0.377253 0.303289 0 
0.228696 -0.156097 0 
0.367918 -0.237049 0 
0.0847435 -0.153062 0 
0.295451 0.0342297 0 
0.0527787 -0.151135 0 
-0.430182 -0.166257 0 
0.0298167 0.394371 0 
-0.524953 0.275577 0 
1.65537 0.245113 0 
0.785917 0.140917 0 
1.65809 0.990258 0 
1.05667 1.1032 0 
0.948801 0.196452 0 
0.643789 0.258682 0 
1.15815 0.893321 0 
0.681552 1.03499 0 
0.525518 0.154791 0 
0.49326 0.0709617 0 
0.826027 0.890794 0 
0.668269 0.709311 0 
0.485616 0.359006 0 
-0.334096 0.438355 0 
0.414133 1.35638 0 
-0.117848 1.30456 0 
VECTORS body_force double
0 -9.81 0 
0 -9.81 0 
0 -9.81 0 
0 -9.81 0 
0 -9.81 0 
0 -9.81 0 
0 -9.81 0 
0 -9.81 0 
0 -9.81 0 
0 -9.81 0 
0 -9.81 0 
0 -9.81 0 
0 -9.81 0 
0 -9.81 0 
0 -9.81 0 
0 -9.81 0 
0 -9.81 0 
0 -9.81 0 
0 -9.81 0 
0 -9.81 0 
0 -9.81 0 
0 -9.81 0 
0 -9.81 0 
0 -9.81 0 
0 -9.81 0 
0 -9.81 0 
0 -9.81 0 
0 -9.81 0 
0 -9.81 0 
0 -9.81 0 
0 -9.81 0 
0 -9.81 0 
0 -9.81 0 
0 -9.81 0 
0 -9.81 0 
0 -9.81 0 
0 -9.81 0 
0 -9.81 0 
0 -9.81 0 
0 -9.81 0 
0 -9.81 0 
0 -9.81 0 
0 -9.81 0 
0 -9.81 0 
0 -9.81 0 
0 -9.81 0 
0 -9.81 0 
0 -9.81 0 
0 -9.81 0 
0 -9.81 0 
0 -9.81 0 
0 -9.81 0 
0 -9.81 0 
0 -9.81 0 
0 -9.81 0 
0 -9.81 0 
0 -9.81 0 
0 -9.81 0 
0 -9.81 0 
0 -9.81 0 
0 -9.81 0 
0 -9.81 0 
0 -9.81 0 
0 -9.81 0 
TENSORS cauchy_stress double
-60257.1 6238.81 0
6238.81 -5285.38 0
0 0 0

-53843.3 8004.68 0
8004.68 -65.5433 0
0 0 0

-21569.9 2594.52 0
2594.52 11890 0
0 0 0

-16370.2 5617.69 0
5617.69 10964.8 0
0 0 0

-44580.4 6060.43 0
6060.43 -2324.37 0
0 0 0

-32931.9 5825.72 0
5825.72 1059.17 0
0 0 0

-17657.9 -1229.5 0
-1229.5 4903.99 0
0 0 0

-13040 -393.877 0
-393.877 8899.27 0
0 0 0

-23896.1 5935.4 0
5935.4 -152.617 0
0 0 0

-16605.4 1988.86 0
1988.86 -2442.89 0
0 0 0

-8365.55 -1504.23 0
-1504.23 1149.75 0
0 0 0

-6989.37 -1085.86 0
-1085.86 1980.46 0
0 0 0

-10931.7 -63.0952 0
-63.0952 16.5263 0
0 0 0

-273.367 15.3087 0
15.3087 2715.89 0
0 0 0

-1980.77 -1938.49 0
-1938.49 2407.65 0
0 0 0

2385.68 -5230.15 0
-5230.15 2529.59 0
0 0 0

-30022.5 5099.49 0
5099.49 -1832.03 0
0 0 0

-28150.7 4385.88 0
4385.88 1727.62 0
0 0 0

-27881.8 3352.92 0
3352.92 340.954 0
0 0 0

-16044.8 448.548 0
448.548 -2068.18 0
0 0 0

-16856.5 3720.57 0
3720.57 -1881.11 0
0 0 0

-11669.5 1587.93 0
1587.93 -842.716 0
0 0 0

-13185.1 5658.59 0
5658.59 -1637.27 0
0 0 0

-6594.19 -187.539 0
-187.539 -976.837 0
0 0 0

-15102.6 4093.59 0
4093.59 -5656.77 0
0 0 0

-5991.19 -183.838 0
-183.838 -2338.4 0
0 0 0

-608.997 1370.18 0
1370.18 3841.75 0
0 0 0

-3572.39 2158.96 0
2158.96 2786.89 0
0 0 0

-8011.63 -2013.6 0
-2013.6 953.081 0
0 0 0

-3614.74 -340.788 0
-340.788 2671.51 0
0 0 0

-4115.07 528.587 0
528.587 -1291.14 0
0 0 0

-5282.64 1230.23 0
1230.23 2005.18 0
0 0 0

-17733.7 490.325 0
490.325 -1804.62 0
0 0 0

-15028.1 17.384 0
17.384 -2630.85 0
0 0 0

-19962.5 1641.44 0
1641.44 -4092.02 0
0 0 0

-14140.6 1847.17 0
1847.17 2962.34 0
0 0 0

-12967.5 -49.7443 0
-49.7443 1962.25 0
0 0 0

-11471.7 -44.4779 0
-44.4779 3316.4 0
0 0 0

-8950.86 2939.18 0
2939.18 -45.4207 0
0 0 0

-1755.09 -734.752 0
-734.752 -2965.39 0
0 0 0

-10335.6 -1646.12 0
-1646.12 1515.83 0
0 0 0

-13271.3 2724.02 0
2724.02 -3205.99 0
0 0 0

-3621.31 1428.76 0
1428.76 364.305 0
0 0 0

-4662.16 168.172 0
168.172 -8817.01 0
0 0 0

2550.56 -2557.77 0
-2557.77 288.84 0
0 0 0

4788 -3731.48 0
-3731.48 3012.2 0
0 0 0

-4027.43 -712.995 0
-712.995 -1519.29 0
0 0 0

-2529.27 -1370.04 0
-1370.04 413.045 0
0 0 0

-5793.39 -1193.35 0
-1193.35 768.786 0
0 0 0

-3963.31 -1903.96 0
-1903.96 -1410.16 0
0 0 0

-1598.06 1891.65 0
1891.65 4177.52 0
0 0 0

-2158.92 2279.02 0
2279.02 -3440.78 0
0 0 0

-9653.17 -2512.09 0
-2512.09 1527.6 0
0 0 0

-5694.81 54.5015 0
54.5015 1784.73 0
0 0 0

-3289.98 -1356.44 0
-1356.44 -2652.9 0
0 0 0

-384.341 1082.38 0
1082.38 1556.85 0
0 0 0

-6080.32 -4401.99 0
-4401.99 2597.05 0
0 0 0

-840.79 -2484.4 0
-2484.4 4246.66 0
0 0 0

-1064.69 -669.781 0
-669.781 -4192.19 0
0 0 0

-192.707 -1623.99 0
-1623.99 3536.06 0
0 0 0

2345.88 1724.69 0
1724.69 -414.727 0
0 0 0

802.38 -2578.09 0
-2578.09 3498.44 0
0 0 0

3185.92 1660 0
1660 603.369 0
0 0 0

-1992.99 -2278.63 0
-2278.63 3565.49 0
0 0 0

TENSORS velocity_gradient double
1.0636 1.94759 0
3.12987 10.1109 0
0 0 0

2.34334 -1.44457 0
4.05342 6.36569 0
0 0 0

-3.91805 3.60606 0
-0.321929 10.7459 0
0 0 0

-4.64591 -1.64712 0
-4.03613 6.43858 0
0 0 0

0.901619 -1.53012 0
4.0785 6.36717 0
0 0 0

-0.23516 -1.07763 0
0.917042 5.64992 0
0 0 0

-4.17371 -1.44809 0
-7.19545 6.46556 0
0 0 0

-2.63752 -1.16568 0
-10.6376 3.23533 0
0 0 0

-0.990396 -0.352812 0
-4.00422 4.76876 0
0 0 0

0.392915 2.9819 0
-7.05567 3.35968 0
0 0 0

-0.98896 -0.881844 0
-9.24766 3.47464 0
0 0 0

1.35995 5.11176 0
-8.57107 2.8974 0
0 0 0

3.05975 6.82095 0
-8.94587 0.260642 0
0 0 0

6.97127 10.9729 0
-7.69667 -2.65796 0
0 0 0

4.027 5.87796 0
-8.16246 2.71085 0
0 0 0

5.18302 12.404 0
-7.45915 -1.74141 0
0 0 0

-20.5981 8.57 0
-11.9513 10.6573 0
0 0 0

-12.1411 1.59166 0
-12.2645 6.83505 0
0 0 0

-20.9849 14.7973 0
-11.9285 10.2895 0
0 0 0

-12.6964 7.5399 0
-12.2647 7.74118 0
0 0 0

-6.81648 2.19774 0
-11.7507 6.83164 0
0 0 0

-2.96819 0.160683 0
-10.9164 4.35365 0
0 0 0

-8.37657 6.39404 0
-13.1215 7.22079 0
0 0 0

-6.93473 2.22769 0
-15.8803 5.57979 0
0 0 0

-1.35492 0.498178 0
-9.55622 4.6382 0
0 0 0

0.610083 7.5199 0
-8.68357 3.25868 0
0 0 0

-6.76289 2.20285 0
-18.8415 5.59463 0
0 0 0

-3.94012 10.2198 0
-18.4669 3.51107 0
0 0 0

3.25878 7.99291 0
-8.34185 3.32922 0
0 0 0

3.0005 12.9908 0
-12.5427 -0.696325 0
0 0 0

-0.865959 10.7756 0
-18.3007 3.54113 0
0 0 0

1.29245 13.0443 0
-17.3536 1.76793 0
0 0 0

-12.9055 19.0693 0
-15.4891 9.23904 0
0 0 0

-13.785 16.0534 0
-18.2999 8.14544 0
0 0 0

-12.6564 18.1386 0
-14.8018 6.67167 0
0 0 0

-13.7613 17.8439 0
-17.85 5.85851 0
0 0 0

-12.2407 8.78064 0
-19.0863 7.12941 0
0 0 0

-10.0244 6.89071 0
-19.2949 6.52113 0
0 0 0

-12.6066 10.647 0
-19.0364 6.87506 0
0 0 0

-9.86737 10.7652 0
-18.0239 6.76084 0
0 0 0

-7.38653 4.71932 0
-18.9437 6.00682 0
0 0 0

-4.56885 9.8439 0
-18.531 4.66658 0
0 0 0

-7.15392 7.12518 0
-17.856 5.75972 0
0 0 0

-4.50881 7.64371 0
-20.4226 5.33508 0
0 0 0

-1.62779 13.7467 0
-18.3419 3.70183 0
0 0 0

-0.692025 13.3597 0
-19.8392 4.56178 0
0 0 0

-3.28768 15.2708 0
-22.2328 2.71396 0
0 0 0

-2.42776 15.5562 0
-23.7182 2.22101 0
0 0 0

-7.62998 17.0587 0
-15.1218 4.52317 0
0 0 0

-5.73323 16.6454 0
-14.8418 4.36084 0
0 0 0

-3.35544 13.5934 0
-15.6842 2.8964 0
0 0 0

-5.20315 14.8891 0
-15.1254 5.30046 0
0 0 0

-7.15736 10.8038 0
-14.5457 6.51229 0
0 0 0

-8.15769 10.5101 0
-15.0291 6.37036 0
0 0 0

-6.7927 10.8984 0
-14.4702 5.93386 0
0 0 0

-6.80729 9.49361 0
-14.2054 6.03294 0
0 0 0

-7.46229 9.41981 0
-16.7743 3.14119 0
0 0 0

-5.08065 10.0168 0
-19.7162 2.40379 0
0 0 0

-3.85396 10.6801 0
-9.94791 1.66388 0
0 0 0

-1.0161 11.8117 0
-12.6099 -1.97252 0
0 0 0

-3.46306 16.1661 0
-21.9299 1.1674 0
0 0 0

-2.10039 16.2402 0
-21.7892 0.802977 0
0 0 0

-0.626543 14.6924 0
-18.4958 -1.20693 0
0 0 0

-1.30824 15.7364 0
-19.7247 0.0297837 0
0 0 0

SCALARS active double 1
LOOKUP_TABLE default
1
1
1
1
1
1
1
1
1
1
1
1
1
1
1
1
1
1
1
1
1
1
1
1
1
1
1
1
1
1
1
1
1
1
1
1
1
1
1
1
1
1
1
1
1
1
1
1
1
1
1
1
1
1
1
1
1
1
1
1
1
1
1
1
SCALARS extent double 1
LOOKUP_TABLE default
0.0125
0.0125
0.0125
0.0125
0.0125
0.0125
0.0125
0.0125
0.0125
0.0125
0.0125
0.0125
0.0125
0.0125
0.0125
0.0125
0.0125
0.0125
0.0125
0.0125
0.0125
0.0125
0.0125
0.0125
0.0125
0.0125
0.0125
0.0125
0.0125
0.0125
0.0125
0.0125
0.0125
0.0125
0.0125
0.0125
0.0125
0.0125
0.0125
0.0125
0.0125
0.0125
0.0125
0.0125
0.0125
0.0125
0.0125
0.0125
0.0125
0.0125
0.0125
0.0125
0.0125
0.0125
0.0125
0.0125
0.0125
0.0125
0.0125
0.0125
0.0125
0.0125
0.0125
0.0125
SCALARS pressure double 1
LOOKUP_TABLE default
32771.2
26954.4
4839.96
2702.67
23452.4
15936.4
6376.94
2070.38
12024.4
9524.16
3607.9
2504.46
5457.58
-1221.26
-213.441
-2457.64
15927.3
13211.5
13770.4
9056.5
9368.8
6256.08
7411.17
3785.51
10379.7
4164.79
-1616.38
392.746
3529.27
471.611
2703.11
1638.73
9769.18
8829.5
12027.3
5589.13
5502.6
4077.66
4498.14
2360.24
4409.9
8238.66
1628.5
6739.58
-1419.7
-3900.1
2773.36
1058.11
2512.3
2686.73
-1289.73
2799.85
4062.79
1955.04
2971.44
-586.256
1741.64
-1702.94
2628.44
-1671.67
-965.577
-2150.41
-1894.64
-786.252
SCALARS density double 1
LOOKUP_TABLE default
1406.1
1323.56
1051.62
1028.51
1276.22
1180.26
1068.57
1021.77
1133.21
1104.12
1038.23
1026.39
1058.4
987.379
997.783
974.764
1180.15
1147.29
1153.97
1098.77
1102.34
1067.23
1080.12
1040.15
1113.99
1044.27
983.33
1004.09
1037.39
1004.92
1028.51
1017.19
1106.94
1096.17
1133.24
1059.85
1058.9
1043.32
1047.89
1024.85
1046.93
1089.46
1017.08
1072.61
985.344
960.251
1029.26
1011.07
1026.47
1028.34
986.676
1029.55
1043.16
1020.54
1031.39
993.921
1018.28
982.445
1027.71
982.765
990.008
977.884
980.489
991.856
