# vtk DataFile Version 3.0
Frame: 31, Time: 0.534
ASCII
DATASET UNSTRUCTURED_GRID
POINTS 64 double
0.183521 0.101035 0 
0.18438 0.12566 0 
0.20791 0.100224 0 
0.208729 0.124878 0 
0.182724 0.14971 0 
0.183682 0.174353 0 
0.207968 0.148434 0 
0.209082 0.172532 0 
0.182049 0.198542 0 
0.181505 0.223147 0 
0.20865 0.197851 0 
0.206936 0.2224 0 
0.183475 0.248899 0 
0.181708 0.272616 0 
0.209484 0.248966 0 
0.207684 0.273131 0 
0.233927 0.10027 0 
0.233752 0.125264 0 
0.257947 0.0984042 0 
0.257975 0.123082 0 
0.232411 0.149176 0 
0.232405 0.173278 0 
0.257936 0.147289 0 
0.257312 0.17164 0 
0.232112 0.199423 0 
0.229994 0.223737 0 
0.258046 0.198447 0 
0.256624 0.222767 0 
0.233099 0.24923 0 
0.233304 0.275853 0 
0.259217 0.248747 0 
0.258619 0.274738 0 
0.283285 0.0959633 0 
0.281853 0.121652 0 
0.311426 0.0975062 0 
0.307433 0.122521 0 
0.282506 0.146665 0 
0.281318 0.171066 0 
0.308044 0.147409 0 
0.306202 0.172026 0 
0.282451 0.196676 0 
0.281818 0.221231 0 
0.306658 0.197 0 
0.306511 0.22129 0 
0.28398 0.248953 0 
0.284088 0.274019 0 
0.308629 0.247649 0 
0.310083 0.273329 0 
0.336675 0.0977102 0 
0.331113 0.123526 0 
0.361346 0.09709 0 
0.35612 0.123104 0 
0.333044 0.14796 0 
0.331457 0.172277 0 
0.359662 0.146397 0 
0.357476 0.1721 0 
0.330963 0.196264 0 
0.331804 0.220714 0 
0.356371 0.197 0 
0.358357 0.22086 0 
0.332548 0.246837 0 
0.334673 0.271779 0 
0.357655 0.246896 0 
0.361457 0.271029 0 
CELLS 64 128
1 0
1 1
1 2
1 3
1 4
1 5
1 6
1 7
1 8
1 9
1 10
1 11
1 12
1 13
1 14
1 15
1 16
1 17
1 18
1 19
1 20
1 21
1 22
1 23
1 24
1 25
1 26
1 27
1 28
1 29
1 30
1 31
1 32
1 33
1 34
1 35
1 36
1 37
1 38
1 39
1 40
1 41
1 42
1 43
1 44
1 45
1 46
1 47
1 48
1 49
1 50
1 51
1 52
1 53
1 54
1 55
1 56
1 57
1 58
1 59
1 60
1 61
1 62
1 63
CELL_TYPES 64
1
1
1
1
1
1
1
1
1
1
1
1
1
1
1
1
1
1
1
1
1
1
1
1
1
1
1
1
1
1
1
1
1
1
1
1
1
1
1
1
1
1
1
1
1
1
1
1
1
1
1
1
1
1
1
1
1
1
1
1
1
1
1
1
POINT_DATA 64
VECTORS displacement double
-0.228979 -0.311465 0 
-0.22812 -0.31184 0 
-0.22959 -0.312276 0 
-0.228771 -0.312622 0 
-0.229776 -0.31279 0 
-0.228818 -0.313147 0 
-0.229532 -0.314066 0 
-0.228418 -0.314968 0 
-0.230451 -0.313958 0 
-0.230995 -0.314353 0 
-0.22885 -0.314649 0 
-0.230564 -0.3151 0 
-0.229025 -0.313601 0 
-0.230792 -0.314884 0 
-0.228016 -0.313534 0 
-0.229816 -0.314369 0 
-0.228573 -0.31223 0 
-0.228748 -0.312236 0 
-0.229553 -0.314096 0 
-0.229525 -0.314418 0 
-0.230089 -0.313324 0 
-0.230095 -0.314222 0 
-0.229564 -0.315211 0 
-0.230188 -0.31586 0 
-0.230388 -0.313077 0 
-0.232506 -0.313763 0 
-0.229454 -0.314053 0 
-0.230876 -0.314733 0 
-0.229401 -0.31327 0 
-0.229196 -0.311647 0 
-0.228283 -0.313753 0 
-0.228881 -0.312762 0 
-0.229215 -0.316537 0 
-0.230647 -0.315848 0 
-0.226074 -0.314994 0 
-0.230067 -0.314979 0 
-0.229994 -0.315835 0 
-0.231182 -0.316434 0 
-0.229456 -0.315091 0 
-0.231298 -0.315474 0 
-0.230049 -0.315824 0 
-0.230682 -0.316269 0 
-0.230842 -0.3155 0 
-0.230989 -0.31621 0 
-0.22852 -0.313547 0 
-0.228412 -0.313481 0 
-0.228871 -0.314851 0 
-0.227417 -0.314171 0 
-0.225825 -0.31479 0 
-0.231387 -0.313974 0 
-0.226154 -0.31541 0 
-0.23138 -0.314396 0 
-0.229456 -0.31454 0 
-0.231043 -0.315223 0 
-0.227838 -0.316103 0 
-0.230024 -0.3154 0 
-0.231537 -0.316236 0 
-0.230696 -0.316786 0 
-0.231129 -0.3155 0 
-0.229143 -0.31664 0 
-0.229952 -0.315663 0 
-0.227827 -0.315721 0 
-0.229845 -0.315604 0 
-0.226043 -0.316471 0 
VECTORS velocity double
-1.12257 -0.842356 0 
-0.904182 -0.264626 0 
-0.970279 -0.424006 0 
-1.25118 -0.594276 0 
-1.27819 -0.774455 0 
-1.12432 -0.312778 0 
-1.15252 -0.868594 0 
-1.11738 -0.362715 0 
-1.05779 -0.441907 0 
-1.35867 -0.774208 0 
-1.23351 -0.671237 0 
-1.08182 -1.21069 0 
-0.90897 -0.494032 0 
-0.819596 -0.587181 0 
-0.859356 -0.490449 0 
-0.883904 -0.493752 0 
-0.630334 -0.796869 0 
-0.935368 -0.439851 0 
-1.14955 -0.552551 0 
-0.972217 -0.0407019 0 
-1.03914 -0.748225 0 
-1.16275 -0.548423 0 
-0.986381 -0.463799 0 
-1.18867 -0.485089 0 
-1.42042 -0.757463 0 
-1.31009 -1.11673 0 
-1.13834 -0.691382 0 
-1.1024 -1.22968 0 
-1.19056 -0.60549 0 
-0.906096 -0.598535 0 
-1.01534 -0.519139 0 
-0.92267 -0.713584 0 
-0.781492 -0.503072 0 
-1.0651 -0.412315 0 
-0.846723 -0.464011 0 
-0.863615 -0.192162 0 
-1.03684 -0.637791 0 
-0.986973 -0.443545 0 
-0.881281 -0.59554 0 
-0.905293 -0.173517 0 
-1.21852 -0.928766 0 
-1.03151 -1.36707 0 
-1.55933 -0.537136 0 
-1.39784 -0.808584 0 
-1.17089 -0.875891 0 
-1.11962 -0.821123 0 
-1.28272 -0.475802 0 
-1.17979 -0.377499 0 
-0.826256 -0.285839 0 
-0.797595 0.124944 0 
-0.926416 -0.187959 0 
-0.791212 -0.447744 0 
-1.28294 -0.516122 0 
-0.902075 -0.180796 0 
-0.981254 -0.37198 0 
-0.992253 0.202878 0 
-1.25549 -0.321794 0 
-1.26955 -0.849516 0 
-1.10798 -0.174882 0 
-1.14672 -0.488715 0 
-1.24416 -0.488269 0 
-1.08706 -0.554039 0 
-1.01892 -0.415044 0 
-1.34511 -0.297622 0 
SCALARS mass double 1
LOOKUP_TABLE default
0.625
0.625
0.625
0.625
0.625
0.625
0.625
0.625
0.625
0.625
0.625
0.625
0.625
0.625
0.625
0.625
0.625
0.625
0.625
0.625
0.625
0.625
0.625
0.625
0.625
0.625
0.625
0.625
0.625
0.625
0.625
0.625
0.625
0.625
0.625
0.625
0.625
0.625
0.625
0.625
0.625
0.625
0.625
0.625
0.625
0.625
0.625
0.625
0.625
0.625
0.625
0.625
0.625
0.625
0.625
0.625
0.625
0.625
0.625
0.625
0.625
0.625
0.625
0.625
SCALARS volume double 1
LOOKUP_TABLE default
0.000637834
0.000614023
0.000620334
0.000632975
0.000619461
0.000634646
0.000591159
0.000601818
0.000611458
0.000606236
0.000611758
0.000609435
0.000641047
0.000622712
0.000649509
0.000593198
0.000647034
0.00064802
0.000611337
0.00062293
0.00059787
0.000641899
0.000605684
0.000630992
0.00065468
0.000580715
0.000659038
0.000635303
0.00067931
0.000612693
0.000650353
0.000616944
0.000672265
0.000623214
0.000626085
0.000617777
0.000630513
0.000619987
0.000623306
0.00060021
0.000642275
0.00060226
0.00066096
0.000601961
0.000664225
0.000597401
0.000670287
0.000617042
0.000649506
0.000621
0.000618445
0.000643298
0.000624252
0.000631309
0.000621783
0.000639364
0.000601723
0.000630487
0.000608219
0.00062532
0.000631985
0.000639654
0.000638001
0.000618285
VECTORS momentum double
-0.701606 -0.526472 0 
-0.565114 -0.165391 0 
-0.606424 -0.265004 0 
-0.78199 -0.371423 0 
-0.798868 -0.484034 0 
-0.702698 -0.195487 0 
-0.720325 -0.542871 0 
-0.698362 -0.226697 0 
-0.661121 -0.276192 0 
-0.849169 -0.48388 0 
-0.770941 -0.419523 0 
-0.676134 -0.75668 0 
-0.568106 -0.30877 0 
-0.512247 -0.366988 0 
-0.537098 -0.306531 0 
-0.55244 -0.308595 0 
-0.393958 -0.498043 0 
-0.584605 -0.274907 0 
-0.71847 -0.345344 0 
-0.607635 -0.0254387 0 
-0.649459 -0.46764 0 
-0.726716 -0.342764 0 
-0.616488 -0.289874 0 
-0.742918 -0.30318 0 
-0.887759 -0.473415 0 
-0.818808 -0.697954 0 
-0.711465 -0.432114 0 
-0.688998 -0.768551 0 
-0.744103 -0.378431 0 
-0.56631 -0.374084 0 
-0.634585 -0.324462 0 
-0.576669 -0.44599 0 
-0.488433 -0.31442 0 
-0.665686 -0.257697 0 
-0.529202 -0.290007 0 
-0.53976 -0.120102 0 
-0.648027 -0.398619 0 
-0.616858 -0.277216 0 
-0.550801 -0.372212 0 
-0.565808 -0.108448 0 
-0.761576 -0.580479 0 
-0.644693 -0.854422 0 
-0.974583 -0.33571 0 
-0.873649 -0.505365 0 
-0.731808 -0.547432 0 
-0.69976 -0.513202 0 
-0.801698 -0.297376 0 
-0.737367 -0.235937 0 
-0.51641 -0.178649 0 
-0.498497 0.0780898 0 
-0.57901 -0.117475 0 
-0.494507 -0.27984 0 
-0.801836 -0.322576 0 
-0.563797 -0.112997 0 
-0.613284 -0.232487 0 
-0.620158 0.126799 0 
-0.784679 -0.201121 0 
-0.793467 -0.530948 0 
-0.692487 -0.109301 0 
-0.716703 -0.305447 0 
-0.777601 -0.305168 0 
-0.679413 -0.346275 0 
-0.636826 -0.259402 0 
-0.840697 -0.186014 0 
VECTORS body_force double
0 -9.81 0 
0 -9.81 0 
0 -9.81 0 
0 -9.81 0 
0 -9.81 0 
0 -9.81 0 
0 -9.81 0 
0 -9.81 0 
0 -9.81 0 
0 -9.81 0 
0 -9.81 0 
0 -9.81 0 
0 -9.81 0 
0 -9.81 0 
0 -9.81 0 
0 -9.81 0 
0 -9.81 0 
0 -9.81 0 
0 -9.81 0 
0 -9.81 0 
0 -9.81 0 
0 -9.81 0 
0 -9.81 0 
0 -9.81 0 
0 -9.81 0 
0 -9.81 0 
0 -9.81 0 
0 -9.81 0 
0 -9.81 0 
0 -9.81 0 
0 -9.81 0 
0 -9.81 0 
0 -9.81 0 
0 -9.81 0 
0 -9.81 0 
0 -9.81 0 
0 -9.81 0 
0 -9.81 0 
0 -9.81 0 
0 -9.81 0 
0 -9.81 0 
0 -9.81 0 
0 -9.81 0 
0 -9.81 0 
0 -9.81 0 
0 -9.81 0 
0 -9.81 0 
0 -9.81 0 
0 -9.81 0 
0 -9.81 0 
0 -9.81 0 
0 -9.81 0 
0 -9.81 0 
0 -9.81 0 
0 -9.81 0 
0 -9.81 0 
0 -9.81 0 
0 -9.81 0 
0 -9.81 0 
0 -9.81 0 
0 -9.81 0 
0 -9.81 0 
0 -9.81 0 
0 -9.81 0 
TENSORS cauchy_stress double
2801.54 217.029 0
217.029 1107.48 0
0 0 0

-2634.03 -2550.73 0
-2550.73 -773.523 0
0 0 0

305.215 1036.19 0
1036.19 -1746.37 0
0 0 0

1961.51 -655.542 0
-655.542 476.784 0
0 0 0

-813.968 269.806 0
269.806 -897.987 0
0 0 0

1492.23 694.877 0
694.877 1453.24 0
0 0 0

-1579.07 -2461.24 0
-2461.24 -9126.05 0
0 0 0

-4124.69 -541.561 0
-541.561 -3144.03 0
0 0 0

444.562 -1210.74 0
-1210.74 -4656.98 0
0 0 0

-3834.56 3437.7 0
3437.7 -2027.49 0
0 0 0

-2178.56 -2448.85 0
-2448.85 -1939.61 0
0 0 0

-2690.78 4142.34 0
4142.34 -2159.1 0
0 0 0

4057.25 -1128.94 0
-1128.94 818.066 0
0 0 0

-386.531 1276.1 0
1276.1 -318.903 0
0 0 0

-506.983 -540.747 0
-540.747 7904.01 0
0 0 0

822.847 -2072.28 0
-2072.28 -10865.9 0
0 0 0

4800.18 724.108 0
724.108 1862.71 0
0 0 0

1839.01 1255.7 0
1255.7 5116.73 0
0 0 0

-1558.88 -1224.02 0
-1224.02 -2691.85 0
0 0 0

-1356.3 566.095 0
566.095 718.186 0
0 0 0

-1058.89 1022.42 0
1022.42 -7475.33 0
0 0 0

3269.13 3774.22 0
3774.22 1861.55 0
0 0 0

363.021 -4808.75 0
-4808.75 -6400.15 0
0 0 0

-586.211 516.372 0
516.372 2421.19 0
0 0 0

3632.24 770.012 0
770.012 5289.81 0
0 0 0

-5137.4 -126.853 0
-126.853 -8995.55 0
0 0 0

1377.16 -232.108 0
-232.108 8820.97 0
0 0 0

4847.51 -3257.71 0
-3257.71 -1703.31 0
0 0 0

7191.93 2205.15 0
2205.15 8832.29 0
0 0 0

1604.17 -4029.87 0
-4029.87 -5428.65 0
0 0 0

2300.38 2334.68 0
2334.68 5346.61 0
0 0 0

-1856.64 -2025.72 0
-2025.72 -638.291 0
0 0 0

10030.1 1819.35 0
1819.35 3989.42 0
0 0 0

-2269.94 5742.18 0
5742.18 1719.71 0
0 0 0

3297.39 -103.926 0
-103.926 -2963.77 0
0 0 0

-2252.27 1735.65 0
1735.65 17.0218 0
0 0 0

2778.55 -1674.05 0
-1674.05 -1089.76 0
0 0 0

507.134 2430.56 0
2430.56 -2055.69 0
0 0 0

1160.15 -5534.84 0
-5534.84 -1682.15 0
0 0 0

-3476.59 31.0991 0
31.0991 -4306.55 0
0 0 0

-777.633 2246.05 0
2246.05 6020.83 0
0 0 0

-3721.14 -1935.98 0
-1935.98 -3406.25 0
0 0 0

2029.6 693.344 0
693.344 8728.53 0
0 0 0

1391.59 -5158.42 0
-5158.42 -8614.63 0
0 0 0

22.3664 5855.57 0
5855.57 11683.4 0
0 0 0

3927.95 -4594.31 0
-4594.31 -12613.2 0
0 0 0

2458.36 5037.26 0
5037.26 10994.5 0
0 0 0

-920.764 -4048.84 0
-4048.84 -1543.71 0
0 0 0

4139.34 2214.26 0
2214.26 3256.9 0
0 0 0

-3739.69 3168.41 0
3168.41 2504.94 0
0 0 0

-817.574 -580.95 0
-580.95 -1210.09 0
0 0 0

1914.87 -250.992 0
-250.992 3634.36 0
0 0 0

2099.96 -1947.83 0
-1947.83 -2330.28 0
0 0 0

3292.77 -187.949 0
-187.949 -1361.3 0
0 0 0

-775.972 -1171.04 0
-1171.04 -216.468 0
0 0 0

209.063 -337.433 0
-337.433 4160.68 0
0 0 0

-4945.29 2781.59 0
2781.59 -2353.64 0
0 0 0

3114.13 -59.8329 0
-59.8329 -1433.24 0
0 0 0

-2049.3 797.545 0
797.545 -3184.71 0
0 0 0

3262.77 -1728.02 0
-1728.02 -3164.47 0
0 0 0

-1490 6063.18 0
6063.18 3627.3 0
0 0 0

2651.75 -28.7232 0
-28.7232 1805 0
0 0 0

-1055.21 -769.019 0
-769.019 5014.46 0
0 0 0

340.862 2223.67 0
2223.67 -2418.07 0
0 0 0

TENSORS velocity_gradient double
0.949197 -2.61653 0
1.77607 0.583608 0
0 0 0

0.766981 -2.24987 0
0.545346 0.585689 0
0 0 0

1.29536 -2.7853 0
1.60323 0.416961 0
0 0 0

1.52442 -2.24972 0
1.87749 -0.163942 0
0 0 0

0.584611 -1.35405 0
-0.798929 0.124325 0
0 0 0

0.198127 -0.565496 0
-1.72315 -0.415177 0
0 0 0

1.60752 -1.80744 0
1.82726 -0.916686 0
0 0 0

0.807318 -1.23813 0
-0.392673 -2.06477 0
0 0 0

-0.208773 1.0749 0
-2.48392 -0.503328 0
0 0 0

-0.593928 3.20797 0
-2.75582 -0.689119 0
0 0 0

-0.17063 0.296951 0
-2.87279 -1.47675 0
0 0 0

-0.719029 2.78746 0
-2.84673 -0.636921 0
0 0 0

-0.815475 3.36489 0
-2.69839 0.840974 0
0 0 0

0.053804 3.49722 0
-1.17948 2.49479 0
0 0 0

-1.21811 3.3834 0
-2.34466 1.47507 0
0 0 0

-1.64791 4.13263 0
-2.36657 3.77541 0
0 0 0

1.29541 -2.52726 0
1.60327 0.679243 0
0 0 0

1.52749 -2.02287 0
1.88137 0.122627 0
0 0 0

1.09748 -2.59701 0
2.681 0.671081 0
0 0 0

1.0483 -1.89263 0
2.10076 0.134437 0
0 0 0

1.59652 -2.10509 0
1.7928 -2.15281 0
0 0 0

0.776508 -2.18417 0
-0.476309 -4.63297 0
0 0 0

0.954417 -2.30832 0
1.7585 -1.89943 0
0 0 0

0.206905 -3.16198 0
2.29711 -6.19191 0
0 0 0

-0.219524 0.128186 0
-2.9454 -2.28523 0
0 0 0

-0.745565 2.35102 0
-2.81612 -0.133479 0
0 0 0

-0.770845 -1.05585 0
2.94601 -3.4812 0
0 0 0

-1.56893 1.74414 0
2.38307 0.0284551 0
0 0 0

-1.22394 2.98538 0
-2.3419 1.79144 0
0 0 0

-1.69692 3.67919 0
-2.37907 3.65972 0
0 0 0

-2.36647 2.37194 0
1.62544 1.60305 0
0 0 0

-2.91527 3.21263 0
1.39877 3.53813 0
0 0 0

1.10898 -3.00715 0
2.77157 -0.322074 0
0 0 0

1.04962 -1.91397 0
2.12768 -0.299056 0
0 0 0

0.205548 -2.4934 0
2.21551 -0.906938 0
0 0 0

0.340186 -1.96961 0
2.50959 -0.499392 0
0 0 0

0.967008 -2.49776 0
1.75441 -1.68725 0
0 0 0

0.23013 -4.04375 0
2.27788 -5.46206 0
0 0 0

0.290385 -2.76616 0
2.96987 -1.70599 0
0 0 0

0.879875 -4.47282 0
4.58194 -4.37357 0
0 0 0

-0.707218 -2.64336 0
2.94763 -4.08933 0
0 0 0

-1.51762 0.933783 0
2.43448 -0.783378 0
0 0 0

1.52535 -3.02317 0
6.25373 -3.51752 0
0 0 0

1.19871 0.212494 0
5.68506 -1.67612 0
0 0 0

-2.37072 1.74326 0
1.62236 1.16916 0
0 0 0

-2.90056 2.71327 0
1.40272 3.40395 0
0 0 0

0.479382 0.721035 0
4.55627 0.0149699 0
0 0 0

-1.23048 1.58244 0
3.92242 3.08931 0
0 0 0

0.209337 -1.5938 0
2.21677 -0.724655 0
0 0 0

0.335634 -2.0835 0
2.52227 -0.182263 0
0 0 0

-0.730684 -0.751809 0
1.35254 0.0352565 0
0 0 0

0.0340962 -1.95588 0
1.85319 0.103684 0
0 0 0

0.296338 -2.66684 0
2.99118 -0.94831 0
0 0 0

0.883907 -3.72182 0
4.59222 -2.45797 0
0 0 0

0.68611 -2.18031 0
2.01148 -0.134778 0
0 0 0

0.664907 -3.26982 0
2.29569 -1.02823 0
0 0 0

1.52223 -2.93381 0
6.2399 -2.55533 0
0 0 0

1.21513 -0.362533 0
5.71743 -2.80897 0
0 0 0

0.495667 -2.52829 0
2.57317 -1.76407 0
0 0 0

0.631888 -0.665866 0
2.59692 -3.58693 0
0 0 0

0.524302 -0.298184 0
4.58661 -1.25152 0
0 0 0

-1.10764 -0.25959 0
3.957 2.57075 0
0 0 0

0.701263 -1.06354 0
2.47365 -2.0161 0
0 0 0

-0.846096 -2.34002 0
1.53668 1.67346 0
0 0 0

SCALARS active double 1
LOOKUP_TABLE default
1
1
1
1
1
1
1
1
1
1
1
1
1
1
1
1
1
1
1
1
1
1
1
1
1
1
1
1
1
1
1
1
1
1
1
1
1
1
1
1
1
1
1
1
1
1
1
1
1
1
1
1
1
1
1
1
1
1
1
1
1
1
1
1
SCALARS extent double 1
LOOKUP_TABLE default
0.0125
0.0125
0.0125
0.0125
0.0125
0.0125
0.0125
0.0125
0.0125
0.0125
0.0125
0.0125
0.0125
0.0125
0.0125
0.0125
0.0125
0.0125
0.0125
0.0125
0.0125
0.0125
0.0125
0.0125
0.0125
0.0125
0.0125
0.0125
0.0125
0.0125
0.0125
0.0125
0.0125
0.0125
0.0125
0.0125
0.0125
0.0125
0.0125
0.0125
0.0125
0.0125
0.0125
0.0125
0.0125
0.0125
0.0125
0.0125
0.0125
0.0125
0.0125
0.0125
0.0125
0.0125
0.0125
0.0125
0.0125
0.0125
0.0125
0.0125
0.0125
0.0125
0.0125
0.0125
SCALARS pressure double 1
LOOKUP_TABLE default
-1954.51
1703.78
720.575
-1219.15
855.977
-1472.73
5352.56
3634.36
2106.21
2931.03
2059.08
2424.94
-2437.66
352.717
-3698.52
5021.52
-3331.45
-3477.87
2125.37
319.058
4267.11
-2565.34
3018.57
-917.49
-4461.03
7066.47
-5099.06
-1572.1
-8012.11
1912.24
-3823.5
1247.46
-7009.77
275.116
-166.811
1117.63
-844.398
774.279
261
3891.57
-2621.6
3563.7
-5379.07
3611.52
-5852.87
4342.62
-6726.42
1232.24
-3698.12
617.379
1013.83
-2774.62
115.158
-965.733
496.22
-2184.87
3649.47
-840.444
2617.01
-49.1481
-1068.65
-2228.38
-1979.62
1038.61
SCALARS density double 1
LOOKUP_TABLE default
979.878
1017.88
1007.52
987.401
1008.94
984.8
1057.25
1038.52
1022.15
1030.95
1021.65
1025.54
974.967
1003.67
962.266
1053.61
965.946
964.476
1022.35
1003.32
1045.38
973.673
1031.89
990.503
954.665
1076.26
948.351
983.783
920.051
1020.09
961.016
1013.06
929.692
1002.87
998.267
1011.69
991.257
1008.09
1002.72
1041.3
973.104
1037.76
945.594
1038.27
940.946
1046.2
932.436
1012.9
962.27
1006.44
1010.6
971.556
1001.2
990.007
1005.17
977.534
1038.68
991.297
1027.59
999.489
988.948
977.091
979.622
1010.86
