# vtk DataFile Version 3.0
Frame: 60, Time: 0.984
ASCII
DATASET UNSTRUCTURED_GRID
POINTS 64 double
0.28474 0.179606 0 
0.263074 0.165832 0 
0.268801 0.19868 0 
0.247682 0.1848 0 
0.24371 0.149461 0 
0.220942 0.135817 0 
0.229589 0.171418 0 
0.208054 0.158115 0 
0.202154 0.121948 0 
0.18165 0.104645 0 
0.189686 0.144581 0 
0.171537 0.128302 0 
0.156929 0.0930413 0 
0.140128 0.0803171 0 
0.146596 0.115911 0 
0.126152 0.100516 0 
0.252011 0.217793 0 
0.232153 0.204207 0 
0.244063 0.240219 0 
0.221584 0.226512 0 
0.214082 0.192649 0 
0.193581 0.178892 0 
0.20074 0.215837 0 
0.180879 0.201027 0 
0.174927 0.162947 0 
0.157743 0.147733 0 
0.161096 0.183906 0 
0.140511 0.169735 0 
0.134666 0.137436 0 
0.11155 0.126261 0 
0.119376 0.158264 0 
0.098158 0.147678 0 
0.234364 0.262655 0 
0.212123 0.24781 0 
0.222476 0.284934 0 
0.201259 0.269549 0 
0.190117 0.237272 0 
0.16903 0.223815 0 
0.180103 0.259892 0 
0.157496 0.247691 0 
0.149375 0.208584 0 
0.130057 0.195412 0 
0.137091 0.231557 0 
0.117318 0.220036 0 
0.109186 0.180571 0 
0.0873894 0.168891 0 
0.0959978 0.204933 0 
0.0742025 0.19196 0 
0.210594 0.307397 0 
0.189701 0.292189 0 
0.196495 0.326914 0 
0.175276 0.314563 0 
0.167801 0.283969 0 
0.146381 0.269348 0 
0.152659 0.305254 0 
0.132894 0.28993 0 
0.125115 0.253478 0 
0.103955 0.24229 0 
0.111918 0.276445 0 
0.090556 0.264553 0 
0.0836995 0.227769 0 
0.0628898 0.215164 0 
0.0711216 0.249393 0 
0.0505663 0.236934 0 
CELLS 64 128
1 0
1 1
1 2
1 3
1 4
1 5
1 6
1 7
1 8
1 9
1 10
1 11
1 12
1 13
1 14
1 15
1 16
1 17
1 18
1 19
1 20
1 21
1 22
1 23
1 24
1 25
1 26
1 27
1 28
1 29
1 30
1 31
1 32
1 33
1 34
1 35
1 36
1 37
1 38
1 39
1 40
1 41
1 42
1 43
1 44
1 45
1 46
1 47
1 48
1 49
1 50
1 51
1 52
1 53
1 54
1 55
1 56
1 57
1 58
1 59
1 60
1 61
1 62
1 63
CELL_TYPES 64
1
1
1
1
1
1
1
1
1
1
1
1
1
1
1
1
1
1
1
1
1
1
1
1
1
1
1
1
1
1
1
1
1
1
1
1
1
1
1
1
1
1
1
1
1
1
1
1
1
1
1
1
1
1
1
1
1
1
1
1
1
1
1
1
POINT_DATA 64
VECTORS displacement double
-0.12776 -0.232894 0 
-0.149426 -0.271668 0 
-0.168699 -0.21382 0 
-0.189818 -0.2527 0 
-0.16879 -0.313039 0 
-0.191558 -0.351683 0 
-0.207911 -0.291082 0 
-0.229446 -0.329385 0 
-0.210346 -0.390552 0 
-0.23085 -0.432855 0 
-0.247814 -0.367919 0 
-0.265963 -0.409198 0 
-0.255571 -0.469459 0 
-0.272372 -0.507183 0 
-0.290904 -0.446589 0 
-0.311348 -0.486984 0 
-0.210489 -0.194707 0 
-0.230347 -0.233293 0 
-0.243437 -0.172281 0 
-0.265916 -0.210988 0 
-0.248418 -0.269851 0 
-0.268919 -0.308608 0 
-0.28676 -0.246663 0 
-0.306621 -0.286473 0 
-0.287573 -0.349553 0 
-0.304757 -0.389767 0 
-0.326404 -0.328594 0 
-0.346989 -0.367765 0 
-0.327834 -0.425064 0 
-0.35095 -0.461239 0 
-0.368124 -0.404236 0 
-0.389342 -0.439822 0 
-0.278136 -0.149845 0 
-0.300377 -0.18969 0 
-0.315024 -0.127566 0 
-0.336241 -0.167951 0 
-0.322383 -0.225228 0 
-0.34347 -0.263685 0 
-0.357397 -0.202608 0 
-0.380004 -0.239809 0 
-0.363125 -0.303916 0 
-0.382443 -0.342088 0 
-0.400409 -0.280943 0 
-0.420182 -0.317464 0 
-0.403314 -0.381929 0 
-0.425111 -0.418609 0 
-0.441502 -0.357567 0 
-0.463297 -0.39554 0 
-0.351906 -0.105103 0 
-0.372799 -0.145311 0 
-0.391005 -0.0855857 0 
-0.412224 -0.122937 0 
-0.394699 -0.178531 0 
-0.416119 -0.218152 0 
-0.434841 -0.157246 0 
-0.454606 -0.19757 0 
-0.437385 -0.259022 0 
-0.458545 -0.29521 0 
-0.475582 -0.236055 0 
-0.496944 -0.272947 0 
-0.4788 -0.334731 0 
-0.49961 -0.372336 0 
-0.516378 -0.313107 0 
-0.536934 -0.350566 0 
VECTORS velocity double
0.280931 1.57929 0 
0.148601 1.0916 0 
-0.763701 1.44538 0 
-0.467982 0.774503 0 
0.673707 1.13109 0 
0.148316 1.66071 0 
-0.109091 0.411665 0 
-0.716038 0.988215 0 
0.551807 1.05549 0 
-0.339625 0.838255 0 
0.53195 0.753734 0 
0.463464 0.872412 0 
0.170209 0.532952 0 
0.116785 0.686576 0 
0.730759 0.962204 0 
0.211017 0.772891 0 
-0.395933 0.952121 0 
-0.412895 0.675596 0 
-0.168308 1.29011 0 
-0.131023 0.664141 0 
-0.0591939 0.883637 0 
-0.569515 0.954716 0 
0.165033 1.01275 0 
-0.526951 0.90396 0 
-0.218106 0.478876 0 
-0.0235282 0.55497 0 
-0.820811 0.601405 0 
-0.851529 1.0173 0 
0.102131 0.227029 0 
-0.234409 0.556715 0 
-0.141915 0.756282 0 
0.00924781 0.42611 0 
-0.311946 1.2636 0 
-0.0818645 0.75228 0 
-0.546436 0.991007 0 
-0.680372 0.834752 0 
0.464773 1.23944 0 
0.548486 1.15658 0 
-0.609623 1.09878 0 
-0.520597 1.03076 0 
0.449859 0.769826 0 
0.202984 0.867919 0 
-0.328994 0.818894 0 
-0.408878 0.785072 0 
0.101689 0.130125 0 
0.0282899 0.572516 0 
-0.103774 0.751089 0 
-0.0388181 0.676704 0 
0.00749396 1.21127 0 
-0.44025 0.917203 0 
-0.0737628 0.880737 0 
0.00725159 1.15595 0 
-0.319896 0.765302 0 
-0.389683 0.711693 0 
-0.111733 0.910934 0 
-0.154749 0.962062 0 
-0.278382 0.508732 0 
-0.360778 0.406842 0 
-0.560153 0.585959 0 
-0.15943 0.881382 0 
0.217167 0.51873 0 
-0.00639843 0.303217 0 
-0.671678 0.318454 0 
-0.516856 0.145678 0 
SCALARS mass double 1
LOOKUP_TABLE default
0.625
0.625
0.625
0.625
0.625
0.625
0.625
0.625
0.625
0.625
0.625
0.625
0.625
0.625
0.625
0.625
0.625
0.625
0.625
0.625
0.625
0.625
0.625
0.625
0.625
0.625
0.625
0.625
0.625
0.625
0.625
0.625
0.625
0.625
0.625
0.625
0.625
0.625
0.625
0.625
0.625
0.625
0.625
0.625
0.625
0.625
0.625
0.625
0.625
0.625
0.625
0.625
0.625
0.625
0.625
0.625
0.625
0.625
0.625
0.625
0.625
0.625
0.625
0.625
SCALARS volume double 1
LOOKUP_TABLE default
0.000618793
0.000632759
0.000603927
0.000591597
0.000628914
0.000668414
0.000626202
0.000627233
0.000614052
0.00064524
0.000561823
0.000648467
0.000633007
0.000593467
0.00066692
0.000672077
0.000627968
0.000593317
0.000633904
0.000640898
0.000628203
0.000612521
0.000638005
0.000642215
0.000612837
0.000597675
0.000655139
0.000655759
0.000617576
0.000651854
0.000566389
0.000614726
0.000608207
0.000598963
0.000666715
0.000612608
0.000641646
0.000644636
0.000618401
0.000613903
0.00064988
0.000668414
0.000620681
0.000636169
0.00061665
0.00062903
0.000659901
0.000644975
0.000621542
0.000647592
0.000627577
0.000627508
0.000635367
0.000628984
0.000611889
0.000609184
0.000618046
0.000619999
0.000630482
0.000643928
0.000598596
0.00061237
0.000630353
0.000613903
VECTORS momentum double
0.175582 0.987055 0 
0.0928758 0.68225 0 
-0.477313 0.903364 0 
-0.292489 0.484064 0 
0.421067 0.706929 0 
0.0926976 1.03794 0 
-0.0681821 0.257291 0 
-0.447524 0.617634 0 
0.344879 0.659683 0 
-0.212266 0.523909 0 
0.332469 0.471084 0 
0.289665 0.545257 0 
0.106381 0.333095 0 
0.0729904 0.42911 0 
0.456724 0.601377 0 
0.131886 0.483057 0 
-0.247458 0.595076 0 
-0.258059 0.422248 0 
-0.105193 0.806322 0 
-0.0818892 0.415088 0 
-0.0369962 0.552273 0 
-0.355947 0.596698 0 
0.103145 0.632968 0 
-0.329344 0.564975 0 
-0.136316 0.299298 0 
-0.0147051 0.346856 0 
-0.513007 0.375878 0 
-0.532206 0.635811 0 
0.063832 0.141893 0 
-0.146506 0.347947 0 
-0.0886969 0.472676 0 
0.00577988 0.266319 0 
-0.194966 0.789753 0 
-0.0511653 0.470175 0 
-0.341522 0.61938 0 
-0.425232 0.52172 0 
0.290483 0.774651 0 
0.342804 0.722865 0 
-0.381014 0.68674 0 
-0.325373 0.644223 0 
0.281162 0.481141 0 
0.126865 0.54245 0 
-0.205621 0.511809 0 
-0.255549 0.49067 0 
0.0635556 0.081328 0 
0.0176812 0.357823 0 
-0.0648584 0.469431 0 
-0.0242613 0.42294 0 
0.00468373 0.757043 0 
-0.275157 0.573252 0 
-0.0461017 0.550461 0 
0.00453225 0.722466 0 
-0.199935 0.478314 0 
-0.243552 0.444808 0 
-0.0698328 0.569334 0 
-0.0967184 0.601289 0 
-0.173989 0.317957 0 
-0.225486 0.254276 0 
-0.350095 0.366224 0 
-0.0996437 0.550864 0 
0.135729 0.324206 0 
-0.00399902 0.189511 0 
-0.419799 0.199033 0 
-0.323035 0.0910489 0 
VECTORS body_force double
0 -9.81 0 
0 -9.81 0 
0 -9.81 0 
0 -9.81 0 
0 -9.81 0 
0 -9.81 0 
0 -9.81 0 
0 -9.81 0 
0 -9.81 0 
0 -9.81 0 
0 -9.81 0 
0 -9.81 0 
0 -9.81 0 
0 -9.81 0 
0 -9.81 0 
0 -9.81 0 
0 -9.81 0 
0 -9.81 0 
0 -9.81 0 
0 -9.81 0 
0 -9.81 0 
0 -9.81 0 
0 -9.81 0 
0 -9.81 0 
0 -9.81 0 
0 -9.81 0 
0 -9.81 0 
0 -9.81 0 
0 -9.81 0 
0 -9.81 0 
0 -9.81 0 
0 -9.81 0 
0 -9.81 0 
0 -9.81 0 
0 -9.81 0 
0 -9.81 0 
0 -9.81 0 
0 -9.81 0 
0 -9.81 0 
0 -9.81 0 
0 -9.81 0 
0 -9.81 0 
0 -9.81 0 
0 -9.81 0 
0 -9.81 0 
0 -9.81 0 
0 -9.81 0 
0 -9.81 0 
0 -9.81 0 
0 -9.81 0 
0 -9.81 0 
0 -9.81 0 
0 -9.81 0 
0 -9.81 0 
0 -9.81 0 
0 -9.81 0 
0 -9.81 0 
0 -9.81 0 
0 -9.81 0 
0 -9.81 0 
0 -9.81 0 
0 -9.81 0 
0 -9.81 0 
0 -9.81 0 
TENSORS cauchy_stress double
118.497 -1274.11 0
-1274.11 -2037.75 0
0 0 0

91.4585 -52.0855 0
-52.0855 2281.35 0
0 0 0

928.829 -4177.93 0
-4177.93 -7524.8 0
0 0 0

-8699.9 -512.684 0
-512.684 -1862.75 0
0 0 0

2134.93 -1889.01 0
-1889.01 -934.289 0
0 0 0

7331.24 4465.52 0
4465.52 5583.33 0
0 0 0

-5924.82 -2434.11 0
-2434.11 6294.39 0
0 0 0

399.713 -2737.1 0
-2737.1 286.02 0
0 0 0

-4485.93 133.781 0
133.781 1087.34 0
0 0 0

5956.16 7437.21 0
7437.21 172.724 0
0 0 0

-17341.2 -2012.97 0
-2012.97 -3152.13 0
0 0 0

2527.01 1276 0
1276 4561.34 0
0 0 0

1050.19 -2679.8 0
-2679.8 1397.87 0
0 0 0

-2270.88 -5217.03 0
-5217.03 -7685.03 0
0 0 0

2679.66 4709.58 0
4709.58 9804.6 0
0 0 0

2564.84 7287.37 0
7287.37 11400.7 0
0 0 0

547.735 -3448.29 0
-3448.29 363.253 0
0 0 0

-3246.03 -4470.95 0
-4470.95 -6758.21 0
0 0 0

2191.67 674.677 0
674.677 528.693 0
0 0 0

3572.52 2922.26 0
2922.26 1258.06 0
0 0 0

-18.6017 -5126.26 0
-5126.26 1001.73 0
0 0 0

-1274.19 -4417.65 0
-4417.65 -2604.43 0
0 0 0

-2252.87 401.076 0
401.076 6213.28 0
0 0 0

-3662.33 1487.82 0
1487.82 8887.49 0
0 0 0

3727.57 -2685.92 0
-2685.92 -7506.85 0
0 0 0

3961.29 -10101.2 0
-10101.2 -12558.5 0
0 0 0

-4207.96 1635.45 0
1635.45 13264.9 0
0 0 0

1769.17 -1883.33 0
-1883.33 7469.74 0
0 0 0

2702.59 -2635.47 0
-2635.47 -5000.47 0
0 0 0

6925.11 -5468.98 0
-5468.98 1165.12 0
0 0 0

-10639.3 -1611.96 0
-1611.96 -8297.4 0
0 0 0

1443.91 -2261.54 0
-2261.54 -4631.31 0
0 0 0

-2464.21 -681.293 0
-681.293 -2773.5 0
0 0 0

-2376.77 2742.35 0
2742.35 -5806.15 0
0 0 0

4132.84 -1278.91 0
-1278.91 8292.42 0
0 0 0

-2826.61 -1654.94 0
-1654.94 -1024.47 0
0 0 0

2932.4 882.929 0
882.929 2122.31 0
0 0 0

3284.44 -3262.69 0
-3262.69 2664.48 0
0 0 0

-2757.48 2057.28 0
2057.28 716.276 0
0 0 0

-7267.74 6602.89 0
6602.89 3822.66 0
0 0 0

3419.9 -1944.15 0
-1944.15 4087.17 0
0 0 0

2628.55 -2523.87 0
-2523.87 10286.1 0
0 0 0

-5516.13 1915.52 0
1915.52 4182.46 0
0 0 0

-4246.02 -74.1988 0
-74.1988 7652.38 0
0 0 0

-3928.45 809.597 0
809.597 1341.95 0
0 0 0

-987.699 475.881 0
475.881 2223.84 0
0 0 0

2526.85 1563.23 0
1563.23 7922.84 0
0 0 0

1200.59 -2989.46 0
-2989.46 4849.3 0
0 0 0

-3818.41 -121.852 0
-121.852 2751.48 0
0 0 0

2740.66 -2615.35 0
-2615.35 4088.04 0
0 0 0

-345.089 1046.14 0
1046.14 1136.26 0
0 0 0

674.886 -1149.96 0
-1149.96 95.1938 0
0 0 0

262.95 -621.058 0
-621.058 2900.58 0
0 0 0

-346.288 753.666 0
753.666 1568.19 0
0 0 0

-2761.57 1131.16 0
1131.16 -1315.59 0
0 0 0

-2645.72 389.941 0
389.941 -2283.34 0
0 0 0

40.5468 -842.214 0
-842.214 -2192.23 0
0 0 0

-1276.21 -152.683 0
-152.683 -268.618 0
0 0 0

-891.197 -753.505 0
-753.505 2570.7 0
0 0 0

1283.33 -59.3735 0
-59.3735 4454.18 0
0 0 0

-3960.8 -1475.4 0
-1475.4 -4340.22 0
0 0 0

-4726.65 -3191.56 0
-3191.56 800.804 0
0 0 0

-1032.22 -4208.51 0
-4208.51 2672.3 0
0 0 0

-4206.73 4240.36 0
4240.36 761.514 0
0 0 0

TENSORS velocity_gradient double
0.539777 -8.12798 0
8.13714 1.11187 0
0 0 0

0.772557 -7.75581 0
6.82732 -0.982275 0
0 0 0

0.107439 -5.82689 0
9.82155 0.734065 0
0 0 0

-0.334732 -7.09417 0
4.05246 -1.93561 0
0 0 0

2.98099 -6.65744 0
3.23015 -5.32927 0
0 0 0

3.69261 -5.65557 0
5.02298 -3.76155 0
0 0 0

0.787561 -5.24661 0
2.16077 -1.71639 0
0 0 0

2.27873 -2.82475 0
2.50267 -1.16111 0
0 0 0

2.78763 -5.11509 0
6.32478 -1.23257 0
0 0 0

-0.985083 -4.13778 0
4.49139 -0.383531 0
0 0 0

1.26941 -5.43776 0
5.07636 -0.725962 0
0 0 0

0.30224 -6.52603 0
4.81822 -1.01642 0
0 0 0

-0.994948 4.27243 0
4.57669 2.17928 0
0 0 0

0.729055 3.29695 0
0.321105 1.83315 0
0 0 0

1.28742 -7.22754 0
2.48446 -1.50378 0
0 0 0

2.60093 -1.82531 0
1.31017 -0.488147 0
0 0 0

-1.36511 -0.143988 0
7.66424 3.16916 0
0 0 0

-2.23365 -1.52544 0
1.55486 1.66543 0
0 0 0

-1.50799 0.0329237 0
2.73731 3.03258 0
0 0 0

-1.82837 -0.558848 0
2.02656 2.48422 0
0 0 0

-1.60475 -3.51407 0
1.61226 -1.31915 0
0 0 0

0.227019 -1.59511 0
2.84284 -0.426695 0
0 0 0

-1.29008 -1.1875 0
1.63731 1.95627 0
0 0 0

-0.578891 -1.52309 0
1.36231 1.01183 0
0 0 0

1.03028 -0.650873 0
4.16502 1.12755 0
0 0 0

1.28661 -5.36155 0
4.96674 -0.240553 0
0 0 0

-0.0307553 0.0483254 0
2.41853 2.27844 0
0 0 0

-1.51229 0.477502 0
3.33562 3.08426 0
0 0 0

-0.442765 -6.24327 0
2.62604 -1.88039 0
0 0 0

0.696853 -3.87395 0
2.24635 -2.66979 0
0 0 0

-1.67968 0.165852 0
3.18053 2.79552 0
0 0 0

-0.181455 -1.95046 0
0.606354 0.099616 0
0 0 0

-0.945229 -0.811536 0
2.56864 0.603296 0
0 0 0

-1.25703 -0.916447 0
2.50321 1.8746 0
0 0 0

-0.541833 -1.02642 0
2.45717 0.662675 0
0 0 0

-0.335164 -1.23493 0
2.528 0.758071 0
0 0 0

0.842571 -1.61963 0
2.11319 1.65583 0
0 0 0

0.20568 -2.62282 0
1.70727 1.01646 0
0 0 0

0.989918 -0.338538 0
2.52279 0.785001 0
0 0 0

1.18137 -2.15866 0
2.38337 0.700196 0
0 0 0

-0.686949 -3.49625 0
2.69909 0.443472 0
0 0 0

-1.12822 -0.0074887 0
3.68983 2.71986 0
0 0 0

-0.170522 -3.90148 0
4.47139 0.140112 0
0 0 0

-0.499685 -4.47219 0
4.20631 -0.319485 0
0 0 0

-1.35161 0.0155578 0
3.48449 2.65627 0
0 0 0

0.3675 -0.326461 0
-0.640967 0.432612 0
0 0 0

0.663538 -4.33613 0
4.47504 -0.432103 0
0 0 0

0.746154 -0.542326 0
3.21724 -1.7669 0
0 0 0

0.526621 5.63753 0
1.67654 -2.74303 0
0 0 0

-0.813541 -0.876361 0
2.50867 0.780791 0
0 0 0

0.267633 4.35185 0
-0.964819 -1.04394 0
0 0 0

-0.89964 3.58683 0
0.608409 1.868 0
0 0 0

-0.357281 0.349277 0
2.51224 0.790384 0
0 0 0

1.1767 1.01512 0
3.83779 0.974648 0
0 0 0

0.328762 2.36604 0
1.90594 4.40956 0
0 0 0

2.5191 0.43885 0
3.47566 1.41861 0
0 0 0

0.578071 -1.17815 0
4.71054 1.18926 0
0 0 0

0.463405 -4.85448 0
4.87419 -0.627657 0
0 0 0

1.78813 -0.704429 0
3.96879 2.18989 0
0 0 0

-0.417435 0.438669 0
6.61308 2.14053 0
0 0 0

1.68732 -5.44801 0
5.30154 -1.11031 0
0 0 0

1.31947 -6.06086 0
5.00142 -1.61032 0
0 0 0

1.73258 -1.60552 0
5.90243 -0.373588 0
0 0 0

-1.73275 -5.99359 0
5.9837 -1.73474 0
0 0 0

SCALARS active double 1
LOOKUP_TABLE default
1
1
1
1
1
1
1
1
1
1
1
1
1
1
1
1
1
1
1
1
1
1
1
1
1
1
1
1
1
1
1
1
1
1
1
1
1
1
1
1
1
1
1
1
1
1
1
1
1
1
1
1
1
1
1
1
1
1
1
1
1
1
1
1
SCALARS extent double 1
LOOKUP_TABLE default
0.0125
0.0125
0.0125
0.0125
0.0125
0.0125
0.0125
0.0125
0.0125
0.0125
0.0125
0.0125
0.0125
0.0125
0.0125
0.0125
0.0125
0.0125
0.0125
0.0125
0.0125
0.0125
0.0125
0.0125
0.0125
0.0125
0.0125
0.0125
0.0125
0.0125
0.0125
0.0125
0.0125
0.0125
0.0125
0.0125
0.0125
0.0125
0.0125
0.0125
0.0125
0.0125
0.0125
0.0125
0.0125
0.0125
0.0125
0.0125
0.0125
0.0125
0.0125
0.0125
0.0125
0.0125
0.0125
0.0125
0.0125
0.0125
0.0125
0.0125
0.0125
0.0125
0.0125
0.0125
SCALARS pressure double 1
LOOKUP_TABLE default
959.625
-1186.4
3297.98
5281.32
-600.322
-6457.29
-184.784
-342.866
1699.29
-3064.44
10246.7
-3544.17
-1224.03
4977.96
-6242.13
-6982.75
-455.494
5002.12
-1360.18
-2415.29
-491.563
1939.31
-1980.2
-2612.58
1889.64
4298.58
-4528.46
-4619.46
1148.94
-4045.12
9468.35
1593.7
2618.86
4091.46
-6212.63
1925.54
-2527.36
-2974.46
1020.6
1722.54
-3753.54
-6457.32
666.838
-1703.18
1293.25
-618.07
-5224.84
-3024.94
533.467
-3414.35
-395.585
-385.04
-1581.77
-610.952
2038.58
2464.53
1075.84
772.415
-839.751
-2868.75
4150.51
1962.93
-820.042
1722.61
SCALARS density double 1
LOOKUP_TABLE default
1010.03
987.737
1034.89
1056.46
993.776
935.05
998.08
996.441
1017.83
968.632
1112.45
963.812
987.351
1053.13
937.144
929.954
995.274
1053.4
985.954
975.194
994.901
1020.37
979.616
973.195
1019.85
1045.72
953.996
953.093
1012.02
958.803
1103.48
1016.71
1027.61
1043.47
937.432
1020.23
974.058
969.539
1010.67
1018.08
961.715
935.049
1006.96
982.443
1013.54
993.593
947.112
969.03
1005.56
965.114
995.894
996.004
983.684
993.666
1021.43
1025.96
1011.25
1008.07
991.305
970.606
1044.11
1020.62
991.508
1018.08
