# vtk DataFile Version 3.0
Frame: 21, Time: 0.367
ASCII
DATASET UNSTRUCTURED_GRID
POINTS 64 double
0.535398 0.267335 0 
0.555977 0.283479 0 
0.550708 0.247916 0 
0.572121 0.265015 0 
0.576626 0.300701 0 
0.59813 0.31752 0 
0.592936 0.282376 0 
0.614018 0.299454 0 
0.620113 0.333977 0 
0.642306 0.349409 0 
0.635812 0.314434 0 
0.657197 0.329357 0 
0.66364 0.363769 0 
0.68358 0.378804 0 
0.678521 0.343933 0 
0.699193 0.358232 0 
0.567434 0.228954 0 
0.586618 0.246462 0 
0.585398 0.21077 0 
0.603258 0.228738 0 
0.606681 0.262491 0 
0.627215 0.278511 0 
0.62387 0.243615 0 
0.644733 0.259735 0 
0.649822 0.293496 0 
0.670958 0.307861 0 
0.666328 0.275114 0 
0.688023 0.289429 0 
0.693232 0.323226 0 
0.714167 0.337435 0 
0.709782 0.303873 0 
0.731137 0.318942 0 
0.604295 0.195417 0 
0.622364 0.211298 0 
0.621495 0.177108 0 
0.640846 0.192925 0 
0.642571 0.226706 0 
0.66354 0.242535 0 
0.661073 0.208572 0 
0.679849 0.223307 0 
0.685182 0.257729 0 
0.706428 0.271932 0 
0.701502 0.23771 0 
0.724304 0.251828 0 
0.727497 0.285264 0 
0.748742 0.299296 0 
0.744404 0.264768 0 
0.765327 0.2782 0 
0.638501 0.158557 0 
0.657878 0.174026 0 
0.653442 0.138277 0 
0.672982 0.152936 0 
0.677571 0.188204 0 
0.696605 0.203838 0 
0.693331 0.167994 0 
0.713131 0.183488 0 
0.717406 0.218317 0 
0.739549 0.230362 0 
0.730874 0.196992 0 
0.752481 0.207948 0 
0.760762 0.242927 0 
0.780391 0.257216 0 
0.775301 0.220852 0 
0.795826 0.236128 0 
CELLS 64 128
1 0
1 1
1 2
1 3
1 4
1 5
1 6
1 7
1 8
1 9
1 10
1 11
1 12
1 13
1 14
1 15
1 16
1 17
1 18
1 19
1 20
1 21
1 22
1 23
1 24
1 25
1 26
1 27
1 28
1 29
1 30
1 31
1 32
1 33
1 34
1 35
1 36
1 37
1 38
1 39
1 40
1 41
1 42
1 43
1 44
1 45
1 46
1 47
1 48
1 49
1 50
1 51
1 52
1 53
1 54
1 55
1 56
1 57
1 58
1 59
1 60
1 61
1 62
1 63
CELL_TYPES 64
1
1
1
1
1
1
1
1
1
1
1
1
1
1
1
1
1
1
1
1
1
1
1
1
1
1
1
1
1
1
1
1
1
1
1
1
1
1
1
1
1
1
1
1
1
1
1
1
1
1
1
1
1
1
1
1
1
1
1
1
1
1
1
1
POINT_DATA 64
VECTORS displacement double
0.0228981 -0.345165 0 
0.0434775 -0.354021 0 
0.0132081 -0.364584 0 
0.0346211 -0.372485 0 
0.0641259 -0.361799 0 
0.0856301 -0.36998 0 
0.0554359 -0.380124 0 
0.0765184 -0.388046 0 
0.107613 -0.378523 0 
0.129806 -0.388091 0 
0.0983121 -0.398066 0 
0.119697 -0.408143 0 
0.15114 -0.398731 0 
0.17108 -0.408696 0 
0.141021 -0.418567 0 
0.161693 -0.429268 0 
0.00493428 -0.383546 0 
0.0241183 -0.391038 0 
-0.00210235 -0.40173 0 
0.0157583 -0.408762 0 
0.0441809 -0.400009 0 
0.0647153 -0.408989 0 
0.0363705 -0.418885 0 
0.0572328 -0.427765 0 
0.0873223 -0.419004 0 
0.108458 -0.429639 0 
0.078828 -0.437386 0 
0.100523 -0.448071 0 
0.130732 -0.439274 0 
0.151667 -0.450065 0 
0.122282 -0.458627 0 
0.143637 -0.468558 0 
-0.00820454 -0.417083 0 
0.00986432 -0.426202 0 
-0.0160046 -0.435392 0 
0.00334592 -0.444575 0 
0.0300711 -0.435794 0 
0.05104 -0.444965 0 
0.0235733 -0.453928 0 
0.0423494 -0.464193 0 
0.0726819 -0.454771 0 
0.0939283 -0.465568 0 
0.0640024 -0.47479 0 
0.0868039 -0.485672 0 
0.114997 -0.477236 0 
0.136242 -0.488204 0 
0.106904 -0.497732 0 
0.127827 -0.5093 0 
-0.0239986 -0.453943 0 
-0.00462166 -0.463474 0 
-0.0340577 -0.474223 0 
-0.0145183 -0.484564 0 
0.0150709 -0.474296 0 
0.034105 -0.483662 0 
0.00583075 -0.494506 0 
0.0256309 -0.504012 0 
0.0549058 -0.494183 0 
0.0770487 -0.507138 0 
0.0433741 -0.515508 0 
0.0649814 -0.529552 0 
0.0982623 -0.519573 0 
0.117891 -0.530284 0 
0.0878009 -0.541648 0 
0.108326 -0.551372 0 
VECTORS velocity double
1.77186 3.9567 0 
2.30618 3.27329 0 
0.803886 2.2829 0 
1.25133 2.21345 0 
2.39128 2.78341 0 
3.0061 2.8227 0 
1.32238 2.34416 0 
1.25247 1.98451 0 
3.6427 2.56254 0 
3.78169 1.89701 0 
1.57829 1.11722 0 
2.02444 0.295151 0 
3.61715 1.46304 0 
4.31312 0.128484 0 
2.17708 -0.0818349 0 
3.05379 -0.919091 0 
1.24362 2.57971 0 
1.2888 2.42523 0 
1.04164 3.02147 0 
1.1404 2.74001 0 
1.23021 2.72719 0 
1.4222 2.06707 0 
0.849683 2.34594 0 
1.43278 1.77934 0 
1.83207 0.983494 0 
2.14092 0.275645 0 
2.08654 0.78683 0 
2.25668 0.114619 0 
2.10405 0.00558688 0 
2.75055 -0.742892 0 
2.12068 0.13483 0 
2.63735 -0.809752 0 
0.55475 2.55151 0 
1.13993 2.38989 0 
-0.00962989 2.15439 0 
0.757708 1.92085 0 
1.02456 1.67642 0 
1.19763 1.35986 0 
0.875094 1.19066 0 
0.918382 1.15572 0 
2.00243 0.545558 0 
2.19882 -0.179316 0 
1.45953 0.355743 0 
2.09958 -0.423214 0 
1.85495 -0.311715 0 
2.26409 -1.40819 0 
2.00346 -0.560936 0 
2.47435 -1.71049 0 
-0.0177722 2.01058 0 
0.317109 1.31354 0 
-1.05514 1.73738 0 
-0.582297 0.821807 0 
0.547842 1.10143 0 
0.871995 1.38183 0 
-0.338553 0.536392 0 
-0.155176 0.0254585 0 
1.39048 0.851835 0 
1.6741 -0.0801432 0 
-0.0450466 -0.779318 0 
0.12391 -1.60887 0 
1.87585 -0.588743 0 
2.65731 -2.10078 0 
0.236096 -1.75139 0 
1.61636 -3.04504 0 
SCALARS mass double 1
LOOKUP_TABLE default
0.625
0.625
0.625
0.625
0.625
0.625
0.625
0.625
0.625
0.625
0.625
0.625
0.625
0.625
0.625
0.625
0.625
0.625
0.625
0.625
0.625
0.625
0.625
0.625
0.625
0.625
0.625
0.625
0.625
0.625
0.625
0.625
0.625
0.625
0.625
0.625
0.625
0.625
0.625
0.625
0.625
0.625
0.625
0.625
0.625
0.625
0.625
0.625
0.625
0.625
0.625
0.625
0.625
0.625
0.625
0.625
0.625
0.625
0.625
0.625
0.625
0.625
0.625
0.625
SCALARS volume double 1
LOOKUP_TABLE default
0.000640356
0.000669509
0.00062028
0.000660247
0.000682474
0.000661768
0.000622202
0.000640662
0.000662929
0.000636121
0.000662203
0.000655326
0.000618054
0.000623087
0.00062396
0.000644423
0.000671882
0.00062663
0.000648564
0.000616078
0.000618802
0.000684824
0.000648204
0.000673563
0.000628767
0.000653533
0.000672381
0.000629038
0.000665283
0.00059729
0.000677671
0.000621435
0.000572657
0.000647313
0.000623179
0.000667757
0.000634263
0.000650372
0.000637678
0.000638654
0.000649698
0.00061939
0.000698279
0.000667998
0.000632504
0.000678135
0.000636084
0.000651799
0.000618891
0.000619921
0.000625072
0.000595989
0.00062241
0.000628845
0.00065292
0.000608693
0.000608398
0.000632213
0.000578925
0.000638677
0.00064162
0.000636161
0.00064774
0.000629968
VECTORS momentum double
1.10741 2.47294 0 
1.44136 2.04581 0 
0.502429 1.42681 0 
0.782081 1.38341 0 
1.49455 1.73963 0 
1.87881 1.76419 0 
0.826491 1.4651 0 
0.782797 1.24032 0 
2.27669 1.60159 0 
2.36356 1.18563 0 
0.98643 0.698264 0 
1.26528 0.18447 0 
2.26072 0.914403 0 
2.6957 0.0803025 0 
1.36067 -0.0511468 0 
1.90862 -0.574432 0 
0.777262 1.61232 0 
0.805498 1.51577 0 
0.651022 1.88842 0 
0.712751 1.71251 0 
0.76888 1.7045 0 
0.888876 1.29192 0 
0.531052 1.46621 0 
0.895485 1.11208 0 
1.14504 0.614684 0 
1.33807 0.172278 0 
1.30409 0.491769 0 
1.41043 0.0716371 0 
1.31503 0.0034918 0 
1.71909 -0.464308 0 
1.32543 0.0842685 0 
1.64835 -0.506095 0 
0.346718 1.59469 0 
0.712455 1.49368 0 
-0.00601868 1.34649 0 
0.473567 1.20053 0 
0.640349 1.04777 0 
0.748518 0.849912 0 
0.546934 0.744164 0 
0.573989 0.722326 0 
1.25152 0.340974 0 
1.37426 -0.112072 0 
0.912206 0.222339 0 
1.31224 -0.264509 0 
1.15934 -0.194822 0 
1.41506 -0.880121 0 
1.25216 -0.350585 0 
1.54647 -1.06906 0 
-0.0111076 1.25661 0 
0.198193 0.820964 0 
-0.659462 1.08586 0 
-0.363935 0.51363 0 
0.342401 0.688394 0 
0.544997 0.863644 0 
-0.211595 0.335245 0 
-0.0969849 0.0159116 0 
0.869052 0.532397 0 
1.04631 -0.0500895 0 
-0.0281541 -0.487074 0 
0.077444 -1.00555 0 
1.17241 -0.367964 0 
1.66082 -1.31299 0 
0.14756 -1.09462 0 
1.01022 -1.90315 0 
VECTORS body_force double
0 -9.81 0 
0 -9.81 0 
0 -9.81 0 
0 -9.81 0 
0 -9.81 0 
0 -9.81 0 
0 -9.81 0 
0 -9.81 0 
0 -9.81 0 
0 -9.81 0 
0 -9.81 0 
0 -9.81 0 
0 -9.81 0 
0 -9.81 0 
0 -9.81 0 
0 -9.81 0 
0 -9.81 0 
0 -9.81 0 
0 -9.81 0 
0 -9.81 0 
0 -9.81 0 
0 -9.81 0 
0 -9.81 0 
0 -9.81 0 
0 -9.81 0 
0 -9.81 0 
0 -9.81 0 
0 -9.81 0 
0 -9.81 0 
0 -9.81 0 
0 -9.81 0 
0 -9.81 0 
0 -9.81 0 
0 -9.81 0 
0 -9.81 0 
0 -9.81 0 
0 -9.81 0 
0 -9.81 0 
0 -9.81 0 
0 -9.81 0 
0 -9.81 0 
0 -9.81 0 
0 -9.81 0 
0 -9.81 0 
0 -9.81 0 
0 -9.81 0 
0 -9.81 0 
0 -9.81 0 
0 -9.81 0 
0 -9.81 0 
0 -9.81 0 
0 -9.81 0 
0 -9.81 0 
0 -9.81 0 
0 -9.81 0 
0 -9.81 0 
0 -9.81 0 
0 -9.81 0 
0 -9.81 0 
0 -9.81 0 
0 -9.81 0 
0 -9.81 0 
0 -9.81 0 
0 -9.81 0 
TENSORS cauchy_stress double
493.148 1855.17 0
1855.17 4174.79 0
0 0 0

6976.92 3482.83 0
3482.83 6252.56 0
0 0 0

-2110.16 1986.89 0
1986.89 652.2 0
0 0 0

11833.7 6581.67 0
6581.67 -1283.22 0
0 0 0

11115.1 1624.58 0
1624.58 5802.75 0
0 0 0

9957.19 4448.07 0
4448.07 1035.73 0
0 0 0

-2085.14 5435.86 0
5435.86 1222.39 0
0 0 0

5004.56 3716.83 0
3716.83 -244.986 0
0 0 0

9800.16 3790.73 0
3790.73 1529.84 0
0 0 0

4923.11 1814.72 0
1814.72 -1531.26 0
0 0 0

6789.67 551.085 0
551.085 4329.65 0
0 0 0

5018.91 1077.18 0
1077.18 4092.82 0
0 0 0

2204.33 -57.8944 0
-57.8944 -4353.57 0
0 0 0

-1705.18 -449.644 0
-449.644 1115.67 0
0 0 0

1337.59 -109.451 0
-109.451 -1657.98 0
0 0 0

-673.483 -351.036 0
-351.036 6558.7 0
0 0 0

3048.61 -1314.51 0
-1314.51 10861.1 0
0 0 0

-119.76 3753.21 0
3753.21 620.709 0
0 0 0

4357.84 548.664 0
548.664 2759.25 0
0 0 0

2474.16 -524.812 0
-524.812 -5239.16 0
0 0 0

-4493.04 -53.7472 0
-53.7472 2576.46 0
0 0 0

9828.87 2194.26 0
2194.26 7750 0
0 0 0

13531.6 1216.67 0
1216.67 -6521.15 0
0 0 0

15088.2 -617.458 0
-617.458 -697.801 0
0 0 0

3320.69 1785.69 0
1785.69 -2165.22 0
0 0 0

4872.06 1480.45 0
1480.45 3712.78 0
0 0 0

16579.8 -247.567 0
-247.567 -2527.3 0
0 0 0

9992.97 -1662.35 0
-1662.35 -8754.48 0
0 0 0

8245.93 1383.38 0
1383.38 3765.74 0
0 0 0

-1358.17 -1215.3 0
-1215.3 -7362.76 0
0 0 0

13714.4 808.2 0
808.2 1845.39 0
0 0 0

4385.16 -1660.47 0
-1660.47 -5485.21 0
0 0 0

-6691.89 -328.734 0
-328.734 -10128.2 0
0 0 0

8458.87 -1510.41 0
-1510.41 -1713.01 0
0 0 0

-579.674 -873.511 0
-873.511 18.5528 0
0 0 0

9996.81 0.810517 0
0.810517 2728.63 0
0 0 0

8641.52 6.38196 0
6.38196 -5812.17 0
0 0 0

9807.62 1855.3 0
1855.3 -2155.02 0
0 0 0

2706.13 -3731.19 0
-3731.19 1155.77 0
0 0 0

-397.151 -3514.61 0
-3514.61 4553.23 0
0 0 0

10778.4 -316.168 0
-316.168 -3325.24 0
0 0 0

6818.57 -2549.01 0
-2549.01 -8552.38 0
0 0 0

15214.8 1243.97 0
1243.97 6105.66 0
0 0 0

9009.46 -4658.84 0
-4658.84 3785.32 0
0 0 0

7245.39 -2790.7 0
-2790.7 -4950.16 0
0 0 0

9492.68 -4368.21 0
-4368.21 6198.57 0
0 0 0

3075.33 -5460.34 0
-5460.34 305.114 0
0 0 0

6118.55 -587.142 0
-587.142 1955.4 0
0 0 0

-2125.58 -498.555 0
-498.555 236.669 0
0 0 0

-2070.73 -3611.23 0
-3611.23 501.531 0
0 0 0

-1662.85 -460.623 0
-460.623 1685.09 0
0 0 0

-3051.65 -2316.25 0
-2316.25 -6088.56 0
0 0 0

5.56667 -2556.45 0
-2556.45 -804.111 0
0 0 0

1466.57 -722.491 0
-722.491 -287.263 0
0 0 0

5919.68 2003.61 0
2003.61 2484.77 0
0 0 0

-4106.89 -4820.15 0
-4820.15 -977.131 0
0 0 0

2031.95 -873.381 0
-873.381 -7209.29 0
0 0 0

2054.31 -1518.31 0
-1518.31 152.454 0
0 0 0

-6047.58 -6094.61 0
-6094.61 -8679.01 0
0 0 0

5868.93 -2576.37 0
-2576.37 -1706.14 0
0 0 0

-502.082 -4192.99 0
-4192.99 5549.18 0
0 0 0

-273.851 -2143 0
-2143 3677.72 0
0 0 0

7301.08 135.885 0
135.885 -428.569 0
0 0 0

1042.15 -1546.58 0
-1546.58 480.363 0
0 0 0

TENSORS velocity_gradient double
1.20057 12.0222 0
-18.8142 3.05764 0
0 0 0

-2.64081 15.0967 0
-12.06 4.29116 0
0 0 0

-1.58037 6.68539 0
-12.62 -0.150037 0
0 0 0

-3.13992 14.4702 0
-8.02717 1.79386 0
0 0 0

-5.12263 19.1838 0
-13.5053 0.222758 0
0 0 0

-5.2075 27.4069 0
-14.8552 1.06796 0
0 0 0

-4.12029 13.3174 0
-11.0404 -1.74937 0
0 0 0

0.955183 16.4118 0
-25.3599 -3.27979 0
0 0 0

-3.43471 24.8166 0
-27.7438 0.820544 0
0 0 0

-5.17066 20.454 0
-28.515 -0.315355 0
0 0 0

-0.727673 22.5222 0
-26.6709 -0.0888578 0
0 0 0

-0.284514 19.2066 0
-23.5802 -1.46154 0
0 0 0

-2.87711 20.3366 0
-24.1634 0.523685 0
0 0 0

-1.26742 22.3794 0
-23.2289 1.70961 0
0 0 0

-2.94922 14.9986 0
-24.374 -3.34716 0
0 0 0

-3.43228 23.5892 0
-21.9767 2.11359 0
0 0 0

-3.92437 5.77203 0
-6.08969 -2.31759 0
0 0 0

-2.83695 7.04718 0
-5.96643 -2.14977 0
0 0 0

-5.04935 6.89989 0
-6.231 -2.17592 0
0 0 0

-1.59618 8.22808 0
-14.6364 -1.96347 0
0 0 0

1.62983 12.7255 0
-18.8078 -4.06258 0
0 0 0

1.64669 12.2485 0
-22.3199 -7.22536 0
0 0 0

1.28257 10.4759 0
-18.3793 -1.4816 0
0 0 0

2.06828 11.8464 0
-19.4335 -9.9784 0
0 0 0

2.8737 11.7452 0
-23.6333 -10.103 0
0 0 0

4.38088 16.408 0
-21.0788 -2.71358 0
0 0 0

6.37561 11.3959 0
-23.8013 -9.11325 0
0 0 0

6.07074 10.9587 0
-21.8467 -6.31023 0
0 0 0

1.17306 11.9729 0
-22.5208 -4.70734 0
0 0 0

-1.22307 9.92841 0
-11.3592 -2.91635 0
0 0 0

-0.66348 10.0513 0
-18.8 -3.93796 0
0 0 0

-0.937366 9.66009 0
-15.52 0.991214 0
0 0 0

-3.64551 16.8832 0
-14.4918 12.0695 0
0 0 0

-2.44466 10.3412 0
-19.198 -1.51117 0
0 0 0

-4.62591 17.1286 0
-13.1853 7.33348 0
0 0 0

-3.90015 17.9957 0
-17.2131 2.52134 0
0 0 0

-0.625354 12.6493 0
-18.7984 -1.00417 0
0 0 0

5.4358 15.6367 0
-25.2759 -3.16829 0
0 0 0

-0.183153 15.3181 0
-18.6379 -2.79196 0
0 0 0

2.31709 18.366 0
-21.5916 -6.39262 0
0 0 0

6.72397 11.0092 0
-26.0348 -6.63433 0
0 0 0

1.45616 10.4476 0
-20.7626 -4.54122 0
0 0 0

2.85192 21.5201 0
-23.7265 -9.28095 0
0 0 0

1.32942 14.1028 0
-20.7887 -4.83347 0
0 0 0

0.0125133 9.52376 0
-20.0906 -4.24847 0
0 0 0

-0.330524 8.64864 0
-19.2041 0.581497 0
0 0 0

0.927401 8.75138 0
-20.2692 -4.09768 0
0 0 0

1.83615 8.70755 0
-22.356 -1.3876 0
0 0 0

-5.45303 17.9171 0
-8.59507 2.95776 0
0 0 0

-1.35953 18.4336 0
-17.8648 0.254542 0
0 0 0

-0.267709 16.1036 0
-14.4451 -3.36022 0
0 0 0

-1.05415 16.6441 0
-17.9744 -1.76847 0
0 0 0

-1.36371 18.428 0
-17.5334 0.69865 0
0 0 0

-0.623372 20.3974 0
-20.1156 -6.71623 0
0 0 0

-1.35798 18.4234 0
-17.9879 1.06735 0
0 0 0

-0.76081 18.2183 0
-28.4448 -0.356435 0
0 0 0

-0.0592034 22.7312 0
-26.8296 -7.20845 0
0 0 0

0.613629 23.8914 0
-24.2686 -2.79238 0
0 0 0

-0.864341 19.4653 0
-29.6106 -3.02586 0
0 0 0

-0.124913 24.4973 0
-27.6439 -0.989369 0
0 0 0

1.02499 24.4176 0
-28.0217 -0.710986 0
0 0 0

1.37593 9.04748 0
-26.4659 1.64801 0
0 0 0

0.470939 25.135 0
-27.4145 -1.12188 0
0 0 0

0.851695 25.5234 0
-27.2788 -1.7017 0
0 0 0

SCALARS active double 1
LOOKUP_TABLE default
1
1
1
1
1
1
1
1
1
1
1
1
1
1
1
1
1
1
1
1
1
1
1
1
1
1
1
1
1
1
1
1
1
1
1
1
1
1
1
1
1
1
1
1
1
1
1
1
1
1
1
1
1
1
1
1
1
1
1
1
1
1
1
1
SCALARS extent double 1
LOOKUP_TABLE default
0.0125
0.0125
0.0125
0.0125
0.0125
0.0125
0.0125
0.0125
0.0125
0.0125
0.0125
0.0125
0.0125
0.0125
0.0125
0.0125
0.0125
0.0125
0.0125
0.0125
0.0125
0.0125
0.0125
0.0125
0.0125
0.0125
0.0125
0.0125
0.0125
0.0125
0.0125
0.0125
0.0125
0.0125
0.0125
0.0125
0.0125
0.0125
0.0125
0.0125
0.0125
0.0125
0.0125
0.0125
0.0125
0.0125
0.0125
0.0125
0.0125
0.0125
0.0125
0.0125
0.0125
0.0125
0.0125
0.0125
0.0125
0.0125
0.0125
0.0125
0.0125
0.0125
0.0125
0.0125
SCALARS pressure double 1
LOOKUP_TABLE default
-2333.97
-6614.74
728.978
-5275.25
-8458.95
-5496.46
431.375
-2379.79
-5665
-1695.93
-5559.66
-4555.86
1074.62
294.755
160.197
-2942.61
-6954.87
-250.475
-3558.55
1382.5
958.29
-8789.44
-3505.22
-7195.2
-577.735
-4292.42
-7026.24
-619.246
-6005.83
4360.47
-7779.89
550.025
8410.05
-3372.93
280.561
-6362.72
-1414.68
-3826.3
-1930.95
-2078.04
-3726.59
866.906
-10660.2
-6397.39
-1147.62
-7845.62
-1690.22
-4036.98
944.456
784.598
-11.1176
4570.11
399.272
-589.654
-4202.23
2542.01
2588.67
-1103.38
7363.3
-2081.4
-2523.55
-1701.94
-3436.25
-761.258
SCALARS density double 1
LOOKUP_TABLE default
976.019
933.52
1007.61
946.615
915.786
944.44
1004.5
975.554
942.786
982.517
943.819
953.724
1011.24
1003.07
1001.67
969.86
930.223
997.398
963.668
1014.48
1010.02
912.643
964.202
927.901
994.01
956.341
929.533
993.581
939.45
1046.39
922.276
1005.74
1091.4
965.53
1002.92
935.97
985.395
960.988
980.118
978.62
961.985
1009.06
895.058
935.632
988.136
921.646
982.575
958.885
1009.87
1008.19
999.884
1048.68
1004.16
993.886
957.238
1026.79
1027.29
988.59
1079.59
978.586
974.096
982.456
964.894
992.114
