# vtk DataFile Version 3.0
Frame: 12, Time: 0.217
ASCII
DATASET UNSTRUCTURED_GRID
POINTS 64 double
0.5125 0.378325 0 
0.5125 0.403325 0 
0.5375 0.378325 0 
0.5375 0.403325 0 
0.5125 0.428325 0 
0.5125 0.453325 0 
0.5375 0.428325 0 
0.5375 0.453325 0 
0.5125 0.478325 0 
0.5125 0.503325 0 
0.5375 0.478325 0 
0.5375 0.503325 0 
0.5125 0.528325 0 
0.5125 0.553325 0 
0.5375 0.528325 0 
0.5375 0.553325 0 
0.5625 0.378325 0 
0.5625 0.403325 0 
0.5875 0.378325 0 
0.5875 0.403325 0 
0.5625 0.428325 0 
0.5625 0.453325 0 
0.5875 0.428325 0 
0.5875 0.453325 0 
0.5625 0.478325 0 
0.5625 0.503325 0 
0.5875 0.478325 0 
0.5875 0.503325 0 
0.5625 0.528325 0 
0.5625 0.553325 0 
0.5875 0.528325 0 
0.5875 0.553325 0 
0.6125 0.378325 0 
0.6125 0.403325 0 
0.6375 0.378325 0 
0.6375 0.403325 0 
0.6125 0.428325 0 
0.6125 0.453325 0 
0.6375 0.428325 0 
0.6375 0.453325 0 
0.6125 0.478325 0 
0.6125 0.503325 0 
0.6375 0.478325 0 
0.6375 0.503325 0 
0.6125 0.528325 0 
0.6125 0.553325 0 
0.6375 0.528325 0 
0.6375 0.553325 0 
0.6625 0.378325 0 
0.6625 0.403325 0 
0.6875 0.378325 0 
0.6875 0.403325 0 
0.6625 0.428325 0 
0.6625 0.453325 0 
0.6875 0.428325 0 
0.6875 0.453325 0 
0.6625 0.478325 0 
0.6625 0.503325 0 
0.6875 0.478325 0 
0.6875 0.503325 0 
0.6625 0.528325 0 
0.6625 0.553325 0 
0.6875 0.528325 0 
0.6875 0.553325 0 
CELLS 64 128
1 0
1 1
1 2
1 3
1 4
1 5
1 6
1 7
1 8
1 9
1 10
1 11
1 12
1 13
1 14
1 15
1 16
1 17
1 18
1 19
1 20
1 21
1 22
1 23
1 24
1 25
1 26
1 27
1 28
1 29
1 30
1 31
1 32
1 33
1 34
1 35
1 36
1 37
1 38
1 39
1 40
1 41
1 42
1 43
1 44
1 45
1 46
1 47
1 48
1 49
1 50
1 51
1 52
1 53
1 54
1 55
1 56
1 57
1 58
1 59
1 60
1 61
1 62
1 63
CELL_TYPES 64
1
1
1
1
1
1
1
1
1
1
1
1
1
1
1
1
1
1
1
1
1
1
1
1
1
1
1
1
1
1
1
1
1
1
1
1
1
1
1
1
1
1
1
1
1
1
1
1
1
1
1
1
1
1
1
1
1
1
1
1
1
1
1
1
POINT_DATA 64
VECTORS displacement double
-9.45573e-17 -0.234175 0 
-9.62093e-17 -0.234175 0 
-1.10533e-16 -0.234175 0 
-9.68878e-17 -0.234175 0 
-7.90182e-17 -0.234175 0 
-1.86237e-17 -0.234175 0 
-6.46862e-17 -0.234175 0 
-2.89708e-18 -0.234175 0 
6.2711e-17 -0.234175 0 
1.39523e-16 -0.234175 0 
7.07731e-17 -0.234175 0 
1.38248e-16 -0.234175 0 
1.85475e-16 -0.234175 0 
2.2787e-16 -0.234175 0 
1.8785e-16 -0.234175 0 
2.33999e-16 -0.234175 0 
-1.20551e-16 -0.234175 0 
-9.1172e-17 -0.234175 0 
-1.24611e-16 -0.234175 0 
-7.90617e-17 -0.234175 0 
-4.71614e-17 -0.234175 0 
1.48617e-17 -0.234175 0 
-2.64437e-17 -0.234175 0 
3.46526e-17 -0.234175 0 
8.1166e-17 -0.234175 0 
1.42032e-16 -0.234175 0 
9.38897e-17 -0.234175 0 
1.50875e-16 -0.234175 0 
1.94383e-16 -0.234175 0 
2.44546e-16 -0.234175 0 
2.05076e-16 -0.234175 0 
2.59512e-16 -0.234175 0 
-1.30661e-16 -0.234175 0 
-6.70767e-17 -0.234175 0 
-1.38701e-16 -0.234175 0 
-5.5217e-17 -0.234175 0 
-5.53358e-18 -0.234175 0 
5.42768e-17 -0.234175 0 
1.55689e-17 -0.234175 0 
7.37343e-17 -0.234175 0 
1.07035e-16 -0.234175 0 
1.59999e-16 -0.234175 0 
1.20602e-16 -0.234175 0 
1.69403e-16 -0.234175 0 
2.16608e-16 -0.234175 0 
2.73549e-16 -0.234175 0 
2.28981e-16 -0.234175 0 
2.86658e-16 -0.234175 0 
-1.54136e-16 -0.234175 0 
-4.91549e-17 -0.234175 0 
-1.76966e-16 -0.234175 0 
-4.88904e-17 -0.234175 0 
3.40303e-17 -0.234175 0 
9.08096e-17 -0.234175 0 
4.98504e-17 -0.234175 0 
1.05503e-16 -0.234175 0 
1.32145e-16 -0.234175 0 
1.74988e-16 -0.234175 0 
1.41664e-16 -0.234175 0 
1.76752e-16 -0.234175 0 
2.37857e-16 -0.234175 0 
2.96635e-16 -0.234175 0 
2.43237e-16 -0.234175 0 
3.03482e-16 -0.234175 0 
VECTORS velocity double
-2.97335e-15 -2.13858 0 
-1.82653e-16 -2.13858 0 
2.29588e-15 -2.13858 0 
-2.20249e-15 -2.13858 0 
1.05381e-15 -2.13858 0 
-1.60197e-15 -2.13858 0 
-2.60336e-15 -2.13858 0 
-3.94038e-15 -2.13858 0 
-5.93815e-15 -2.13858 0 
-3.33783e-15 -2.13858 0 
-5.18883e-15 -2.13858 0 
-2.11911e-15 -2.13858 0 
-8.27404e-16 -2.13858 0 
6.80941e-15 -2.13858 0 
2.16532e-15 -2.13858 0 
4.17851e-15 -2.13858 0 
3.61231e-15 -2.13858 0 
-2.66509e-15 -2.13858 0 
9.75939e-16 -2.13858 0 
-1.57045e-15 -2.13858 0 
-3.67128e-15 -2.13858 0 
-4.0041e-15 -2.13858 0 
-2.14995e-15 -2.13858 0 
-1.79311e-15 -2.13858 0 
-3.54569e-15 -2.13858 0 
-7.10993e-16 -2.13858 0 
-1.00875e-15 -2.13858 0 
8.86531e-16 -2.13858 0 
3.19319e-15 -2.13858 0 
3.62342e-15 -2.13858 0 
2.25619e-15 -2.13858 0 
5.14414e-15 -2.13858 0 
-2.46163e-15 -2.13858 0 
-7.68521e-16 -2.13858 0 
-6.70041e-15 -2.13858 0 
-2.59291e-16 -2.13858 0 
-9.10961e-16 -2.13858 0 
3.02777e-16 -2.13858 0 
4.56742e-17 -2.13858 0 
2.28355e-15 -2.13858 0 
1.25351e-15 -2.13858 0 
2.08258e-15 -2.13858 0 
3.24108e-15 -2.13858 0 
2.87714e-15 -2.13858 0 
1.61775e-15 -2.13858 0 
6.43753e-15 -2.13858 0 
1.27784e-15 -2.13858 0 
7.50359e-15 -2.13858 0 
-7.19004e-15 -2.13858 0 
-9.3134e-16 -2.13858 0 
-3.93052e-15 -2.13858 0 
-2.78467e-15 -2.13858 0 
-1.43287e-15 -2.13858 0 
1.6364e-15 -2.13858 0 
-5.3466e-15 -2.13858 0 
-1.63869e-15 -2.13858 0 
4.7958e-15 -2.13858 0 
4.48676e-15 -2.13858 0 
5.91766e-15 -2.13858 0 
6.91142e-15 -2.13858 0 
2.86161e-15 -2.13858 0 
6.44381e-15 -2.13858 0 
6.36903e-15 -2.13858 0 
3.25822e-15 -2.13858 0 
SCALARS mass double 1
LOOKUP_TABLE default
0.625
0.625
0.625
0.625
0.625
0.625
0.625
0.625
0.625
0.625
0.625
0.625
0.625
0.625
0.625
0.625
0.625
0.625
0.625
0.625
0.625
0.625
0.625
0.625
0.625
0.625
0.625
0.625
0.625
0.625
0.625
0.625
0.625
0.625
0.625
0.625
0.625
0.625
0.625
0.625
0.625
0.625
0.625
0.625
0.625
0.625
0.625
0.625
0.625
0.625
0.625
0.625
0.625
0.625
0.625
0.625
0.625
0.625
0.625
0.625
0.625
0.625
0.625
0.625
SCALARS volume double 1
LOOKUP_TABLE default
0.000625
0.000625
0.000625
0.000625
0.000625
0.000625
0.000625
0.000625
0.000625
0.000625
0.000625
0.000625
0.000625
0.000625
0.000625
0.000625
0.000625
0.000625
0.000625
0.000625
0.000625
0.000625
0.000625
0.000625
0.000625
0.000625
0.000625
0.000625
0.000625
0.000625
0.000625
0.000625
0.000625
0.000625
0.000625
0.000625
0.000625
0.000625
0.000625
0.000625
0.000625
0.000625
0.000625
0.000625
0.000625
0.000625
0.000625
0.000625
0.000625
0.000625
0.000625
0.000625
0.000625
0.000625
0.000625
0.000625
0.000625
0.000625
0.000625
0.000625
0.000625
0.000625
0.000625
0.000625
VECTORS momentum double
-1.85835e-15 -1.33661 0 
-1.14158e-16 -1.33661 0 
1.43492e-15 -1.33661 0 
-1.37656e-15 -1.33661 0 
6.58629e-16 -1.33661 0 
-1.00123e-15 -1.33661 0 
-1.6271e-15 -1.33661 0 
-2.46274e-15 -1.33661 0 
-3.71135e-15 -1.33661 0 
-2.08614e-15 -1.33661 0 
-3.24302e-15 -1.33661 0 
-1.32445e-15 -1.33661 0 
-5.17128e-16 -1.33661 0 
4.25588e-15 -1.33661 0 
1.35333e-15 -1.33661 0 
2.61157e-15 -1.33661 0 
2.25769e-15 -1.33661 0 
-1.66568e-15 -1.33661 0 
6.09962e-16 -1.33661 0 
-9.81533e-16 -1.33661 0 
-2.29455e-15 -1.33661 0 
-2.50256e-15 -1.33661 0 
-1.34372e-15 -1.33661 0 
-1.12069e-15 -1.33661 0 
-2.21606e-15 -1.33661 0 
-4.44371e-16 -1.33661 0 
-6.30468e-16 -1.33661 0 
5.54082e-16 -1.33661 0 
1.99574e-15 -1.33661 0 
2.26464e-15 -1.33661 0 
1.41012e-15 -1.33661 0 
3.21509e-15 -1.33661 0 
-1.53852e-15 -1.33661 0 
-4.80325e-16 -1.33661 0 
-4.18775e-15 -1.33661 0 
-1.62057e-16 -1.33661 0 
-5.69351e-16 -1.33661 0 
1.89235e-16 -1.33661 0 
2.85464e-17 -1.33661 0 
1.42722e-15 -1.33661 0 
7.83443e-16 -1.33661 0 
1.30161e-15 -1.33661 0 
2.02568e-15 -1.33661 0 
1.79821e-15 -1.33661 0 
1.01109e-15 -1.33661 0 
4.02346e-15 -1.33661 0 
7.98652e-16 -1.33661 0 
4.68974e-15 -1.33661 0 
-4.49377e-15 -1.33661 0 
-5.82087e-16 -1.33661 0 
-2.45658e-15 -1.33661 0 
-1.74042e-15 -1.33661 0 
-8.95545e-16 -1.33661 0 
1.02275e-15 -1.33661 0 
-3.34163e-15 -1.33661 0 
-1.02418e-15 -1.33661 0 
2.99737e-15 -1.33661 0 
2.80422e-15 -1.33661 0 
3.69854e-15 -1.33661 0 
4.31964e-15 -1.33661 0 
1.7885e-15 -1.33661 0 
4.02738e-15 -1.33661 0 
3.98065e-15 -1.33661 0 
2.03638e-15 -1.33661 0 
VECTORS body_force double
0 -9.81 0 
0 -9.81 0 
0 -9.81 0 
0 -9.81 0 
0 -9.81 0 
0 -9.81 0 
0 -9.81 0 
0 -9.81 0 
0 -9.81 0 
0 -9.81 0 
0 -9.81 0 
0 -9.81 0 
0 -9.81 0 
0 -9.81 0 
0 -9.81 0 
0 -9.81 0 
0 -9.81 0 
0 -9.81 0 
0 -9.81 0 
0 -9.81 0 
0 -9.81 0 
0 -9.81 0 
0 -9.81 0 
0 -9.81 0 
0 -9.81 0 
0 -9.81 0 
0 -9.81 0 
0 -9.81 0 
0 -9.81 0 
0 -9.81 0 
0 -9.81 0 
0 -9.81 0 
0 -9.81 0 
0 -9.81 0 
0 -9.81 0 
0 -9.81 0 
0 -9.81 0 
0 -9.81 0 
0 -9.81 0 
0 -9.81 0 
0 -9.81 0 
0 -9.81 0 
0 -9.81 0 
0 -9.81 0 
0 -9.81 0 
0 -9.81 0 
0 -9.81 0 
0 -9.81 0 
0 -9.81 0 
0 -9.81 0 
0 -9.81 0 
0 -9.81 0 
0 -9.81 0 
0 -9.81 0 
0 -9.81 0 
0 -9.81 0 
0 -9.81 0 
0 -9.81 0 
0 -9.81 0 
0 -9.81 0 
0 -9.81 0 
0 -9.81 0 
0 -9.81 0 
0 -9.81 0 
TENSORS cauchy_stress double
-6.44574e-11 1.62907e-11 0
1.62907e-11 1.34575e-11 0
0 0 0

9.48363e-11 -6.47488e-11 0
-6.47488e-11 2.28244e-10 0
0 0 0

-1.06558e-10 2.51576e-11 0
2.51576e-11 -8.47771e-11 0
0 0 0

5.67433e-11 -2.31054e-11 0
-2.31054e-11 1.39361e-10 0
0 0 0

1.05756e-10 -1.51315e-11 0
-1.51315e-11 9.97692e-11 0
0 0 0

8.68674e-11 4.07408e-11 0
4.07408e-11 4.13922e-11 0
0 0 0

5.37047e-11 -3.25303e-12 0
-3.25303e-12 -2.16839e-11 0
0 0 0

5.51732e-11 2.762e-11 0
2.762e-11 -3.25609e-11 0
0 0 0

-2.51029e-11 1.16195e-11 0
1.16195e-11 -1.41262e-10 0
0 0 0

-5.7564e-11 5.33831e-12 0
5.33831e-12 -1.21241e-10 0
0 0 0

8.31949e-12 7.07298e-12 0
7.07298e-12 -6.32766e-11 0
0 0 0

-4.29475e-11 6.81679e-13 0
6.81679e-13 -8.71362e-11 0
0 0 0

-1.29805e-12 -3.24e-12 0
-3.24e-12 -2.73839e-11 0
0 0 0

2.86762e-11 3.06133e-12 0
3.06133e-12 4.05159e-12 0
0 0 0

4.59178e-11 8.72998e-12 0
8.72998e-12 8.27864e-11 0
0 0 0

3.15441e-11 4.85134e-12 0
4.85134e-12 1.07434e-11 0
0 0 0

-4.55661e-11 -2.53207e-11 0
-2.53207e-11 -6.46814e-11 0
0 0 0

5.77536e-11 -2.977e-11 0
-2.977e-11 1.05505e-11 0
0 0 0

-5.11794e-11 1.59852e-12 0
1.59852e-12 -7.77791e-11 0
0 0 0

7.67641e-11 1.82602e-12 0
1.82602e-12 5.49081e-11 0
0 0 0

7.66421e-11 1.88159e-11 0
1.88159e-11 -3.36577e-11 0
0 0 0

5.71253e-11 4.44443e-11 0
4.44443e-11 -6.96915e-11 0
0 0 0

9.56009e-11 1.94181e-11 0
1.94181e-11 1.05794e-11 0
0 0 0

5.42718e-11 4.18399e-11 0
4.18399e-11 -7.63496e-11 0
0 0 0

3.92211e-11 3.02563e-11 0
3.02563e-11 -3.89835e-11 0
0 0 0

1.19058e-11 5.02846e-12 0
5.02846e-12 -6.2917e-11 0
0 0 0

3.25618e-11 2.10702e-11 0
2.10702e-11 -5.45219e-11 0
0 0 0

-1.9955e-11 -4.98407e-12 0
-4.98407e-12 -1.37259e-10 0
0 0 0

5.30735e-11 -1.08869e-11 0
-1.08869e-11 1.41713e-11 0
0 0 0

6.8308e-11 -8.26326e-12 0
-8.26326e-12 5.89004e-12 0
0 0 0

7.66032e-11 -5.26222e-12 0
-5.26222e-12 6.90738e-11 0
0 0 0

8.65963e-11 -8.576e-12 0
-8.576e-12 4.85626e-11 0
0 0 0

-6.59518e-11 -5.14443e-13 0
-5.14443e-13 -7.1425e-11 0
0 0 0

5.00345e-11 3.34082e-12 0
3.34082e-12 -4.89087e-12 0
0 0 0

-8.06203e-11 2.81643e-11 0
2.81643e-11 -1.05652e-10 0
0 0 0

6.95061e-11 3.58111e-11 0
3.58111e-11 4.05429e-11 0
0 0 0

1.03772e-10 -9.38139e-12 0
-9.38139e-12 2.56992e-11 0
0 0 0

5.41512e-11 -2.5902e-11 0
-2.5902e-11 -7.3211e-11 0
0 0 0

6.10356e-11 -2.11926e-12 0
-2.11926e-12 -7.40197e-11 0
0 0 0

6.36724e-11 -3.99468e-11 0
-3.99468e-11 -5.09948e-11 0
0 0 0

5.22235e-11 -1.99746e-11 0
-1.99746e-11 -1.7296e-11 0
0 0 0

2.37767e-11 5.91932e-12 0
5.91932e-12 -4.09779e-11 0
0 0 0

2.68668e-11 -3.01211e-11 0
-3.01211e-11 -7.64617e-11 0
0 0 0

1.43099e-11 2.45384e-12 0
2.45384e-12 -6.3067e-11 0
0 0 0

8.56389e-11 -8.90501e-13 0
-8.90501e-13 7.29226e-11 0
0 0 0

5.49474e-11 -5.24251e-12 0
-5.24251e-12 -6.23498e-12 0
0 0 0

6.97057e-11 -1.22985e-13 0
-1.22985e-13 3.57453e-11 0
0 0 0

6.59882e-11 -1.52513e-12 0
-1.52513e-12 1.9527e-11 0
0 0 0

-1.36042e-10 -2.97463e-11 0
-2.97463e-11 -8.32776e-11 0
0 0 0

3.0654e-11 3.09134e-11 0
3.09134e-11 6.88133e-11 0
0 0 0

-9.10531e-11 -1.45824e-11 0
-1.45824e-11 2.16964e-11 0
0 0 0

1.07945e-10 6.63334e-11 0
6.63334e-11 2.49158e-10 0
0 0 0

5.75901e-11 -2.26322e-12 0
-2.26322e-12 -2.7881e-11 0
0 0 0

3.32392e-11 -2.03227e-11 0
-2.03227e-11 -7.3142e-11 0
0 0 0

1.36728e-10 1.19682e-11 0
1.19682e-11 1.56773e-10 0
0 0 0

8.97084e-11 -3.43189e-11 0
-3.43189e-11 5.86196e-11 0
0 0 0

1.9125e-11 -8.36056e-12 0
-8.36056e-12 -5.30016e-11 0
0 0 0

-3.82505e-11 2.1216e-14 0
2.1216e-14 -1.07346e-10 0
0 0 0

-1.20455e-11 -5.06542e-12 0
-5.06542e-12 -1.25733e-10 0
0 0 0

-6.04058e-11 -6.88931e-13 0
-6.88931e-13 -1.59042e-10 0
0 0 0

5.3895e-11 3.61832e-12 0
3.61832e-12 7.05835e-11 0
0 0 0

2.89364e-11 7.87368e-13 0
7.87368e-13 -2.70261e-12 0
0 0 0

1.81564e-11 1.52179e-11 0
1.52179e-11 -1.28066e-11 0
0 0 0

3.42879e-11 -9.16492e-12 0
-9.16492e-12 9.7842e-12 0
0 0 0

TENSORS velocity_gradient double
5.64249e-14 2.28254e-14 0
1.77636e-13 -4.9738e-14 0
0 0 0

-1.65467e-15 8.46853e-15 0
1.54543e-13 1.26121e-13 0
0 0 0

5.64249e-14 -4.24368e-14 0
1.7053e-13 -8.52651e-14 0
0 0 0

-1.65467e-15 -2.80632e-14 0
1.45661e-13 1.3145e-13 0
0 0 0

-3.67407e-14 7.50529e-15 0
9.59233e-14 1.81188e-13 0
0 0 0

-4.85715e-14 -5.79525e-14 0
4.52971e-14 -1.15463e-14 0
0 0 0

-3.67407e-14 -2.70988e-14 0
1.27898e-13 1.27898e-13 0
0 0 0

-4.85715e-14 -1.46333e-15 0
5.68434e-14 -5.68434e-14 0
0 0 0

1.25015e-14 -6.23443e-14 0
7.10543e-15 -2.13163e-14 0
0 0 0

5.33786e-14 1.34589e-13 0
-5.32907e-14 1.45661e-13 0
0 0 0

1.25015e-14 2.56631e-16 0
-2.13163e-14 -4.9738e-14 0
0 0 0

5.33786e-14 1.10294e-13 0
-6.39488e-14 1.35003e-13 0
0 0 0

2.47118e-14 1.47802e-13 0
-1.06581e-13 -1.06581e-13 0
0 0 0

-8.14163e-16 4.56094e-14 0
-9.05942e-14 -1.95399e-14 0
0 0 0

2.47118e-14 1.17677e-13 0
-4.9738e-14 -3.55271e-14 0
0 0 0

-8.14163e-16 3.38788e-14 0
-9.23706e-14 -3.55271e-14 0
0 0 0

-3.49546e-14 -5.67689e-14 0
-1.42109e-14 -2.84217e-14 0
0 0 0

-8.39848e-16 -3.29965e-14 0
1.06581e-14 6.75016e-14 0
0 0 0

-3.49546e-14 -2.01708e-14 0
0 0 0
0 0 0

-8.39848e-16 -6.33142e-15 0
1.77636e-14 7.4607e-14 0
0 0 0

2.53254e-14 -3.14016e-14 0
3.90799e-14 9.59233e-14 0
0 0 0

4.62397e-14 2.96119e-14 0
7.10543e-15 -1.06581e-13 0
0 0 0

2.53254e-14 -5.40289e-15 0
1.42109e-14 7.10543e-14 0
0 0 0

4.62397e-14 3.5273e-14 0
1.42109e-14 -1.27898e-13 0
0 0 0

5.08775e-14 3.37054e-14 0
0 -9.9476e-14 0
0 0 0

4.86653e-14 8.72778e-14 0
-3.90799e-14 1.03029e-13 0
0 0 0

5.08775e-14 3.80021e-14 0
0 -1.56319e-13 0
0 0 0

4.86653e-14 6.5539e-14 0
-1.42109e-14 4.26326e-14 0
0 0 0

2.56163e-14 9.08721e-14 0
-6.39488e-14 -1.20792e-13 0
0 0 0

1.09715e-14 3.39525e-14 0
-6.66134e-14 -6.66134e-14 0
0 0 0

2.56163e-14 6.73865e-14 0
-3.55271e-14 -1.49214e-13 0
0 0 0

1.09715e-14 4.58304e-14 0
-3.55271e-14 -6.39488e-14 0
0 0 0

-5.80331e-14 2.12921e-14 0
-8.88178e-14 1.06581e-14 0
0 0 0

-1.57203e-14 2.21351e-14 0
-1.08358e-13 9.05942e-14 0
0 0 0

-5.80331e-14 6.76198e-14 0
-6.39488e-14 4.9738e-14 0
0 0 0

-1.57203e-14 5.24029e-14 0
-7.4607e-14 6.75016e-14 0
0 0 0

1.37394e-14 2.21916e-14 0
-1.20792e-13 7.81597e-14 0
0 0 0

3.71376e-14 4.11145e-14 0
-1.05693e-13 -1.48326e-13 0
0 0 0

1.37394e-14 5.13819e-14 0
-1.20792e-13 6.39488e-14 0
0 0 0

3.71376e-14 4.71363e-14 0
-1.13687e-13 -5.68434e-14 0
0 0 0

4.19936e-14 4.23841e-14 0
-7.10543e-14 -9.9476e-14 0
0 0 0

4.14618e-14 4.69048e-14 0
-2.30926e-14 9.05942e-14 0
0 0 0

4.19936e-14 4.68515e-14 0
-5.68434e-14 -5.68434e-14 0
0 0 0

4.14618e-14 3.13754e-14 0
-1.42109e-14 8.52651e-14 0
0 0 0

2.49262e-14 4.72081e-14 0
-2.13163e-14 -1.20792e-13 0
0 0 0

1.25082e-14 5.22401e-14 0
-2.75335e-14 -8.43769e-14 0
0 0 0

2.49262e-14 3.03371e-14 0
-2.84217e-14 -1.13687e-13 0
0 0 0

1.25082e-14 5.31815e-14 0
-3.55271e-15 -7.4607e-14 0
0 0 0

3.17576e-14 5.95429e-14 0
-1.91847e-13 7.10543e-15 0
0 0 0

-2.29261e-14 5.1892e-14 0
-1.18128e-13 6.66134e-14 0
0 0 0

3.17576e-14 -2.9388e-15 0
-1.77636e-13 2.13163e-14 0
0 0 0

-2.29261e-14 2.06023e-14 0
-1.38556e-13 1.74083e-13 0
0 0 0

-5.26462e-14 5.13787e-14 0
-8.52651e-14 7.10543e-14 0
0 0 0

-5.77334e-14 8.37682e-14 0
-5.24025e-14 -2.39808e-14 0
0 0 0

-5.26462e-14 2.21818e-14 0
-7.10543e-14 1.7053e-13 0
0 0 0

-5.77334e-14 1.5101e-13 0
-1.77636e-14 -1.77636e-14 0
0 0 0

1.43613e-14 8.59413e-14 0
-1.06581e-14 -6.75016e-14 0
0 0 0

6.15369e-14 7.39344e-15 0
-3.28626e-14 1.09246e-13 0
0 0 0

1.43613e-14 1.59654e-13 0
-2.84217e-14 -4.26326e-14 0
0 0 0

6.15369e-14 -2.50412e-14 0
1.06581e-14 1.24345e-13 0
0 0 0

2.3761e-14 2.12343e-15 0
2.4869e-14 -1.03029e-13 0
0 0 0

-1.001e-14 4.54446e-14 0
5.24025e-14 2.39808e-14 0
0 0 0

2.3761e-14 -3.74329e-14 0
-7.10543e-15 -6.39488e-14 0
0 0 0

-1.001e-14 2.90295e-14 0
6.39488e-14 7.10543e-15 0
0 0 0

SCALARS active double 1
LOOKUP_TABLE default
1
1
1
1
1
1
1
1
1
1
1
1
1
1
1
1
1
1
1
1
1
1
1
1
1
1
1
1
1
1
1
1
1
1
1
1
1
1
1
1
1
1
1
1
1
1
1
1
1
1
1
1
1
1
1
1
1
1
1
1
1
1
1
1
SCALARS extent double 1
LOOKUP_TABLE default
0.0125
0.0125
0.0125
0.0125
0.0125
0.0125
0.0125
0.0125
0.0125
0.0125
0.0125
0.0125
0.0125
0.0125
0.0125
0.0125
0.0125
0.0125
0.0125
0.0125
0.0125
0.0125
0.0125
0.0125
0.0125
0.0125
0.0125
0.0125
0.0125
0.0125
0.0125
0.0125
0.0125
0.0125
0.0125
0.0125
0.0125
0.0125
0.0125
0.0125
0.0125
0.0125
0.0125
0.0125
0.0125
0.0125
0.0125
0.0125
0.0125
0.0125
0.0125
0.0125
0.0125
0.0125
0.0125
0.0125
0.0125
0.0125
0.0125
0.0125
0.0125
0.0125
0.0125
0.0125
SCALARS pressure double 1
LOOKUP_TABLE default
2.54999e-11
-1.6154e-10
9.56675e-11
-9.80521e-11
-1.02763e-10
-6.41298e-11
-1.60104e-11
-1.13062e-11
8.31825e-11
8.94027e-11
2.74786e-11
6.50419e-11
1.4341e-11
-1.63639e-11
-6.43521e-11
-2.11437e-11
5.51238e-11
-3.41521e-11
6.44793e-11
-6.58361e-11
-2.14922e-11
6.28308e-12
-5.30901e-11
1.10389e-11
-1.18811e-13
2.55056e-11
1.09801e-11
7.86068e-11
-3.36224e-11
-3.7099e-11
-7.28385e-11
-6.75795e-11
6.86884e-11
-2.25718e-11
9.3136e-11
-5.50245e-11
-6.47357e-11
9.5299e-12
6.49202e-12
-6.33882e-12
-1.74638e-11
8.60058e-12
2.47974e-11
2.43786e-11
-7.92808e-11
-2.43562e-11
-5.27255e-11
-4.27576e-11
1.0966e-10
-4.97337e-11
3.46784e-11
-1.78552e-10
-1.48545e-11
1.99514e-11
-1.4675e-10
-7.4164e-11
1.69383e-11
7.27982e-11
6.88892e-11
1.09724e-10
-6.22393e-11
-1.31169e-11
-2.67486e-12
-2.2036e-11
SCALARS density double 1
LOOKUP_TABLE default
1000
1000
1000
1000
1000
1000
1000
1000
1000
1000
1000
1000
1000
1000
1000
1000
1000
1000
1000
1000
1000
1000
1000
1000
1000
1000
1000
1000
1000
1000
1000
1000
1000
1000
1000
1000
1000
1000
1000
1000
1000
1000
1000
1000
1000
1000
1000
1000
1000
1000
1000
1000
1000
1000
1000
1000
1000
1000
1000
1000
1000
1000
1000
1000
