# vtk DataFile Version 3.0
Frame: 13, Time: 0.234
ASCII
DATASET UNSTRUCTURED_GRID
POINTS 64 double
0.5125 0.340469 0 
0.5125 0.365469 0 
0.5375 0.340469 0 
0.5375 0.365469 0 
0.5125 0.390469 0 
0.5125 0.415469 0 
0.5375 0.390469 0 
0.5375 0.415469 0 
0.5125 0.440469 0 
0.5125 0.465469 0 
0.5375 0.440469 0 
0.5375 0.465469 0 
0.5125 0.490469 0 
0.5125 0.515469 0 
0.5375 0.490469 0 
0.5375 0.515469 0 
0.5625 0.340469 0 
0.5625 0.365469 0 
0.5875 0.340469 0 
0.5875 0.365469 0 
0.5625 0.390469 0 
0.5625 0.415469 0 
0.5875 0.390469 0 
0.5875 0.415469 0 
0.5625 0.440469 0 
0.5625 0.465469 0 
0.5875 0.440469 0 
0.5875 0.465469 0 
0.5625 0.490469 0 
0.5625 0.515469 0 
0.5875 0.490469 0 
0.5875 0.515469 0 
0.6125 0.340469 0 
0.6125 0.365469 0 
0.6375 0.340469 0 
0.6375 0.365469 0 
0.6125 0.390469 0 
0.6125 0.415469 0 
0.6375 0.390469 0 
0.6375 0.415469 0 
0.6125 0.440469 0 
0.6125 0.465469 0 
0.6375 0.440469 0 
0.6375 0.465469 0 
0.6125 0.490469 0 
0.6125 0.515469 0 
0.6375 0.490469 0 
0.6375 0.515469 0 
0.6625 0.340469 0 
0.6625 0.365469 0 
0.6875 0.340469 0 
0.6875 0.365469 0 
0.6625 0.390469 0 
0.6625 0.415469 0 
0.6875 0.390469 0 
0.6875 0.415469 0 
0.6625 0.440469 0 
0.6625 0.465469 0 
0.6875 0.440469 0 
0.6875 0.465469 0 
0.6625 0.490469 0 
0.6625 0.515469 0 
0.6875 0.490469 0 
0.6875 0.515469 0 
CELLS 64 128
1 0
1 1
1 2
1 3
1 4
1 5
1 6
1 7
1 8
1 9
1 10
1 11
1 12
1 13
1 14
1 15
1 16
1 17
1 18
1 19
1 20
1 21
1 22
1 23
1 24
1 25
1 26
1 27
1 28
1 29
1 30
1 31
1 32
1 33
1 34
1 35
1 36
1 37
1 38
1 39
1 40
1 41
1 42
1 43
1 44
1 45
1 46
1 47
1 48
1 49
1 50
1 51
1 52
1 53
1 54
1 55
1 56
1 57
1 58
1 59
1 60
1 61
1 62
1 63
CELL_TYPES 64
1
1
1
1
1
1
1
1
1
1
1
1
1
1
1
1
1
1
1
1
1
1
1
1
1
1
1
1
1
1
1
1
1
1
1
1
1
1
1
1
1
1
1
1
1
1
1
1
1
1
1
1
1
1
1
1
1
1
1
1
1
1
1
1
POINT_DATA 64
VECTORS displacement double
-1.19172e-16 -0.272031 0 
-6.83121e-17 -0.272031 0 
-1.16443e-16 -0.272031 0 
-7.68039e-17 -0.272031 0 
-1.84781e-17 -0.272031 0 
2.6681e-17 -0.272031 0 
-2.76599e-17 -0.272031 0 
2.16133e-17 -0.272031 0 
8.9236e-17 -0.272031 0 
1.75351e-16 -0.272031 0 
8.84558e-17 -0.272031 0 
1.72494e-16 -0.272031 0 
2.60108e-16 -0.272031 0 
3.46119e-16 -0.272031 0 
2.55906e-16 -0.272031 0 
3.38048e-16 -0.272031 0 
-1.28072e-16 -0.272031 0 
-8.64609e-17 -0.272031 0 
-1.54058e-16 -0.272031 0 
-9.7283e-17 -0.272031 0 
-3.24646e-17 -0.272031 0 
2.41191e-17 -0.272031 0 
-3.28924e-17 -0.272031 0 
3.41984e-17 -0.272031 0 
9.35996e-17 -0.272031 0 
1.7364e-16 -0.272031 0 
1.04668e-16 -0.272031 0 
1.7879e-16 -0.272031 0 
2.53624e-16 -0.272031 0 
3.31991e-16 -0.272031 0 
2.53261e-16 -0.272031 0 
3.27949e-16 -0.272031 0 
-1.78376e-16 -0.272031 0 
-1.05994e-16 -0.272031 0 
-2.01027e-16 -0.272031 0 
-1.12595e-16 -0.272031 0 
-3.30916e-17 -0.272031 0 
4.27926e-17 -0.272031 0 
-3.30624e-17 -0.272031 0 
4.99016e-17 -0.272031 0 
1.14074e-16 -0.272031 0 
1.82295e-16 -0.272031 0 
1.21818e-16 -0.272031 0 
1.84153e-16 -0.272031 0 
2.52783e-16 -0.272031 0 
3.2327e-16 -0.272031 0 
2.52191e-16 -0.272031 0 
3.17954e-16 -0.272031 0 
-2.09974e-16 -0.272031 0 
-1.18514e-16 -0.272031 0 
-2.05219e-16 -0.272031 0 
-1.23751e-16 -0.272031 0 
-3.79464e-17 -0.272031 0 
4.90426e-17 -0.272031 0 
-4.77436e-17 -0.272031 0 
4.02155e-17 -0.272031 0 
1.25059e-16 -0.272031 0 
1.85167e-16 -0.272031 0 
1.23798e-16 -0.272031 0 
1.85335e-16 -0.272031 0 
2.51192e-16 -0.272031 0 
3.10719e-16 -0.272031 0 
2.49788e-16 -0.272031 0 
3.01564e-16 -0.272031 0 
VECTORS velocity double
-1.17501e-14 -2.30535 0 
2.73471e-15 -2.30535 0 
-4.56082e-15 -2.30535 0 
1.02407e-15 -2.30535 0 
1.12787e-14 -2.30535 0 
7.93901e-15 -2.30535 0 
7.28809e-15 -2.30535 0 
4.59551e-15 -2.30535 0 
-2.12957e-16 -2.30535 0 
2.39825e-15 -2.30535 0 
2.97345e-16 -2.30535 0 
1.76499e-15 -2.30535 0 
7.95386e-15 -2.30535 0 
1.32059e-14 -2.30535 0 
6.31026e-15 -2.30535 0 
8.10774e-15 -2.30535 0 
-1.5476e-15 -2.30535 0 
-2.61367e-16 -2.30535 0 
-2.71045e-15 -2.30535 0 
-1.1216e-15 -2.30535 0 
3.86705e-15 -2.30535 0 
2.23245e-15 -2.30535 0 
1.01555e-15 -2.30535 0 
8.49825e-16 -2.30535 0 
6.72123e-16 -2.30535 0 
1.64285e-15 -2.30535 0 
9.11374e-16 -2.30535 0 
2.03183e-15 -2.30535 0 
4.33259e-15 -2.30535 0 
4.87554e-15 -2.30535 0 
2.02087e-15 -2.30535 0 
3.50935e-15 -2.30535 0 
-3.89942e-15 -2.30535 0 
-1.72794e-15 -2.30535 0 
-5.11451e-15 -2.30535 0 
-2.08039e-15 -2.30535 0 
-2.00566e-15 -2.30535 0 
-4.85711e-16 -2.30535 0 
-5.19658e-15 -2.30535 0 
-1.77416e-15 -2.30535 0 
9.87434e-16 -2.30535 0 
1.76917e-15 -2.30535 0 
9.00302e-16 -2.30535 0 
8.54894e-16 -2.30535 0 
5.30993e-17 -2.30535 0 
2.70666e-15 -2.30535 0 
-1.57071e-15 -2.30535 0 
2.46749e-15 -2.30535 0 
-1.01716e-15 -2.30535 0 
-2.83874e-15 -2.30535 0 
8.39262e-15 -2.30535 0 
-4.00301e-15 -2.30535 0 
-9.14287e-15 -2.30535 0 
-4.62163e-15 -2.30535 0 
-1.38445e-14 -2.30535 0 
-9.0281e-15 -2.30535 0 
1.20768e-15 -2.30535 0 
6.86064e-16 -2.30535 0 
1.90956e-15 -2.30535 0 
1.26268e-15 -2.30535 0 
-2.80966e-15 -2.30535 0 
5.67003e-17 -2.30535 0 
-3.66374e-15 -2.30535 0 
-4.52571e-15 -2.30535 0 
SCALARS mass double 1
LOOKUP_TABLE default
0.625
0.625
0.625
0.625
0.625
0.625
0.625
0.625
0.625
0.625
0.625
0.625
0.625
0.625
0.625
0.625
0.625
0.625
0.625
0.625
0.625
0.625
0.625
0.625
0.625
0.625
0.625
0.625
0.625
0.625
0.625
0.625
0.625
0.625
0.625
0.625
0.625
0.625
0.625
0.625
0.625
0.625
0.625
0.625
0.625
0.625
0.625
0.625
0.625
0.625
0.625
0.625
0.625
0.625
0.625
0.625
0.625
0.625
0.625
0.625
0.625
0.625
0.625
0.625
SCALARS volume double 1
LOOKUP_TABLE default
0.000625
0.000625
0.000625
0.000625
0.000625
0.000625
0.000625
0.000625
0.000625
0.000625
0.000625
0.000625
0.000625
0.000625
0.000625
0.000625
0.000625
0.000625
0.000625
0.000625
0.000625
0.000625
0.000625
0.000625
0.000625
0.000625
0.000625
0.000625
0.000625
0.000625
0.000625
0.000625
0.000625
0.000625
0.000625
0.000625
0.000625
0.000625
0.000625
0.000625
0.000625
0.000625
0.000625
0.000625
0.000625
0.000625
0.000625
0.000625
0.000625
0.000625
0.000625
0.000625
0.000625
0.000625
0.000625
0.000625
0.000625
0.000625
0.000625
0.000625
0.000625
0.000625
0.000625
0.000625
VECTORS momentum double
-7.34382e-15 -1.44084 0 
1.70919e-15 -1.44084 0 
-2.85051e-15 -1.44084 0 
6.40042e-16 -1.44084 0 
7.04918e-15 -1.44084 0 
4.96188e-15 -1.44084 0 
4.55506e-15 -1.44084 0 
2.87219e-15 -1.44084 0 
-1.33098e-16 -1.44084 0 
1.49891e-15 -1.44084 0 
1.85841e-16 -1.44084 0 
1.10312e-15 -1.44084 0 
4.97116e-15 -1.44084 0 
8.25372e-15 -1.44084 0 
3.94391e-15 -1.44084 0 
5.06734e-15 -1.44084 0 
-9.6725e-16 -1.44084 0 
-1.63354e-16 -1.44084 0 
-1.69403e-15 -1.44084 0 
-7.00999e-16 -1.44084 0 
2.4169e-15 -1.44084 0 
1.39528e-15 -1.44084 0 
6.34716e-16 -1.44084 0 
5.31141e-16 -1.44084 0 
4.20077e-16 -1.44084 0 
1.02678e-15 -1.44084 0 
5.69609e-16 -1.44084 0 
1.26989e-15 -1.44084 0 
2.70787e-15 -1.44084 0 
3.04721e-15 -1.44084 0 
1.26304e-15 -1.44084 0 
2.19334e-15 -1.44084 0 
-2.43714e-15 -1.44084 0 
-1.07996e-15 -1.44084 0 
-3.19657e-15 -1.44084 0 
-1.30024e-15 -1.44084 0 
-1.25354e-15 -1.44084 0 
-3.03569e-16 -1.44084 0 
-3.24786e-15 -1.44084 0 
-1.10885e-15 -1.44084 0 
6.17146e-16 -1.44084 0 
1.10573e-15 -1.44084 0 
5.62689e-16 -1.44084 0 
5.34309e-16 -1.44084 0 
3.31871e-17 -1.44084 0 
1.69167e-15 -1.44084 0 
-9.81692e-16 -1.44084 0 
1.54218e-15 -1.44084 0 
-6.35724e-16 -1.44084 0 
-1.77421e-15 -1.44084 0 
5.24539e-15 -1.44084 0 
-2.50188e-15 -1.44084 0 
-5.71429e-15 -1.44084 0 
-2.88852e-15 -1.44084 0 
-8.65282e-15 -1.44084 0 
-5.64256e-15 -1.44084 0 
7.54799e-16 -1.44084 0 
4.2879e-16 -1.44084 0 
1.19348e-15 -1.44084 0 
7.89177e-16 -1.44084 0 
-1.75603e-15 -1.44084 0 
3.54377e-17 -1.44084 0 
-2.28984e-15 -1.44084 0 
-2.82857e-15 -1.44084 0 
VECTORS body_force double
0 -9.81 0 
0 -9.81 0 
0 -9.81 0 
0 -9.81 0 
0 -9.81 0 
0 -9.81 0 
0 -9.81 0 
0 -9.81 0 
0 -9.81 0 
0 -9.81 0 
0 -9.81 0 
0 -9.81 0 
0 -9.81 0 
0 -9.81 0 
0 -9.81 0 
0 -9.81 0 
0 -9.81 0 
0 -9.81 0 
0 -9.81 0 
0 -9.81 0 
0 -9.81 0 
0 -9.81 0 
0 -9.81 0 
0 -9.81 0 
0 -9.81 0 
0 -9.81 0 
0 -9.81 0 
0 -9.81 0 
0 -9.81 0 
0 -9.81 0 
0 -9.81 0 
0 -9.81 0 
0 -9.81 0 
0 -9.81 0 
0 -9.81 0 
0 -9.81 0 
0 -9.81 0 
0 -9.81 0 
0 -9.81 0 
0 -9.81 0 
0 -9.81 0 
0 -9.81 0 
0 -9.81 0 
0 -9.81 0 
0 -9.81 0 
0 -9.81 0 
0 -9.81 0 
0 -9.81 0 
0 -9.81 0 
0 -9.81 0 
0 -9.81 0 
0 -9.81 0 
0 -9.81 0 
0 -9.81 0 
0 -9.81 0 
0 -9.81 0 
0 -9.81 0 
0 -9.81 0 
0 -9.81 0 
0 -9.81 0 
0 -9.81 0 
0 -9.81 0 
0 -9.81 0 
0 -9.81 0 
TENSORS cauchy_stress double
-2.25387e-12 4.14587e-11 0
4.14587e-11 -3.3244e-11 0
0 0 0

-2.6793e-11 2.29091e-11 0
2.29091e-11 2.45782e-11 0
0 0 0

3.61364e-12 1.4298e-11 0
1.4298e-11 -1.95532e-11 0
0 0 0

-1.69947e-11 2.24355e-11 0
2.24355e-11 4.74408e-11 0
0 0 0

9.40119e-12 6.8982e-12 0
6.8982e-12 1.16108e-10 0
0 0 0

3.33003e-11 9.49404e-12 0
9.49404e-12 1.29677e-10 0
0 0 0

-5.58447e-11 1.3981e-11 0
1.3981e-11 -3.61322e-11 0
0 0 0

-1.16525e-11 1.19792e-11 0
1.19792e-11 2.47869e-11 0
0 0 0

-1.751e-11 -6.43045e-12 0
-6.43045e-12 -3.28541e-11 0
0 0 0

1.93902e-11 4.3187e-12 0
4.3187e-12 7.45514e-11 0
0 0 0

-1.45952e-11 1.28392e-11 0
1.28392e-11 -2.60531e-11 0
0 0 0

-3.05535e-13 1.55138e-12 0
1.55138e-12 2.85946e-11 0
0 0 0

2.2814e-11 1.56714e-11 0
1.56714e-11 9.63268e-11 0
0 0 0

-1.15121e-11 3.19819e-12 0
3.19819e-12 5.59181e-11 0
0 0 0

5.93653e-11 1.87216e-11 0
1.87216e-11 1.81613e-10 0
0 0 0

-2.95697e-11 -2.56325e-12 0
-2.56325e-12 1.37835e-11 0
0 0 0

-1.19864e-10 -4.89899e-11 0
-4.89899e-11 -1.31593e-11 0
0 0 0

-4.79927e-11 -3.1238e-11 0
-3.1238e-11 -9.869e-13 0
0 0 0

-1.15979e-10 -2.29265e-11 0
-2.29265e-11 -4.09305e-12 0
0 0 0

-3.05259e-11 -1.79631e-12 0
-1.79631e-12 3.9769e-11 0
0 0 0

-2.87367e-12 -1.78387e-12 0
-1.78387e-12 -2.31816e-12 0
0 0 0

3.90032e-11 9.71486e-12 0
9.71486e-12 -1.23697e-11 0
0 0 0

4.59432e-12 1.14266e-11 0
1.14266e-11 1.51071e-11 0
0 0 0

3.48879e-11 2.6051e-11 0
2.6051e-11 -2.19721e-11 0
0 0 0

2.8237e-11 2.06501e-11 0
2.06501e-11 -4.76316e-11 0
0 0 0

1.82838e-11 1.34505e-11 0
1.34505e-11 -1.01625e-11 0
0 0 0

2.20068e-11 1.73587e-11 0
1.73587e-11 -6.21687e-11 0
0 0 0

-1.54216e-11 -5.40156e-12 0
-5.40156e-12 -8.88085e-11 0
0 0 0

2.23291e-11 4.22253e-12 0
4.22253e-12 5.5823e-11 0
0 0 0

-2.6925e-11 8.68305e-12 0
8.68305e-12 -2.13696e-11 0
0 0 0

5.00989e-11 2.83985e-12 0
2.83985e-12 1.20619e-10 0
0 0 0

-3.98023e-12 -8.16914e-13 0
-8.16914e-13 3.21682e-11 0
0 0 0

-9.13e-11 -8.7063e-12 0
-8.7063e-12 1.92786e-11 0
0 0 0

-2.37659e-11 -1.28082e-11 0
-1.28082e-11 1.22448e-11 0
0 0 0

-1.20989e-10 1.63962e-11 0
1.63962e-11 -4.99948e-11 0
0 0 0

-2.09028e-11 1.09225e-11 0
1.09225e-11 1.89253e-11 0
0 0 0

9.80436e-12 -1.84341e-11 0
-1.84341e-11 2.2577e-11 0
0 0 0

1.23256e-11 -2.16226e-11 0
-2.16226e-11 -4.4153e-11 0
0 0 0

-1.66697e-11 -5.68383e-12 0
-5.68383e-12 -3.91957e-11 0
0 0 0

3.04105e-11 -2.04752e-11 0
-2.04752e-11 -1.95493e-12 0
0 0 0

1.85553e-11 -5.08911e-12 0
-5.08911e-12 -3.61295e-11 0
0 0 0

1.09294e-11 1.83021e-11 0
1.83021e-11 6.44088e-12 0
0 0 0

2.47965e-12 -1.26399e-11 0
-1.26399e-11 -7.36394e-11 0
0 0 0

9.63559e-12 9.65036e-12 0
9.65036e-12 3.42192e-12 0
0 0 0

4.99457e-11 6.17427e-12 0
6.17427e-12 1.22616e-10 0
0 0 0

-2.60965e-11 2.96185e-12 0
2.96185e-12 -6.36817e-12 0
0 0 0

4.11671e-11 1.06697e-12 0
1.06697e-12 1.02133e-10 0
0 0 0

-2.41253e-11 -3.45333e-12 0
-3.45333e-12 -1.76875e-12 0
0 0 0

1.75013e-11 -4.11503e-12 0
-4.11503e-12 -7.93278e-12 0
0 0 0

-2.11007e-11 -1.10054e-11 0
-1.10054e-11 4.48084e-12 0
0 0 0

1.67447e-11 -3.40458e-11 0
-3.40458e-11 -9.69819e-12 0
0 0 0

-1.73473e-11 -2.11466e-11 0
-2.11466e-11 1.32388e-11 0
0 0 0

-5.02135e-11 -2.16028e-11 0
-2.16028e-11 -1.66804e-11 0
0 0 0

-5.08401e-11 -1.86382e-11 0
-1.86382e-11 -2.80931e-11 0
0 0 0

-2.64295e-13 -1.81914e-11 0
-1.81914e-11 9.98678e-11 0
0 0 0

1.38662e-11 -1.6877e-11 0
-1.6877e-11 1.22888e-10 0
0 0 0

-1.27165e-11 -1.77034e-11 0
-1.77034e-11 -1.67367e-11 0
0 0 0

1.53294e-11 -1.39172e-11 0
-1.39172e-11 3.40447e-11 0
0 0 0

-1.50832e-11 5.06532e-12 0
5.06532e-12 -2.2259e-11 0
0 0 0

8.11726e-12 -1.22255e-11 0
-1.22255e-11 1.72163e-11 0
0 0 0

5.23759e-11 -7.75406e-12 0
-7.75406e-12 1.36619e-10 0
0 0 0

-4.02393e-11 8.58102e-12 0
8.58102e-12 5.76394e-15 0
0 0 0

5.28006e-11 -1.3154e-11 0
-1.3154e-11 1.3761e-10 0
0 0 0

-1.48525e-11 -1.2173e-11 0
-1.2173e-11 5.92415e-11 0
0 0 0

TENSORS velocity_gradient double
1.91891e-14 2.86876e-14 0
-2.27374e-13 8.52651e-14 0
0 0 0

2.2635e-15 1.88194e-13 0
-1.59872e-13 -1.1724e-13 0
0 0 0

1.91891e-14 6.97425e-14 0
-2.41585e-13 9.9476e-14 0
0 0 0

2.2635e-15 1.47697e-13 0
-1.56319e-13 -2.84217e-14 0
0 0 0

-3.82338e-14 1.88194e-13 0
-7.10543e-14 -7.10543e-14 0
0 0 0

-3.65159e-14 -7.80642e-14 0
-7.4607e-14 9.59233e-14 0
0 0 0

-3.82338e-14 1.47697e-13 0
-8.52651e-14 -2.84217e-14 0
0 0 0

-3.65159e-14 -5.91838e-14 0
-5.68434e-14 1.13687e-13 0
0 0 0

-1.76355e-14 -7.80642e-14 0
-7.10543e-14 1.56319e-13 0
0 0 0

-3.37353e-14 1.07963e-13 0
-8.52651e-14 -8.52651e-14 0
0 0 0

-1.76355e-14 -5.91838e-14 0
-8.52651e-14 1.13687e-13 0
0 0 0

-3.37353e-14 7.76426e-14 0
-8.52651e-14 -1.13687e-13 0
0 0 0

-6.40562e-14 1.07963e-13 0
-3.55271e-14 -9.23706e-14 0
0 0 0

-7.60913e-14 4.75866e-14 0
-6.39488e-14 1.06581e-13 0
0 0 0

-6.40562e-14 7.76426e-14 0
-7.10543e-14 -7.10543e-14 0
0 0 0

-7.60913e-14 4.29853e-14 0
-3.55271e-14 1.06581e-13 0
0 0 0

1.00773e-14 6.82414e-14 0
-8.52651e-14 7.10543e-14 0
0 0 0

-3.46727e-14 1.04932e-13 0
-7.81597e-14 3.55271e-14 0
0 0 0

1.00773e-14 2.41843e-14 0
-7.10543e-14 7.10543e-14 0
0 0 0

-3.46727e-14 5.99006e-14 0
-7.81597e-14 -2.13163e-14 0
0 0 0

-7.97044e-14 1.04932e-13 0
-1.13687e-13 4.26326e-14 0
0 0 0

-6.54583e-14 -3.05711e-14 0
-8.88178e-14 1.52767e-13 0
0 0 0

-7.97044e-14 5.99006e-14 0
-7.10543e-14 -1.42109e-14 0
0 0 0

-6.54583e-14 7.77413e-15 0
-6.39488e-14 1.77636e-13 0
0 0 0

-2.71131e-14 -3.05711e-14 0
-7.81597e-14 1.35003e-13 0
0 0 0

-3.14994e-14 5.16029e-14 0
-3.90799e-14 -2.4869e-14 0
0 0 0

-2.71131e-14 7.77413e-15 0
-5.68434e-14 1.98952e-13 0
0 0 0

-3.14994e-14 2.98444e-14 0
-4.26326e-14 -2.84217e-14 0
0 0 0

-5.32579e-14 5.16029e-14 0
-4.26326e-14 -7.10543e-14 0
0 0 0

-6.60928e-14 3.60812e-14 0
0 1.56319e-13 0
0 0 0

-5.32579e-14 2.98444e-14 0
-2.84217e-14 -4.26326e-14 0
0 0 0

-6.60928e-14 2.68741e-14 0
1.42109e-14 1.42109e-13 0
0 0 0

7.94078e-15 -5.20604e-15 0
1.42109e-14 9.9476e-14 0
0 0 0

-3.30915e-14 1.15207e-14 0
3.19744e-14 3.55271e-15 0
0 0 0

7.94078e-15 -1.99296e-14 0
-1.42109e-14 7.10543e-14 0
0 0 0

-3.30915e-14 -4.02073e-14 0
2.84217e-14 -1.42109e-14 0
0 0 0

-8.48195e-14 1.15207e-14 0
3.55271e-14 -7.10543e-15 0
0 0 0

-7.09376e-14 4.72243e-14 0
1.42109e-14 1.42109e-13 0
0 0 0

-8.48195e-14 -4.02073e-14 0
4.26326e-14 1.42109e-14 0
0 0 0

-7.09376e-14 8.77795e-14 0
2.84217e-14 1.7053e-13 0
0 0 0

-3.03825e-14 4.72243e-14 0
7.10543e-15 1.49214e-13 0
0 0 0

-2.87775e-14 1.18501e-14 0
1.77636e-14 -5.32907e-14 0
0 0 0

-3.03825e-14 8.77795e-14 0
2.84217e-14 1.7053e-13 0
0 0 0

-2.87775e-14 -2.37999e-15 0
-7.10543e-15 -9.23706e-14 0
0 0 0

-4.30076e-14 1.18501e-14 0
-5.68434e-14 -4.26326e-14 0
0 0 0

-4.80486e-14 2.1618e-14 0
-4.61853e-14 9.59233e-14 0
0 0 0

-4.30076e-14 -2.37999e-15 0
-7.10543e-14 -7.10543e-14 0
0 0 0

-4.80486e-14 2.03128e-14 0
-8.52651e-14 1.42109e-13 0
0 0 0

4.78721e-14 -2.28523e-14 0
2.20268e-13 9.23706e-14 0
0 0 0

1.32516e-14 -9.22235e-14 0
1.27898e-13 -1.42109e-14 0
0 0 0

4.78721e-14 -1.39742e-14 0
2.13163e-13 7.10543e-14 0
0 0 0

1.32516e-14 -1.44528e-13 0
1.27898e-13 -2.41585e-13 0
0 0 0

-3.9053e-14 -9.22235e-14 0
0 -4.26326e-14 0
0 0 0

-3.90044e-14 1.18723e-13 0
-5.32907e-14 8.88178e-14 0
0 0 0

-3.9053e-14 -1.44528e-13 0
0 -1.84741e-13 0
0 0 0

-3.90044e-14 1.40056e-13 0
-5.68434e-14 1.27898e-13 0
0 0 0

-1.7672e-14 1.18723e-13 0
-7.81597e-14 1.20792e-13 0
0 0 0

-2.73317e-14 -2.06247e-14 0
-5.68434e-14 -5.68434e-14 0
0 0 0

-1.7672e-14 1.40056e-13 0
-8.52651e-14 8.52651e-14 0
0 0 0

-2.73317e-14 -4.28842e-14 0
-7.81597e-14 -4.9738e-14 0
0 0 0

-4.95911e-14 -2.06247e-14 0
-5.68434e-14 -1.13687e-13 0
0 0 0

-5.39588e-14 2.11132e-14 0
-3.55271e-14 1.06581e-13 0
0 0 0

-4.95911e-14 -4.28842e-14 0
-1.42109e-14 -7.10543e-14 0
0 0 0

-5.39588e-14 2.40192e-14 0
-1.42109e-14 1.13687e-13 0
0 0 0

SCALARS active double 1
LOOKUP_TABLE default
1
1
1
1
1
1
1
1
1
1
1
1
1
1
1
1
1
1
1
1
1
1
1
1
1
1
1
1
1
1
1
1
1
1
1
1
1
1
1
1
1
1
1
1
1
1
1
1
1
1
1
1
1
1
1
1
1
1
1
1
1
1
1
1
SCALARS extent double 1
LOOKUP_TABLE default
0.0125
0.0125
0.0125
0.0125
0.0125
0.0125
0.0125
0.0125
0.0125
0.0125
0.0125
0.0125
0.0125
0.0125
0.0125
0.0125
0.0125
0.0125
0.0125
0.0125
0.0125
0.0125
0.0125
0.0125
0.0125
0.0125
0.0125
0.0125
0.0125
0.0125
0.0125
0.0125
0.0125
0.0125
0.0125
0.0125
0.0125
0.0125
0.0125
0.0125
0.0125
0.0125
0.0125
0.0125
0.0125
0.0125
0.0125
0.0125
0.0125
0.0125
0.0125
0.0125
0.0125
0.0125
0.0125
0.0125
0.0125
0.0125
0.0125
0.0125
0.0125
0.0125
0.0125
0.0125
SCALARS pressure double 1
LOOKUP_TABLE default
1.77489e-11
1.10741e-12
7.96976e-12
-1.5223e-11
-6.27547e-11
-8.14886e-11
4.59884e-11
-6.56718e-12
2.5182e-11
-4.69708e-11
2.03241e-11
-1.41445e-11
-5.95704e-11
-2.2203e-11
-1.20489e-10
7.89312e-12
6.65118e-11
2.44898e-11
6.0036e-11
-4.62152e-12
2.59591e-12
-1.33167e-11
-9.85073e-12
-6.45791e-12
9.69731e-12
-4.06067e-12
2.0081e-11
5.2115e-11
-3.90761e-11
2.41473e-11
-8.53591e-11
-1.4094e-11
3.60107e-11
5.76057e-12
8.54917e-11
9.88751e-13
-1.61907e-11
1.59137e-11
2.79327e-11
-1.42278e-11
8.78709e-12
-8.68515e-12
3.55799e-11
-6.52876e-12
-8.6281e-11
1.62323e-11
-7.16499e-11
1.2947e-11
-4.78425e-12
8.30991e-12
-3.52324e-12
2.05423e-12
3.3447e-11
3.94666e-11
-4.98018e-11
-6.83772e-11
1.47266e-11
-2.46871e-11
1.86711e-11
-1.26668e-11
-9.44975e-11
2.01167e-11
-9.52054e-11
-2.21945e-11
SCALARS density double 1
LOOKUP_TABLE default
1000
1000
1000
1000
1000
1000
1000
1000
1000
1000
1000
1000
1000
1000
1000
1000
1000
1000
1000
1000
1000
1000
1000
1000
1000
1000
1000
1000
1000
1000
1000
1000
1000
1000
1000
1000
1000
1000
1000
1000
1000
1000
1000
1000
1000
1000
1000
1000
1000
1000
1000
1000
1000
1000
1000
1000
1000
1000
1000
1000
1000
1000
1000
1000
