# vtk DataFile Version 3.0
Frame: 28, Time: 0.484
ASCII
DATASET UNSTRUCTURED_GRID
POINTS 64 double
0.909475 0.406073 0 
0.915313 0.380351 0 
0.883562 0.40063 0 
0.889275 0.374476 0 
0.921389 0.355833 0 
0.927557 0.331075 0 
0.895419 0.350287 0 
0.902388 0.324852 0 
0.934097 0.30622 0 
0.941354 0.280992 0 
0.909402 0.299454 0 
0.917499 0.274737 0 
0.948288 0.25516 0 
0.953471 0.229681 0 
0.92427 0.249079 0 
0.928309 0.222484 0 
0.859278 0.395116 0 
0.864949 0.36953 0 
0.834796 0.390034 0 
0.84018 0.363933 0 
0.87107 0.344381 0 
0.878688 0.319639 0 
0.845492 0.339189 0 
0.853816 0.314088 0 
0.885643 0.293876 0 
0.892579 0.2698 0 
0.861318 0.288422 0 
0.868222 0.262999 0 
0.899477 0.244393 0 
0.903022 0.217667 0 
0.87558 0.237929 0 
0.880129 0.211955 0 
0.810457 0.383452 0 
0.814056 0.358495 0 
0.785188 0.376947 0 
0.789641 0.351265 0 
0.821184 0.333299 0 
0.828687 0.307429 0 
0.797031 0.325176 0 
0.804505 0.300354 0 
0.836447 0.282534 0 
0.844219 0.257456 0 
0.811807 0.276167 0 
0.819373 0.252003 0 
0.850482 0.23258 0 
0.855657 0.207571 0 
0.824578 0.227339 0 
0.830494 0.202338 0 
0.76044 0.368985 0 
0.765996 0.344383 0 
0.73452 0.363808 0 
0.74046 0.338507 0 
0.773219 0.319226 0 
0.779761 0.293404 0 
0.748598 0.313435 0 
0.755526 0.287345 0 
0.787326 0.267991 0 
0.793817 0.242994 0 
0.7618 0.26236 0 
0.767683 0.236482 0 
0.800538 0.21801 0 
0.808477 0.193549 0 
0.775146 0.211353 0 
0.784654 0.186512 0 
CELLS 64 128
1 0
1 1
1 2
1 3
1 4
1 5
1 6
1 7
1 8
1 9
1 10
1 11
1 12
1 13
1 14
1 15
1 16
1 17
1 18
1 19
1 20
1 21
1 22
1 23
1 24
1 25
1 26
1 27
1 28
1 29
1 30
1 31
1 32
1 33
1 34
1 35
1 36
1 37
1 38
1 39
1 40
1 41
1 42
1 43
1 44
1 45
1 46
1 47
1 48
1 49
1 50
1 51
1 52
1 53
1 54
1 55
1 56
1 57
1 58
1 59
1 60
1 61
1 62
1 63
CELL_TYPES 64
1
1
1
1
1
1
1
1
1
1
1
1
1
1
1
1
1
1
1
1
1
1
1
1
1
1
1
1
1
1
1
1
1
1
1
1
1
1
1
1
1
1
1
1
1
1
1
1
1
1
1
1
1
1
1
1
1
1
1
1
1
1
1
1
POINT_DATA 64
VECTORS displacement double
0.396975 -0.206427 0 
0.402813 -0.257149 0 
0.346062 -0.21187 0 
0.351775 -0.263024 0 
0.408889 -0.306667 0 
0.415057 -0.356425 0 
0.357919 -0.312213 0 
0.364888 -0.362648 0 
0.421597 -0.40628 0 
0.428854 -0.456508 0 
0.371902 -0.413046 0 
0.379999 -0.462763 0 
0.435788 -0.50734 0 
0.440971 -0.557819 0 
0.38677 -0.513421 0 
0.390809 -0.565016 0 
0.296778 -0.217384 0 
0.302449 -0.26797 0 
0.247296 -0.222466 0 
0.25268 -0.273567 0 
0.30857 -0.318119 0 
0.316188 -0.367861 0 
0.257992 -0.323311 0 
0.266316 -0.373412 0 
0.323143 -0.418624 0 
0.330079 -0.4677 0 
0.273818 -0.424078 0 
0.280722 -0.474501 0 
0.336977 -0.518107 0 
0.340522 -0.569833 0 
0.28808 -0.524571 0 
0.292629 -0.575545 0 
0.197957 -0.229048 0 
0.201556 -0.279005 0 
0.147688 -0.235553 0 
0.152141 -0.286235 0 
0.208684 -0.329201 0 
0.216187 -0.380071 0 
0.159531 -0.337324 0 
0.167005 -0.387146 0 
0.223947 -0.429966 0 
0.231719 -0.480044 0 
0.174307 -0.436333 0 
0.181873 -0.485497 0 
0.237982 -0.52992 0 
0.243157 -0.579929 0 
0.187078 -0.535161 0 
0.192994 -0.585162 0 
0.0979405 -0.243515 0 
0.103496 -0.293117 0 
0.04702 -0.248692 0 
0.0529603 -0.298993 0 
0.110719 -0.343274 0 
0.117261 -0.394096 0 
0.0610981 -0.349065 0 
0.0680261 -0.400155 0 
0.124826 -0.444509 0 
0.131317 -0.494506 0 
0.0742997 -0.45014 0 
0.0801826 -0.501018 0 
0.138038 -0.54449 0 
0.145977 -0.593951 0 
0.087646 -0.551147 0 
0.0971538 -0.600988 0 
VECTORS velocity double
4.14449 -1.12087 0 
3.05894 -1.56221 0 
3.6366 0.198414 0 
2.36156 -0.65611 0 
2.78736 -1.5599 0 
2.60805 -1.98694 0 
2.10176 -0.269854 0 
1.736 -0.685765 0 
1.96996 -1.81281 0 
1.12593 -2.50802 0 
1.09086 -0.791005 0 
0.611861 -1.29358 0 
0.964237 -2.22158 0 
-0.121428 -2.40009 0 
0.295482 -0.986396 0 
-1.0133 -1.47151 0 
3.32279 -0.274927 0 
2.75798 -0.806633 0 
3.17619 0.278782 0 
2.53275 -0.162817 0 
2.75871 0.122275 0 
2.43528 -0.432594 0 
2.5521 0.252702 0 
2.25876 -0.0916493 0 
1.58553 -0.626394 0 
1.3169 -0.966067 0 
1.22909 -0.501991 0 
0.852825 -0.9506 0 
0.981531 -1.0168 0 
-0.73952 -1.35221 0 
0.903786 -0.957764 0 
-0.55403 -1.27791 0 
3.26085 0.210237 0 
2.42649 0.282246 0 
3.12944 0.768132 0 
2.01997 0.567169 0 
2.59186 0.148531 0 
2.30948 0.0913221 0 
2.44405 0.436816 0 
1.91743 0.308444 0 
1.48258 -0.206431 0 
0.835898 -0.354196 0 
0.855199 -0.325068 0 
0.552602 0.07718 0 
0.445999 -0.34409 0 
-0.0272865 -0.613502 0 
0.0532198 0.419678 0 
-0.757055 -0.252746 0 
3.50968 0.823641 0 
2.06665 0.23347 0 
2.62956 1.86745 0 
1.58254 1.52514 0 
2.48163 0.356716 0 
1.99217 0.580009 0 
1.99933 1.55636 0 
1.22962 2.07918 0 
1.22606 0.355615 0 
0.760795 0.159235 0 
0.707369 1.6282 0 
0.0207505 0.957408 0 
0.4084 0.251739 0 
-0.853947 -0.505402 0 
-0.524531 1.74739 0 
-0.829389 0.768563 0 
SCALARS mass double 1
LOOKUP_TABLE default
0.625
0.625
0.625
0.625
0.625
0.625
0.625
0.625
0.625
0.625
0.625
0.625
0.625
0.625
0.625
0.625
0.625
0.625
0.625
0.625
0.625
0.625
0.625
0.625
0.625
0.625
0.625
0.625
0.625
0.625
0.625
0.625
0.625
0.625
0.625
0.625
0.625
0.625
0.625
0.625
0.625
0.625
0.625
0.625
0.625
0.625
0.625
0.625
0.625
0.625
0.625
0.625
0.625
0.625
0.625
0.625
0.625
0.625
0.625
0.625
0.625
0.625
0.625
0.625
SCALARS volume double 1
LOOKUP_TABLE default
0.000637903
0.000633555
0.000628465
0.0006435
0.000625698
0.000646899
0.000606296
0.000623966
0.000641613
0.000639132
0.000612561
0.000630401
0.000625623
0.000591492
0.000637535
0.000634596
0.000623409
0.000626314
0.000629346
0.000638473
0.000633155
0.000635595
0.000633469
0.000651124
0.00059524
0.000626319
0.000671217
0.000649986
0.000622078
0.00062767
0.000626516
0.000590728
0.000636949
0.000637662
0.000631562
0.000644039
0.000642419
0.00065023
0.000631898
0.000647594
0.000632077
0.00060182
0.000653614
0.000619037
0.000658334
0.000612023
0.000628364
0.000591277
0.000638216
0.000625488
0.000638358
0.000623821
0.000620623
0.00063286
0.000640943
0.000641497
0.000645957
0.000661534
0.000626335
0.000635171
0.000633838
0.000627713
0.000622973
0.000633787
VECTORS momentum double
2.5903 -0.700546 0 
1.91184 -0.97638 0 
2.27287 0.124009 0 
1.47598 -0.410069 0 
1.7421 -0.974936 0 
1.63003 -1.24184 0 
1.3136 -0.168659 0 
1.085 -0.428603 0 
1.23122 -1.13301 0 
0.703709 -1.56751 0 
0.681788 -0.494378 0 
0.382413 -0.808487 0 
0.602648 -1.38849 0 
-0.0758924 -1.50006 0 
0.184676 -0.616498 0 
-0.633312 -0.919695 0 
2.07675 -0.171829 0 
1.72374 -0.504146 0 
1.98512 0.174239 0 
1.58297 -0.10176 0 
1.72419 0.0764216 0 
1.52205 -0.270371 0 
1.59506 0.157939 0 
1.41172 -0.0572808 0 
0.990954 -0.391496 0 
0.823065 -0.603792 0 
0.768183 -0.313744 0 
0.533015 -0.594125 0 
0.613457 -0.635501 0 
-0.4622 -0.845129 0 
0.564866 -0.598602 0 
-0.346269 -0.798697 0 
2.03803 0.131398 0 
1.51656 0.176404 0 
1.9559 0.480083 0 
1.26248 0.354481 0 
1.61991 0.0928319 0 
1.44343 0.0570763 0 
1.52753 0.27301 0 
1.19839 0.192778 0 
0.92661 -0.129019 0 
0.522436 -0.221373 0 
0.5345 -0.203168 0 
0.345376 0.0482375 0 
0.27875 -0.215056 0 
-0.017054 -0.383438 0 
0.0332624 0.262299 0 
-0.473159 -0.157966 0 
2.19355 0.514775 0 
1.29165 0.145919 0 
1.64347 1.16716 0 
0.989089 0.953214 0 
1.55102 0.222948 0 
1.24511 0.362506 0 
1.24958 0.972728 0 
0.768511 1.29949 0 
0.766286 0.22226 0 
0.475497 0.0995216 0 
0.442105 1.01762 0 
0.0129691 0.59838 0 
0.25525 0.157337 0 
-0.533717 -0.315876 0 
-0.327832 1.09212 0 
-0.518368 0.480352 0 
VECTORS body_force double
0 -9.81 0 
0 -9.81 0 
0 -9.81 0 
0 -9.81 0 
0 -9.81 0 
0 -9.81 0 
0 -9.81 0 
0 -9.81 0 
0 -9.81 0 
0 -9.81 0 
0 -9.81 0 
0 -9.81 0 
0 -9.81 0 
0 -9.81 0 
0 -9.81 0 
0 -9.81 0 
0 -9.81 0 
0 -9.81 0 
0 -9.81 0 
0 -9.81 0 
0 -9.81 0 
0 -9.81 0 
0 -9.81 0 
0 -9.81 0 
0 -9.81 0 
0 -9.81 0 
0 -9.81 0 
0 -9.81 0 
0 -9.81 0 
0 -9.81 0 
0 -9.81 0 
0 -9.81 0 
0 -9.81 0 
0 -9.81 0 
0 -9.81 0 
0 -9.81 0 
0 -9.81 0 
0 -9.81 0 
0 -9.81 0 
0 -9.81 0 
0 -9.81 0 
0 -9.81 0 
0 -9.81 0 
0 -9.81 0 
0 -9.81 0 
0 -9.81 0 
0 -9.81 0 
0 -9.81 0 
0 -9.81 0 
0 -9.81 0 
0 -9.81 0 
0 -9.81 0 
0 -9.81 0 
0 -9.81 0 
0 -9.81 0 
0 -9.81 0 
0 -9.81 0 
0 -9.81 0 
0 -9.81 0 
0 -9.81 0 
0 -9.81 0 
0 -9.81 0 
0 -9.81 0 
0 -9.81 0 
TENSORS cauchy_stress double
2662.45 904.858 0
904.858 1267.4 0
0 0 0

-1064.24 1572.19 0
1572.19 3678.79 0
0 0 0

1065.16 -4282.43 0
-4282.43 -1.80912 0
0 0 0

1085.23 2611.18 0
2611.18 4524.32 0
0 0 0

1800.58 722.499 0
722.499 -1585.97 0
0 0 0

4101.94 623.025 0
623.025 2520.9 0
0 0 0

-890.982 -2524.2 0
-2524.2 -4952.09 0
0 0 0

-4219.37 -2991.15 0
-2991.15 3900.85 0
0 0 0

2159.91 -768.421 0
-768.421 2885.13 0
0 0 0

1040.67 -3195.69 0
-3195.69 3259.29 0
0 0 0

-2391.84 -2402.63 0
-2402.63 -1474.07 0
0 0 0

-25.6513 -3545.19 0
-3545.19 1680.49 0
0 0 0

-3830.85 1311.48 0
1311.48 4022.47 0
0 0 0

-8960.24 1828.24 0
1828.24 -1636.57 0
0 0 0

-629.542 2644.34 0
2644.34 4448.34 0
0 0 0

2785.14 506.1 0
506.1 144.893 0
0 0 0

1398.2 -1566.04 0
-1566.04 -1888.47 0
0 0 0

-2095.91 -1271.41 0
-1271.41 2499.85 0
0 0 0

-1055.87 -2265.07 0
-2265.07 2388.5 0
0 0 0

3674.89 1197.42 0
1197.42 426.557 0
0 0 0

2880.8 -1816.28 0
-1816.28 -387.855 0
0 0 0

1313.96 -1778.4 0
-1778.4 1918.83 0
0 0 0

-2016.73 -956.308 0
-956.308 4605.03 0
0 0 0

4537.27 -1496.46 0
-1496.46 3337.32 0
0 0 0

-7849.69 -894.257 0
-894.257 -1532.42 0
0 0 0

2103.66 -2114.92 0
-2114.92 -1698.26 0
0 0 0

6459.32 -622.571 0
-622.571 7260.08 0
0 0 0

3215.49 -3016.22 0
-3016.22 4322.75 0
0 0 0

-3235.58 -873.981 0
-873.981 2334.24 0
0 0 0

-4176.7 261.543 0
261.543 4996.64 0
0 0 0

-2056.69 399.869 0
399.869 2522.46 0
0 0 0

-11056.2 -15.4829 0
-15.4829 210.739 0
0 0 0

1862.9 1350.47 0
1350.47 1779.13 0
0 0 0

1577.2 3117.42 0
3117.42 2279.89 0
0 0 0

124.985 891.594 0
891.594 1883.67 0
0 0 0

-632.522 -1194.45 0
-1194.45 6403.18 0
0 0 0

2420.63 -3848.07 0
-3848.07 2865.61 0
0 0 0

3193.75 -4857.17 0
-4857.17 4416.87 0
0 0 0

-999.332 -39.4273 0
-39.4273 3110.22 0
0 0 0

6827.62 1692.5 0
1692.5 1.66471 0
0 0 0

2175.57 -4959.32 0
-4959.32 -10.2213 0
0 0 0

-5190.95 -3125.88 0
-3125.88 -2077.07 0
0 0 0

2790.43 1619.76 0
1619.76 5818.16 0
0 0 0

447.612 5542.94 0
5542.94 -2291.2 0
0 0 0

7887.03 -627.902 0
-627.902 2105.31 0
0 0 0

-247.556 378.626 0
378.626 -3787.26 0
0 0 0

946.774 -1303.19 0
-1303.19 85.425 0
0 0 0

-7617.63 -1975.73 0
-1975.73 -3049.22 0
0 0 0

4515.36 -524.741 0
-524.741 -491.276 0
0 0 0

2205.95 -731.925 0
-731.925 -2055.96 0
0 0 0

1017.88 -1114.13 0
-1114.13 3049.06 0
0 0 0

-2057.6 1923.61 0
1923.61 1694.44 0
0 0 0

-1247.94 -4139.12 0
-4139.12 -103.595 0
0 0 0

-1156.72 -1388.73 0
-1388.73 3560.1 0
0 0 0

1269.67 -1160.85 0
-1160.85 3574.26 0
0 0 0

-821.032 -896.668 0
-896.668 5831.27 0
0 0 0

3120.47 -729.973 0
-729.973 3221.99 0
0 0 0

6228.78 1818.84 0
1818.84 4696.22 0
0 0 0

-1143.33 3180.36 0
3180.36 1553.73 0
0 0 0

-456.849 -440.065 0
-440.065 3561.07 0
0 0 0

1116.29 1126.68 0
1126.68 1584.02 0
0 0 0

-1596.63 -2611.49 0
-2611.49 2429.7 0
0 0 0

-2247.03 1413.54 0
1413.54 1622.21 0
0 0 0

896.362 -378.756 0
-378.756 1788.49 0
0 0 0

TENSORS velocity_gradient double
-4.75515 14.0405 0
-15.2663 -2.29485 0
0 0 0

-1.21859 17.1803 0
-16.9961 2.00093 0
0 0 0

4.49845 16.3545 0
-12.3107 0.232631 0
0 0 0

1.03084 16.3807 0
-12.6496 0.554726 0
0 0 0

1.77807 16.3823 0
-18.835 2.49062 0
0 0 0

1.66926 20.1153 0
-19.1179 2.74645 0
0 0 0

-2.72589 17.8817 0
-13.5177 1.70777 0
0 0 0

-1.30895 18.774 0
-16.7127 2.99383 0
0 0 0

0.311386 20.5027 0
-18.775 2.64861 0
0 0 0

-1.31886 22.2161 0
-17.2582 0.462222 0
0 0 0

-0.126637 19.522 0
-18.4825 3.03913 0
0 0 0

-1.78132 20.5642 0
-16.7165 2.39729 0
0 0 0

-5.42127 21.6777 0
-14.4662 -0.463653 0
0 0 0

-1.43697 15.1985 0
-13.6452 0.862094 0
0 0 0

-3.3092 19.3303 0
-14.8564 1.18716 0
0 0 0

-3.15847 17.1642 0
-14.4613 0.427049 0
0 0 0

4.25252 12.2715 0
-12.0067 -0.0711666 0
0 0 0

0.138088 12.2635 0
-12.8491 -0.365326 0
0 0 0

1.65877 9.88975 0
-9.81136 -1.11852 0
0 0 0

1.21295 9.9861 0
-10.2304 -1.02796 0
0 0 0

-3.38746 17.0507 0
-13.6994 2.24876 0
0 0 0

-4.49945 17.7234 0
-14.2096 2.62448 0
0 0 0

0.247672 16.1164 0
-10.3698 2.13438 0
0 0 0

-3.57791 16.6077 0
-12.8573 2.17955 0
0 0 0

-5.07577 19.995 0
-14.5196 3.90944 0
0 0 0

-4.02191 19.8013 0
-14.1527 3.87527 0
0 0 0

-4.84982 21.2552 0
-14.4428 4.38479 0
0 0 0

-3.69633 20.9135 0
-14.0386 4.26504 0
0 0 0

-3.26147 17.8942 0
-14.1717 0.989076 0
0 0 0

-3.09661 17.5566 0
-14.2737 0.548037 0
0 0 0

-3.10753 17.5623 0
-13.8148 0.582309 0
0 0 0

-3.18813 17.5779 0
-13.8029 0.580006 0
0 0 0

1.54197 9.47536 0
-9.92114 -1.50801 0
0 0 0

1.11526 9.54087 0
-10.3222 -1.44644 0
0 0 0

-0.554332 11.6016 0
-13.0138 -0.740501 0
0 0 0

2.40855 12.0407 0
-12.2493 -0.255893 0
0 0 0

-0.167116 14.4771 0
-10.3215 2.32521 0
0 0 0

-1.9091 15.0113 0
-10.1187 2.26302 0
0 0 0

2.79895 13.3078 0
-14.814 1.66388 0
0 0 0

-0.523218 18.8655 0
-12.6846 1.13233 0
0 0 0

-1.35104 22.62 0
-11.7474 3.08573 0
0 0 0

0.169607 22.1108 0
-14.169 3.89669 0
0 0 0

-0.944606 24.118 0
-12.3946 0.700227 0
0 0 0

0.510587 22.114 0
-14.5484 1.07044 0
0 0 0

-0.814725 17.6625 0
-14.4491 0.559431 0
0 0 0

-2.94299 17.5171 0
-13.8673 0.588278 0
0 0 0

1.88466 18.8927 0
-15.1686 0.318371 0
0 0 0

3.08919 17.1858 0
-15.3368 -0.846431 0
0 0 0

0.505541 14.7559 0
-12.5959 0.503062 0
0 0 0

2.90048 13.6508 0
-12.5945 -2.65746 0
0 0 0

7.1014 14.4945 0
-15.0389 -0.501791 0
0 0 0

4.19037 11.9394 0
-14.315 -3.01324 0
0 0 0

3.21128 13.5574 0
-16.1364 -1.59336 0
0 0 0

2.87772 23.0737 0
-18.9798 -1.04862 0
0 0 0

0.910467 13.036 0
-12.3943 -3.7346 0
0 0 0

1.42133 21.2009 0
-18.0322 -2.05831 0
0 0 0

0.929426 23.7012 0
-19.8174 -0.778854 0
0 0 0

-0.244903 20.3807 0
-20.3197 0.124942 0
0 0 0

0.455958 21.7459 0
-20.021 -1.6195 0
0 0 0

-0.0847084 20.9724 0
-20.2484 0.388277 0
0 0 0

1.4578 20.1075 0
-17.4673 0.122532 0
0 0 0

3.17746 13.3014 0
-15.1828 -2.81724 0
0 0 0

0.483469 20.7906 0
-19.9956 0.307401 0
0 0 0

-0.979485 11.2205 0
-16.5993 1.02668 0
0 0 0

SCALARS active double 1
LOOKUP_TABLE default
1
1
1
1
1
1
1
1
1
1
1
1
1
1
1
1
1
1
1
1
1
1
1
1
1
1
1
1
1
1
1
1
1
1
1
1
1
1
1
1
1
1
1
1
1
1
1
1
1
1
1
1
1
1
1
1
1
1
1
1
1
1
1
1
SCALARS extent double 1
LOOKUP_TABLE default
0.0125
0.0125
0.0125
0.0125
0.0125
0.0125
0.0125
0.0125
0.0125
0.0125
0.0125
0.0125
0.0125
0.0125
0.0125
0.0125
0.0125
0.0125
0.0125
0.0125
0.0125
0.0125
0.0125
0.0125
0.0125
0.0125
0.0125
0.0125
0.0125
0.0125
0.0125
0.0125
0.0125
0.0125
0.0125
0.0125
0.0125
0.0125
0.0125
0.0125
0.0125
0.0125
0.0125
0.0125
0.0125
0.0125
0.0125
0.0125
0.0125
0.0125
0.0125
0.0125
0.0125
0.0125
0.0125
0.0125
0.0125
0.0125
0.0125
0.0125
0.0125
0.0125
0.0125
0.0125
SCALARS pressure double 1
LOOKUP_TABLE default
-1964.93
-1307.27
-531.674
-2804.78
-107.301
-3311.42
2921.54
159.262
-2522.52
-2149.98
1932.95
-827.419
-95.806
5298.4
-1909.4
-1465.01
245.135
-201.971
-666.315
-2050.72
-1246.47
-1616.4
-1294.15
-3937.3
4691.06
-202.704
-6859.7
-3769.12
450.67
-409.968
-232.887
5422.73
-1821.01
-1928.55
-1004.33
-2885.33
-2643.12
-3805.31
-1055.44
-3414.64
-1082.68
3634.01
-4304.3
921.795
-4996.17
2017.41
-516.099
5333.43
-2012.04
-74.9935
-2033.47
181.58
675.766
-1201.69
-2421.96
-2505.12
-3171.23
-5462.5
-205.198
-1552.11
-1350.15
-416.534
312.412
-1342.43
SCALARS density double 1
LOOKUP_TABLE default
979.772
986.496
994.486
971.252
998.885
966.147
1030.85
1001.66
974.107
977.888
1020.31
991.432
999.004
1056.65
980.338
984.879
1002.55
997.902
993.094
978.898
987.12
983.33
986.631
959.879
1050
997.894
931.144
961.559
1004.7
995.745
997.581
1058.02
981.24
980.143
989.609
970.438
972.886
961.198
989.083
965.111
988.803
1038.52
956.222
1009.63
949.367
1021.2
994.647
1057.03
979.292
999.22
979.074
1001.89
1007.05
987.58
975.126
974.283
967.557
944.774
997.868
983.988
986.057
995.677
1003.25
986.136
