# vtk DataFile Version 3.0
Frame: 52, Time: 0.884
ASCII
DATASET UNSTRUCTURED_GRID
POINTS 64 double
0.396509 0.351139 0 
0.419506 0.339971 0 
0.385267 0.325373 0 
0.409971 0.314121 0 
0.441997 0.32862 0 
0.464836 0.318276 0 
0.433082 0.304558 0 
0.456717 0.292784 0 
0.488489 0.309039 0 
0.511625 0.297789 0 
0.479474 0.28312 0 
0.503244 0.273659 0 
0.53489 0.288093 0 
0.558888 0.279062 0 
0.526386 0.264003 0 
0.550063 0.253399 0 
0.376132 0.303583 0 
0.399598 0.290986 0 
0.364114 0.281522 0 
0.389041 0.268762 0 
0.422016 0.280467 0 
0.444438 0.269935 0 
0.41008 0.257208 0 
0.433023 0.246407 0 
0.467825 0.259309 0 
0.490694 0.250076 0 
0.456704 0.236731 0 
0.479113 0.226047 0 
0.514891 0.240812 0 
0.537949 0.230029 0 
0.503187 0.216817 0 
0.526511 0.206128 0 
0.355026 0.259157 0 
0.377082 0.245251 0 
0.343534 0.237302 0 
0.36378 0.222453 0 
0.398602 0.233925 0 
0.421211 0.222174 0 
0.386332 0.209842 0 
0.409801 0.199032 0 
0.444999 0.212197 0 
0.468579 0.202457 0 
0.432071 0.188959 0 
0.455928 0.179988 0 
0.491405 0.192008 0 
0.514358 0.181737 0 
0.478758 0.168498 0 
0.500955 0.157926 0 
0.329272 0.217772 0 
0.350353 0.20135 0 
0.316897 0.199805 0 
0.338828 0.17927 0 
0.373916 0.188719 0 
0.397847 0.176464 0 
0.361387 0.16631 0 
0.383376 0.15309 0 
0.420941 0.166397 0 
0.443811 0.156913 0 
0.4073 0.142097 0 
0.432074 0.131497 0 
0.468149 0.144717 0 
0.491347 0.134497 0 
0.455288 0.120404 0 
0.481214 0.111462 0 
CELLS 64 128
1 0
1 1
1 2
1 3
1 4
1 5
1 6
1 7
1 8
1 9
1 10
1 11
1 12
1 13
1 14
1 15
1 16
1 17
1 18
1 19
1 20
1 21
1 22
1 23
1 24
1 25
1 26
1 27
1 28
1 29
1 30
1 31
1 32
1 33
1 34
1 35
1 36
1 37
1 38
1 39
1 40
1 41
1 42
1 43
1 44
1 45
1 46
1 47
1 48
1 49
1 50
1 51
1 52
1 53
1 54
1 55
1 56
1 57
1 58
1 59
1 60
1 61
1 62
1 63
CELL_TYPES 64
1
1
1
1
1
1
1
1
1
1
1
1
1
1
1
1
1
1
1
1
1
1
1
1
1
1
1
1
1
1
1
1
1
1
1
1
1
1
1
1
1
1
1
1
1
1
1
1
1
1
1
1
1
1
1
1
1
1
1
1
1
1
1
1
POINT_DATA 64
VECTORS displacement double
-0.115991 -0.261361 0 
-0.0929944 -0.297529 0 
-0.152233 -0.287127 0 
-0.127529 -0.323379 0 
-0.0705027 -0.33388 0 
-0.0476639 -0.369224 0 
-0.104418 -0.357942 0 
-0.0807832 -0.394716 0 
-0.0240108 -0.403461 0 
-0.000874524 -0.439711 0 
-0.0580259 -0.42938 0 
-0.0342556 -0.463841 0 
0.0223897 -0.474407 0 
0.0463877 -0.508438 0 
-0.0111136 -0.498497 0 
0.0125635 -0.534101 0 
-0.186368 -0.308917 0 
-0.162902 -0.346514 0 
-0.223386 -0.330978 0 
-0.198459 -0.368738 0 
-0.140484 -0.382033 0 
-0.118062 -0.417565 0 
-0.17742 -0.405292 0 
-0.154477 -0.441093 0 
-0.0946749 -0.453191 0 
-0.0718062 -0.487424 0 
-0.130796 -0.475769 0 
-0.108387 -0.511453 0 
-0.0476092 -0.521688 0 
-0.0245512 -0.557471 0 
-0.0843126 -0.545683 0 
-0.0609888 -0.581372 0 
-0.257474 -0.353343 0 
-0.235418 -0.392249 0 
-0.293966 -0.375198 0 
-0.27372 -0.415047 0 
-0.213898 -0.428575 0 
-0.191289 -0.465326 0 
-0.251168 -0.452658 0 
-0.227699 -0.488468 0 
-0.167501 -0.500303 0 
-0.143921 -0.535043 0 
-0.205429 -0.523541 0 
-0.181572 -0.557512 0 
-0.121095 -0.570492 0 
-0.0981417 -0.605763 0 
-0.158742 -0.594002 0 
-0.136545 -0.629574 0 
-0.333228 -0.394728 0 
-0.312147 -0.43615 0 
-0.370603 -0.412695 0 
-0.348672 -0.45823 0 
-0.288584 -0.473781 0 
-0.264653 -0.511036 0 
-0.326113 -0.49619 0 
-0.304124 -0.53441 0 
-0.241559 -0.546103 0 
-0.218689 -0.580587 0 
-0.2802 -0.570403 0 
-0.255426 -0.606003 0 
-0.194351 -0.617783 0 
-0.171153 -0.653003 0 
-0.232212 -0.642096 0 
-0.206286 -0.676038 0 
VECTORS velocity double
-0.485112 0.150653 0 
-0.389536 0.326788 0 
-0.285942 -0.278721 0 
-0.251213 0.202463 0 
-0.578442 0.497626 0 
-0.633497 0.98347 0 
-0.0904605 0.0689535 0 
0.198367 0.0766186 0 
-0.646965 0.803968 0 
0.0814029 0.899501 0 
-0.0627188 0.991751 0 
0.213224 0.782733 0 
-0.575745 1.1308 0 
-0.0857675 1.29664 0 
0.142459 0.66203 0 
0.391328 1.20331 0 
0.0444569 0.0495458 0 
0.223267 -0.0380156 0 
0.0832125 0.102412 0 
0.0340511 0.464771 0 
-0.0931563 0.294502 0 
0.43535 -0.0872537 0 
-0.181714 0.161747 0 
0.156151 0.337853 0 
0.202613 0.532938 0 
0.331161 0.932918 0 
-0.122516 0.565516 0 
0.258137 0.690372 0 
0.260547 0.710963 0 
0.222149 0.973491 0 
0.415597 0.862145 0 
0.152404 1.12811 0 
-0.125554 -0.296753 0 
0.226107 0.425109 0 
0.365197 -0.321075 0 
0.255337 -0.0348239 0 
0.197244 -0.49733 0 
0.295302 -0.0988385 0 
0.0776649 -0.0546742 0 
-0.260479 0.293136 0 
0.310812 0.630863 0 
0.457853 0.741717 0 
-0.232032 0.181103 0 
0.309374 0.88878 0 
0.179146 0.293121 0 
0.656347 0.789892 0 
-0.0406202 0.810078 0 
0.382288 0.87563 0 
-0.144629 -0.143478 0 
-0.169068 -0.349653 0 
-0.359047 0.667416 0 
-0.698906 -0.606262 0 
0.252225 0.0111882 0 
-0.0160939 0.182587 0 
0.222516 0.300104 0 
0.163157 0.428511 0 
0.244183 0.2339 0 
0.409881 0.753496 0 
0.720874 0.0162199 0 
1.10068 0.0206596 0 
0.0631148 0.540426 0 
0.656767 1.07709 0 
0.782407 0.586384 0 
0.898664 0.79948 0 
SCALARS mass double 1
LOOKUP_TABLE default
0.625
0.625
0.625
0.625
0.625
0.625
0.625
0.625
0.625
0.625
0.625
0.625
0.625
0.625
0.625
0.625
0.625
0.625
0.625
0.625
0.625
0.625
0.625
0.625
0.625
0.625
0.625
0.625
0.625
0.625
0.625
0.625
0.625
0.625
0.625
0.625
0.625
0.625
0.625
0.625
0.625
0.625
0.625
0.625
0.625
0.625
0.625
0.625
0.625
0.625
0.625
0.625
0.625
0.625
0.625
0.625
0.625
0.625
0.625
0.625
0.625
0.625
0.625
0.625
SCALARS volume double 1
LOOKUP_TABLE default
0.000621259
0.000616052
0.000614993
0.000623429
0.000629557
0.000609509
0.000623011
0.0005906
0.000629125
0.000617498
0.000637204
0.000629338
0.000629247
0.000639281
0.000609149
0.000627676
0.000612524
0.000614063
0.000613536
0.000620852
0.000604086
0.000638385
0.000635038
0.000606256
0.00061296
0.00064559
0.000610788
0.000625936
0.000633262
0.000618909
0.000639672
0.000628914
0.000599688
0.00060536
0.000609616
0.000626944
0.000594412
0.000658544
0.000631887
0.000605384
0.000636564
0.000633025
0.000624964
0.000632263
0.000624442
0.000639223
0.00062973
0.000623274
0.000582604
0.000600184
0.000587357
0.000698115
0.00059831
0.000643444
0.000626251
0.000670463
0.000605061
0.000646464
0.000635449
0.000637864
0.000646168
0.000614707
0.000623313
0.000616755
VECTORS momentum double
-0.303195 0.0941583 0 
-0.24346 0.204242 0 
-0.178713 -0.174201 0 
-0.157008 0.126539 0 
-0.361526 0.311016 0 
-0.395936 0.614669 0 
-0.0565378 0.0430959 0 
0.123979 0.0478866 0 
-0.404353 0.50248 0 
0.0508768 0.562188 0 
-0.0391992 0.619845 0 
0.133265 0.489208 0 
-0.35984 0.706752 0 
-0.0536047 0.810398 0 
0.0890367 0.413769 0 
0.24458 0.752069 0 
0.0277856 0.0309661 0 
0.139542 -0.0237598 0 
0.0520078 0.0640073 0 
0.0212819 0.290482 0 
-0.0582227 0.184064 0 
0.272094 -0.0545336 0 
-0.113571 0.101092 0 
0.0975945 0.211158 0 
0.126633 0.333086 0 
0.206975 0.583074 0 
-0.0765728 0.353448 0 
0.161336 0.431482 0 
0.162842 0.444352 0 
0.138843 0.608432 0 
0.259748 0.53884 0 
0.0952528 0.70507 0 
-0.0784715 -0.185471 0 
0.141317 0.265693 0 
0.228248 -0.200672 0 
0.159585 -0.0217649 0 
0.123278 -0.310831 0 
0.184564 -0.0617741 0 
0.0485406 -0.0341714 0 
-0.162799 0.18321 0 
0.194257 0.39429 0 
0.286158 0.463573 0 
-0.14502 0.113189 0 
0.193359 0.555488 0 
0.111966 0.183201 0 
0.410217 0.493683 0 
-0.0253876 0.506299 0 
0.23893 0.547269 0 
-0.0903932 -0.0896739 0 
-0.105667 -0.218533 0 
-0.224404 0.417135 0 
-0.436816 -0.378914 0 
0.157641 0.0069926 0 
-0.0100587 0.114117 0 
0.139073 0.187565 0 
0.101973 0.267819 0 
0.152614 0.146187 0 
0.256175 0.470935 0 
0.450546 0.0101374 0 
0.687924 0.0129123 0 
0.0394467 0.337766 0 
0.410479 0.673183 0 
0.489004 0.36649 0 
0.561665 0.499675 0 
VECTORS body_force double
0 -9.81 0 
0 -9.81 0 
0 -9.81 0 
0 -9.81 0 
0 -9.81 0 
0 -9.81 0 
0 -9.81 0 
0 -9.81 0 
0 -9.81 0 
0 -9.81 0 
0 -9.81 0 
0 -9.81 0 
0 -9.81 0 
0 -9.81 0 
0 -9.81 0 
0 -9.81 0 
0 -9.81 0 
0 -9.81 0 
0 -9.81 0 
0 -9.81 0 
0 -9.81 0 
0 -9.81 0 
0 -9.81 0 
0 -9.81 0 
0 -9.81 0 
0 -9.81 0 
0 -9.81 0 
0 -9.81 0 
0 -9.81 0 
0 -9.81 0 
0 -9.81 0 
0 -9.81 0 
0 -9.81 0 
0 -9.81 0 
0 -9.81 0 
0 -9.81 0 
0 -9.81 0 
0 -9.81 0 
0 -9.81 0 
0 -9.81 0 
0 -9.81 0 
0 -9.81 0 
0 -9.81 0 
0 -9.81 0 
0 -9.81 0 
0 -9.81 0 
0 -9.81 0 
0 -9.81 0 
0 -9.81 0 
0 -9.81 0 
0 -9.81 0 
0 -9.81 0 
0 -9.81 0 
0 -9.81 0 
0 -9.81 0 
0 -9.81 0 
0 -9.81 0 
0 -9.81 0 
0 -9.81 0 
0 -9.81 0 
0 -9.81 0 
0 -9.81 0 
0 -9.81 0 
0 -9.81 0 
TENSORS cauchy_stress double
-988.69 917.627 0
917.627 -165.956 0
0 0 0

-775.224 1723.96 0
1723.96 -1997.97 0
0 0 0

-1398.52 -2290.38 0
-2290.38 -1705.41 0
0 0 0

-1736.44 -1036.86 0
-1036.86 1252.47 0
0 0 0

384.169 -798.304 0
-798.304 1012.78 0
0 0 0

-3583.09 3063.15 0
3063.15 -1243.34 0
0 0 0

-2364.61 -1431.72 0
-1431.72 1751.63 0
0 0 0

-5858.26 1601.83 0
1601.83 -5028.71 0
0 0 0

1795.19 1570.81 0
1570.81 -530.161 0
0 0 0

-2125.41 1269.57 0
1269.57 -196.953 0
0 0 0

93.8689 1412.25 0
1412.25 3624.87 0
0 0 0

-1601.53 -739.51 0
-739.51 2931.73 0
0 0 0

547.751 2296.34 0
2296.34 754.699 0
0 0 0

645.936 -530.779 0
-530.779 3698.81 0
0 0 0

-2875.08 -487.295 0
-487.295 -2065.06 0
0 0 0

-1719.65 991.554 0
991.554 2541.31 0
0 0 0

-706.632 574.69 0
574.69 -3170.83 0
0 0 0

-896.163 -388.35 0
-388.35 -2498.72 0
0 0 0

1553.59 -2191.11 0
-2191.11 -5113.6 0
0 0 0

-2859.12 -1446.28 0
-1446.28 1578.59 0
0 0 0

-4748.9 3082.21 0
3082.21 -1796.45 0
0 0 0

1188.22 2641.49 0
2641.49 2886.91 0
0 0 0

-1500.4 -1255.14 0
-1255.14 4564.56 0
0 0 0

-2203.76 3113.29 0
3113.29 -3652.01 0
0 0 0

-689.964 897.513 0
897.513 -3050.89 0
0 0 0

4482.06 3376.02 0
3376.02 1751.28 0
0 0 0

-2700.76 2231.17 0
2231.17 -1722.65 0
0 0 0

1904.22 1991 0
1991 -1616.29 0
0 0 0

1228.79 2443.94 0
2443.94 1296.73 0
0 0 0

-2585.24 374.744 0
374.744 701.736 0
0 0 0

4957.7 3412.47 0
3412.47 -495.355 0
0 0 0

-20.7174 1355.98 0
1355.98 1221.12 0
0 0 0

-3235.55 -489.038 0
-489.038 -4714.75 0
0 0 0

-6936.99 -810.395 0
-810.395 796.916 0
0 0 0

-486.216 -2642.76 0
-2642.76 -4306.41 0
0 0 0

1937.28 2393.71 0
2393.71 -1340.01 0
0 0 0

-6230.96 2633.14 0
2633.14 -3418.98 0
0 0 0

6725.68 -1681.62 0
-1681.62 3328.17 0
0 0 0

2738.35 1419.72 0
1419.72 -630.756 0
0 0 0

-4668.37 4594.43 0
4594.43 -1464.18 0
0 0 0

3377.97 5042.13 0
5042.13 147.595 0
0 0 0

32.8503 -1406.94 0
-1406.94 2420.77 0
0 0 0

2507.93 2598.63 0
2598.63 -2519.03 0
0 0 0

1821.2 1163.77 0
1163.77 400.607 0
0 0 0

-2247.86 2059.4 0
2059.4 2076.2 0
0 0 0

3213.81 2717.58 0
2717.58 1113.57 0
0 0 0

2989.69 4946.55 0
4946.55 -1539.74 0
0 0 0

-595.429 1624.34 0
1624.34 63.6056 0
0 0 0

-4463.72 -4669.12 0
-4669.12 -9044.62 0
0 0 0

-3575.82 -2578.86 0
-2578.86 -4215.67 0
0 0 0

-12131.8 -15415.6 0
-15415.6 185.751 0
0 0 0

8330.44 -3339.63 0
-3339.63 12945.1 0
0 0 0

-3503.74 -1768.48 0
-1768.48 -4889.21 0
0 0 0

5267.78 606.534 0
606.534 325.289 0
0 0 0

282.338 3013.53 0
3013.53 102.205 0
0 0 0

11785.1 1424.06 0
1424.06 1717.98 0
0 0 0

-2904.39 3627.88 0
3627.88 -3330.67 0
0 0 0

4245.58 1771.43 0
1771.43 2247.88 0
0 0 0

5147.3 1474.37 0
1474.37 -1958.9 0
0 0 0

617.987 44.1306 0
44.1306 3299.9 0
0 0 0

5320.4 1859.34 0
1859.34 1084.85 0
0 0 0

-2860.26 -966.718 0
-966.718 -333.048 0
0 0 0

845.367 889.97 0
889.97 -1365.06 0
0 0 0

-1531.19 190.006 0
190.006 -1022.49 0
0 0 0

TENSORS velocity_gradient double
-0.612188 -5.74995 0
3.78915 0.585627 0
0 0 0

-2.62229 -6.45897 0
7.19514 1.56108 0
0 0 0

-0.915792 -6.23376 0
2.27758 0.298687 0
0 0 0

-1.74964 -6.1296 0
6.45644 1.28228 0
0 0 0

-2.23296 -7.22046 0
6.86557 2.20568 0
0 0 0

-1.45237 -8.42905 0
8.31074 2.01771 0
0 0 0

-1.39839 -6.62874 0
6.19639 1.61002 0
0 0 0

-0.260438 -6.15374 0
8.72253 0.0766016 0
0 0 0

-0.861575 -9.90875 0
8.56503 1.38081 0
0 0 0

0.00276492 -6.81888 0
4.37628 0.279145 0
0 0 0

-0.156706 -6.39257 0
8.63689 0.273773 0
0 0 0

-0.208817 -6.63626 0
5.61615 0.406121 0
0 0 0

-0.390868 -6.93348 0
4.57631 0.211692 0
0 0 0

0.406873 -6.80764 0
4.90295 -0.399302 0
0 0 0

-0.167208 -6.85281 0
4.74141 0.271235 0
0 0 0

0.00623517 -5.45343 0
5.56646 0.445159 0
0 0 0

-1.49 -5.5985 0
1.37084 0.0292747 0
0 0 0

-1.06147 -3.28267 0
3.60745 -0.315244 0
0 0 0

-0.953244 -1.8083 0
1.97039 1.23778 0
0 0 0

-0.439521 -2.80754 0
2.59264 0.0274383 0
0 0 0

-0.157015 -4.49668 0
5.84887 -0.275849 0
0 0 0

0.423446 -5.74939 0
5.87931 -0.0419161 0
0 0 0

1.15769 -3.81512 0
5.60562 -0.401956 0
0 0 0

1.56874 -0.639155 0
5.81624 -1.35206 0
0 0 0

0.0926944 -6.26842 0
8.43099 0.171284 0
0 0 0

0.364506 -4.19673 0
8.13346 0.352595 0
0 0 0

1.01728 -0.260369 0
7.37645 -2.08212 0
0 0 0

1.67483 -1.61549 0
6.60351 -0.489194 0
0 0 0

-0.363171 -2.43004 0
4.67626 1.23995 0
0 0 0

-0.706679 -1.70192 0
4.50871 1.59511 0
0 0 0

-0.222254 -2.64822 0
4.74207 0.965582 0
0 0 0

-1.39955 -2.20375 0
4.0811 1.4787 0
0 0 0

-0.0699935 -1.65498 0
2.84542 1.68232 0
0 0 0

0.463247 1.20022 0
3.6125 0.735692 0
0 0 0

-0.779084 3.62671 0
-0.523722 0.433488 0
0 0 0

1.22192 2.1115 0
4.23778 1.10774 0
0 0 0

1.21347 1.00078 0
4.87557 0.111619 0
0 0 0

1.99195 0.582731 0
7.03851 -0.996148 0
0 0 0

1.64306 1.36401 0
4.57826 0.503418 0
0 0 0

2.21672 -3.05889 0
8.0264 -1.01095 0
0 0 0

2.18026 0.190301 0
7.41339 -2.20195 0
0 0 0

2.82017 -1.90796 0
5.10726 -1.18519 0
0 0 0

2.0992 -5.23413 0
8.05556 -1.1326 0
0 0 0

1.82947 -4.47001 0
5.16135 -0.950385 0
0 0 0

2.62572 -2.09186 0
4.89088 -1.33588 0
0 0 0

0.0654372 -2.73219 0
1.43029 0.497364 0
0 0 0

1.04098 -2.94807 0
5.1512 -1.19523 0
0 0 0

1.33123 -1.98437 0
1.38962 -0.933443 0
0 0 0

2.40155 5.92707 0
-3.65596 -1.83187 0
0 0 0

3.67004 1.68581 0
-0.0441982 -1.57492 0
0 0 0

5.9008 9.04354 0
-5.08802 -0.392474 0
0 0 0

12.2684 2.73928 0
-0.522804 -3.57028 0
0 0 0

3.08078 -3.31237 0
3.67207 -4.27723 0
0 0 0

3.5299 -5.42095 0
4.11673 -1.9929 0
0 0 0

5.29396 -2.07851 0
1.34713 -5.57339 0
0 0 0

6.11566 -7.37564 0
-0.323916 -2.99684 0
0 0 0

1.64144 -5.46258 0
7.74204 -1.28906 0
0 0 0

1.44471 -4.99905 0
7.6073 -0.971588 0
0 0 0

0.525835 -12.1109 0
7.95683 2.26321 0
0 0 0

-0.521743 -9.71627 0
8.5399 0.930372 0
0 0 0

-0.196855 -7.68288 0
5.36772 -0.153406 0
0 0 0

-0.284591 -7.61093 0
5.40417 -0.208437 0
0 0 0

-0.547767 -7.95695 0
5.92756 -0.0444473 0
0 0 0

-0.458633 -7.68901 0
5.48245 -0.173314 0
0 0 0

SCALARS active double 1
LOOKUP_TABLE default
1
1
1
1
1
1
1
1
1
1
1
1
1
1
1
1
1
1
1
1
1
1
1
1
1
1
1
1
1
1
1
1
1
1
1
1
1
1
1
1
1
1
1
1
1
1
1
1
1
1
1
1
1
1
1
1
1
1
1
1
1
1
1
1
SCALARS extent double 1
LOOKUP_TABLE default
0.0125
0.0125
0.0125
0.0125
0.0125
0.0125
0.0125
0.0125
0.0125
0.0125
0.0125
0.0125
0.0125
0.0125
0.0125
0.0125
0.0125
0.0125
0.0125
0.0125
0.0125
0.0125
0.0125
0.0125
0.0125
0.0125
0.0125
0.0125
0.0125
0.0125
0.0125
0.0125
0.0125
0.0125
0.0125
0.0125
0.0125
0.0125
0.0125
0.0125
0.0125
0.0125
0.0125
0.0125
0.0125
0.0125
0.0125
0.0125
0.0125
0.0125
0.0125
0.0125
0.0125
0.0125
0.0125
0.0125
0.0125
0.0125
0.0125
0.0125
0.0125
0.0125
0.0125
0.0125
SCALARS pressure double 1
LOOKUP_TABLE default
577.323
1386.59
1551.97
241.983
-698.475
2413.22
306.492
5443.49
-632.516
1161.18
-1859.37
-665.102
-651.225
-2172.37
2470.07
-410.834
1938.73
1697.44
1780
640.267
3272.68
-2037.56
-1532.08
2927.89
1870.43
-3116.67
2211.71
-143.964
-1262.76
941.751
-2231.17
-600.2
3975.15
3070.04
2396.31
-298.632
4824.97
-5026.93
-1053.8
3066.28
-1762.78
-1226.81
5.54868
-1110.9
85.8303
-2163.69
-724.973
265.912
6754.17
3895.75
5973.03
-10637.7
4196.48
-2796.54
-192.272
-6751.55
3117.53
-3246.73
-1594.2
-1958.94
-3202.62
1596.66
259.848
1276.84
SCALARS density double 1
LOOKUP_TABLE default
1006.02
1014.53
1016.27
1002.52
992.762
1025.42
1003.19
1058.25
993.443
1012.15
980.848
993.107
993.25
977.661
1026.02
995.736
1020.37
1017.81
1018.68
1006.68
1034.62
979.032
984.193
1030.92
1019.64
968.106
1023.27
998.504
986.953
1009.84
977.063
993.777
1042.21
1032.44
1025.23
996.899
1051.46
949.063
989.1
1032.4
981.834
987.322
1000.06
988.513
1000.89
977.749
992.489
1002.77
1072.77
1041.35
1064.09
895.268
1044.61
971.335
998.002
932.192
1032.95
966.798
983.557
979.833
967.241
1016.74
1002.71
1013.37
