# vtk DataFile Version 3.0
Frame: 24, Time: 0.417
ASCII
DATASET UNSTRUCTURED_GRID
POINTS 64 double
0.30001 0.108061 0 
0.302953 0.133072 0 
0.324044 0.105645 0 
0.327532 0.130509 0 
0.304105 0.15769 0 
0.308635 0.183298 0 
0.329008 0.154569 0 
0.332451 0.179104 0 
0.310609 0.208963 0 
0.314184 0.235723 0 
0.335127 0.205033 0 
0.337837 0.230784 0 
0.321964 0.262143 0 
0.326953 0.285654 0 
0.346243 0.256843 0 
0.351581 0.28075 0 
0.348879 0.103463 0 
0.351286 0.128202 0 
0.372283 0.0979133 0 
0.374604 0.122609 0 
0.352686 0.152612 0 
0.355265 0.177228 0 
0.377324 0.146793 0 
0.379169 0.170935 0 
0.358528 0.203044 0 
0.36102 0.227098 0 
0.382974 0.196898 0 
0.385688 0.220409 0 
0.369118 0.251042 0 
0.377065 0.277662 0 
0.392072 0.244649 0 
0.398547 0.270815 0 
0.397874 0.092325 0 
0.399497 0.117886 0 
0.424569 0.0905281 0 
0.424276 0.115458 0 
0.403004 0.142262 0 
0.40361 0.166068 0 
0.428503 0.139688 0 
0.429518 0.163982 0 
0.406546 0.190557 0 
0.409015 0.213688 0 
0.43208 0.188229 0 
0.434299 0.210804 0 
0.4143 0.239595 0 
0.421024 0.265875 0 
0.438593 0.235443 0 
0.444584 0.262426 0 
0.449582 0.0855585 0 
0.447005 0.112239 0 
0.474441 0.0827668 0 
0.47184 0.109101 0 
0.452713 0.136274 0 
0.454387 0.160654 0 
0.478979 0.132422 0 
0.480002 0.158695 0 
0.456274 0.18432 0 
0.459967 0.207757 0 
0.480884 0.183555 0 
0.486359 0.205617 0 
0.463006 0.233064 0 
0.467338 0.258954 0 
0.488432 0.230125 0 
0.493084 0.253957 0 
CELLS 64 128
1 0
1 1
1 2
1 3
1 4
1 5
1 6
1 7
1 8
1 9
1 10
1 11
1 12
1 13
1 14
1 15
1 16
1 17
1 18
1 19
1 20
1 21
1 22
1 23
1 24
1 25
1 26
1 27
1 28
1 29
1 30
1 31
1 32
1 33
1 34
1 35
1 36
1 37
1 38
1 39
1 40
1 41
1 42
1 43
1 44
1 45
1 46
1 47
1 48
1 49
1 50
1 51
1 52
1 53
1 54
1 55
1 56
1 57
1 58
1 59
1 60
1 61
1 62
1 63
CELL_TYPES 64
1
1
1
1
1
1
1
1
1
1
1
1
1
1
1
1
1
1
1
1
1
1
1
1
1
1
1
1
1
1
1
1
1
1
1
1
1
1
1
1
1
1
1
1
1
1
1
1
1
1
1
1
1
1
1
1
1
1
1
1
1
1
1
1
POINT_DATA 64
VECTORS displacement double
-0.11249 -0.304439 0 
-0.109547 -0.304428 0 
-0.113456 -0.306855 0 
-0.109968 -0.306991 0 
-0.108395 -0.30481 0 
-0.103865 -0.304202 0 
-0.108492 -0.307931 0 
-0.105049 -0.308396 0 
-0.101891 -0.303537 0 
-0.0983161 -0.301777 0 
-0.102373 -0.307467 0 
-0.0996631 -0.306716 0 
-0.090536 -0.300357 0 
-0.0855471 -0.301846 0 
-0.0912571 -0.305657 0 
-0.0859194 -0.30675 0 
-0.113621 -0.309037 0 
-0.111214 -0.309298 0 
-0.115217 -0.314587 0 
-0.112896 -0.314891 0 
-0.109814 -0.309888 0 
-0.107235 -0.310272 0 
-0.110176 -0.315707 0 
-0.108331 -0.316565 0 
-0.103972 -0.309456 0 
-0.10148 -0.310402 0 
-0.104526 -0.315602 0 
-0.101812 -0.317091 0 
-0.0933824 -0.311458 0 
-0.0854352 -0.309838 0 
-0.0954277 -0.317851 0 
-0.0889533 -0.316685 0 
-0.114626 -0.320175 0 
-0.113003 -0.319614 0 
-0.112931 -0.321972 0 
-0.113224 -0.322042 0 
-0.109496 -0.320238 0 
-0.10889 -0.321432 0 
-0.108997 -0.322812 0 
-0.107982 -0.323518 0 
-0.105954 -0.321943 0 
-0.103485 -0.323812 0 
-0.10542 -0.324271 0 
-0.103201 -0.326696 0 
-0.0981996 -0.322905 0 
-0.0914764 -0.321625 0 
-0.0989074 -0.327057 0 
-0.0929159 -0.325074 0 
-0.112918 -0.326941 0 
-0.115495 -0.325261 0 
-0.113059 -0.329733 0 
-0.11566 -0.328399 0 
-0.109787 -0.326226 0 
-0.108113 -0.326846 0 
-0.108521 -0.330078 0 
-0.107498 -0.328805 0 
-0.106226 -0.32818 0 
-0.102533 -0.329743 0 
-0.106616 -0.328945 0 
-0.101141 -0.331883 0 
-0.0994942 -0.329436 0 
-0.0951616 -0.328546 0 
-0.099068 -0.332375 0 
-0.0944155 -0.333543 0 
VECTORS velocity double
-0.836291 0.121514 0 
-0.775505 0.449865 0 
-0.713851 -0.164816 0 
-0.83562 0.247885 0 
-1.1619 -0.0432933 0 
-1.00789 0.323649 0 
-0.938744 0.090155 0 
-1.06452 0.287323 0 
-1.0951 0.126785 0 
-1.4399 0.0430603 0 
-1.31371 -0.027673 0 
-1.53631 -0.211162 0 
-0.939084 0.718245 0 
-1.04711 0.304386 0 
-1.41976 0.356113 0 
-1.42649 -0.23913 0 
-0.779634 0.596374 0 
-1.04289 0.864337 0 
-0.88828 0.888714 0 
-1.11418 1.01127 0 
-1.10658 0.547787 0 
-0.794622 0.813446 0 
-1.4274 0.433253 0 
-1.20591 1.0397 0 
-0.880981 0.635223 0 
-1.26251 0.0961202 0 
-0.726868 1.48567 0 
-0.552928 0.82183 0 
-1.40282 0.352628 0 
-1.02212 0.0334921 0 
-0.706323 1.06645 0 
-1.15866 0.790274 0 
-0.478205 0.812873 0 
-1.12763 0.781359 0 
-0.794729 0.681522 0 
-1.28868 1.17728 0 
-1.68194 0.296671 0 
-1.42892 1.21706 0 
-1.7213 0.756268 0 
-1.54016 1.32516 0 
-1.27609 1.39695 0 
-0.571215 0.696879 0 
-1.93422 1.03289 0 
-1.06898 0.850092 0 
-0.45945 0.608615 0 
-0.763936 1.20766 0 
-0.206328 0.875039 0 
-0.392295 1.46152 0 
-0.692691 0.490276 0 
-0.931242 1.14232 0 
-0.525121 0.970895 0 
-0.971237 0.44222 0 
-1.37919 0.415355 0 
-1.38199 0.71157 0 
-1.82519 0.379599 0 
-1.81649 1.493 0 
-1.99411 0.773696 0 
-1.2798 0.630821 0 
-1.43816 1.28598 0 
-0.621067 -0.162122 0 
-0.309177 0.600223 0 
-0.947452 0.662455 0 
-0.569111 -0.923003 0 
-1.45648 0.725582 0 
SCALARS mass double 1
LOOKUP_TABLE default
0.625
0.625
0.625
0.625
0.625
0.625
0.625
0.625
0.625
0.625
0.625
0.625
0.625
0.625
0.625
0.625
0.625
0.625
0.625
0.625
0.625
0.625
0.625
0.625
0.625
0.625
0.625
0.625
0.625
0.625
0.625
0.625
0.625
0.625
0.625
0.625
0.625
0.625
0.625
0.625
0.625
0.625
0.625
0.625
0.625
0.625
0.625
0.625
0.625
0.625
0.625
0.625
0.625
0.625
0.625
0.625
0.625
0.625
0.625
0.625
0.625
0.625
0.625
0.625
SCALARS volume double 1
LOOKUP_TABLE default
0.000619787
0.00062568
0.000626902
0.000643729
0.000653177
0.000662425
0.000599603
0.000589996
0.000685532
0.000677076
0.000610134
0.000612611
0.000628929
0.000613882
0.000649859
0.000604762
0.000609801
0.000601269
0.000623201
0.00063695
0.000582612
0.000640842
0.000614835
0.00062538
0.000644866
0.000580103
0.000618225
0.000584433
0.000683784
0.000603395
0.000603768
0.000575501
0.000672107
0.000639577
0.000611939
0.000581869
0.000652289
0.000626676
0.000594188
0.000590669
0.000618311
0.000562077
0.000631127
0.000582008
0.000644451
0.000597322
0.000670799
0.000627451
0.000656997
0.000619003
0.000620129
0.000633179
0.000655014
0.00063055
0.000620801
0.000636472
0.000585914
0.000616065
0.000574236
0.000599949
0.000641776
0.000638492
0.000649515
0.000605764
VECTORS momentum double
-0.522682 0.0759465 0 
-0.484691 0.281166 0 
-0.446157 -0.10301 0 
-0.522263 0.154928 0 
-0.726189 -0.0270583 0 
-0.629931 0.202281 0 
-0.586715 0.0563469 0 
-0.665323 0.179577 0 
-0.684439 0.0792407 0 
-0.899939 0.0269127 0 
-0.821067 -0.0172956 0 
-0.960196 -0.131976 0 
-0.586928 0.448903 0 
-0.654441 0.190241 0 
-0.887347 0.22257 0 
-0.891554 -0.149456 0 
-0.487271 0.372734 0 
-0.651807 0.540211 0 
-0.555175 0.555446 0 
-0.696361 0.632043 0 
-0.691615 0.342367 0 
-0.496639 0.508404 0 
-0.892127 0.270783 0 
-0.753691 0.64981 0 
-0.550613 0.397014 0 
-0.789068 0.0600751 0 
-0.454292 0.928542 0 
-0.34558 0.513644 0 
-0.876762 0.220392 0 
-0.638825 0.0209326 0 
-0.441452 0.666534 0 
-0.724165 0.493922 0 
-0.298878 0.508046 0 
-0.704771 0.488349 0 
-0.496705 0.425951 0 
-0.805424 0.735801 0 
-1.05121 0.185419 0 
-0.893078 0.760665 0 
-1.07581 0.472668 0 
-0.962602 0.828227 0 
-0.797556 0.873096 0 
-0.357009 0.435549 0 
-1.20889 0.645556 0 
-0.668113 0.531307 0 
-0.287156 0.380384 0 
-0.47746 0.754787 0 
-0.128955 0.5469 0 
-0.245185 0.913448 0 
-0.432932 0.306423 0 
-0.582026 0.71395 0 
-0.3282 0.606809 0 
-0.607023 0.276388 0 
-0.861992 0.259597 0 
-0.863746 0.444731 0 
-1.14074 0.237249 0 
-1.13531 0.933126 0 
-1.24632 0.48356 0 
-0.799873 0.394263 0 
-0.898851 0.803736 0 
-0.388167 -0.101326 0 
-0.193235 0.375139 0 
-0.592157 0.414034 0 
-0.355694 -0.576877 0 
-0.910301 0.453489 0 
VECTORS body_force double
0 -9.81 0 
0 -9.81 0 
0 -9.81 0 
0 -9.81 0 
0 -9.81 0 
0 -9.81 0 
0 -9.81 0 
0 -9.81 0 
0 -9.81 0 
0 -9.81 0 
0 -9.81 0 
0 -9.81 0 
0 -9.81 0 
0 -9.81 0 
0 -9.81 0 
0 -9.81 0 
0 -9.81 0 
0 -9.81 0 
0 -9.81 0 
0 -9.81 0 
0 -9.81 0 
0 -9.81 0 
0 -9.81 0 
0 -9.81 0 
0 -9.81 0 
0 -9.81 0 
0 -9.81 0 
0 -9.81 0 
0 -9.81 0 
0 -9.81 0 
0 -9.81 0 
0 -9.81 0 
0 -9.81 0 
0 -9.81 0 
0 -9.81 0 
0 -9.81 0 
0 -9.81 0 
0 -9.81 0 
0 -9.81 0 
0 -9.81 0 
0 -9.81 0 
0 -9.81 0 
0 -9.81 0 
0 -9.81 0 
0 -9.81 0 
0 -9.81 0 
0 -9.81 0 
0 -9.81 0 
0 -9.81 0 
0 -9.81 0 
0 -9.81 0 
0 -9.81 0 
0 -9.81 0 
0 -9.81 0 
0 -9.81 0 
0 -9.81 0 
0 -9.81 0 
0 -9.81 0 
0 -9.81 0 
0 -9.81 0 
0 -9.81 0 
0 -9.81 0 
0 -9.81 0 
0 -9.81 0 
TENSORS cauchy_stress double
-2397.62 800.449 0
800.449 786.892 0
0 0 0

-1351.78 64.5738 0
64.5738 1560.82 0
0 0 0

993.93 2490.91 0
2490.91 -409.536 0
0 0 0

2672.17 -1310.13 0
-1310.13 3005.79 0
0 0 0

3668.73 6323.39 0
6323.39 4811.38 0
0 0 0

4835.56 4196.67 0
4196.67 6348.22 0
0 0 0

-2509.13 -4294.96 0
-4294.96 -5468.41 0
0 0 0

-9437.84 -1614.02 0
-1614.02 -1646.03 0
0 0 0

9204.53 2581.41 0
2581.41 8573.08 0
0 0 0

5421.92 6356.22 0
6356.22 9968.93 0
0 0 0

-7213.16 -341.815 0
-341.815 2583.65 0
0 0 0

-4551.37 3689.57 0
3689.57 701.175 0
0 0 0

1240.63 499.785 0
499.785 -35.6451 0
0 0 0

-3530.28 2396.07 0
2396.07 78.6487 0
0 0 0

630.987 4993.04 0
4993.04 6869.74 0
0 0 0

1893.56 465.927 0
465.927 -8223.68 0
0 0 0

-2049 2015.99 0
2015.99 -2685.45 0
0 0 0

-7640.74 3251.73 0
3251.73 196.652 0
0 0 0

-1663.34 -6918.56 0
-6918.56 1109.02 0
0 0 0

600.21 -3196.24 0
-3196.24 3041.89 0
0 0 0

-6059.81 1857.75 0
1857.75 -7446.03 0
0 0 0

1779.17 3205.5 0
3205.5 3034.66 0
0 0 0

514.545 -8010.31 0
-8010.31 -3667.93 0
0 0 0

-1864.13 -3248.45 0
-3248.45 1981.03 0
0 0 0

2648.17 1258.57 0
1258.57 3369.45 0
0 0 0

-5671.13 -4207.79 0
-4207.79 -8664.74 0
0 0 0

-4214.72 866.289 0
866.289 2118.81 0
0 0 0

-5977.76 -5046.49 0
-5046.49 -6927.86 0
0 0 0

6530.11 3112.29 0
3112.29 10756.4 0
0 0 0

-5827.47 -2503.07 0
-2503.07 -937.943 0
0 0 0

-7815.79 3693.97 0
3693.97 1169.26 0
0 0 0

-14029.1 2338.68 0
2338.68 -1838.22 0
0 0 0

9855.57 3689.83 0
3689.83 4118.76 0
0 0 0

3208.82 5048.46 0
5048.46 1224.92 0
0 0 0

1777.93 -1808.09 0
-1808.09 -5839.13 0
0 0 0

-8493.83 3457.13 0
3457.13 -5257.24 0
0 0 0

7813.31 -3207.89 0
-3207.89 405.293 0
0 0 0

4408.23 -3633.44 0
-3633.44 -3893.11 0
0 0 0

-6129.98 -2268.7 0
-2268.7 -3592.41 0
0 0 0

-4191.91 -307.728 0
-307.728 -6672.65 0
0 0 0

69.6888 1240.17 0
1240.17 -2139.03 0
0 0 0

-10370.2 -4059.03 0
-4059.03 -10035.9 0
0 0 0

1499.65 2456.18 0
2456.18 376.273 0
0 0 0

297.33 -7640.97 0
-7640.97 -14002.7 0
0 0 0

-3325.88 8936.42 0
8936.42 9219.51 0
0 0 0

-3206.22 851.134 0
851.134 -5504.34 0
0 0 0

4762.28 4268.61 0
4268.61 8837.41 0
0 0 0

-6357.21 2148.1 0
2148.1 7110.01 0
0 0 0

5461.88 -3664.64 0
-3664.64 4139.48 0
0 0 0

-3714.18 1666.13 0
1666.13 1860.11 0
0 0 0

-2385.01 295.701 0
295.701 880.289 0
0 0 0

409.116 5632.07 0
5632.07 2091.23 0
0 0 0

6027.22 -3474.49 0
-3474.49 2993.05 0
0 0 0

3574.24 -2627.99 0
-2627.99 -1873.95 0
0 0 0

-2935.58 2949.73 0
2949.73 1639.28 0
0 0 0

-1393.25 611.829 0
611.829 4891.07 0
0 0 0

-6277.32 4711.47 0
4711.47 -6141.79 0
0 0 0

2141.26 646.804 0
646.804 -4910.33 0
0 0 0

-5740.72 3217.98 0
3217.98 -10549.9 0
0 0 0

2720.81 -4437.8 0
-4437.8 -10587.6 0
0 0 0

2427.63 7011.67 0
7011.67 2666.24 0
0 0 0

-1990.19 2266.51 0
2266.51 6097.35 0
0 0 0

52.5886 -4595.21 0
-4595.21 7346.3 0
0 0 0

-1068.16 -1620.71 0
-1620.71 -4943.5 0
0 0 0

TENSORS velocity_gradient double
2.27563 -2.57117 0
3.02422 0.789431 0
0 0 0

-0.868941 -2.86601 0
4.3156 0.617203 0
0 0 0

-1.26602 -3.31222 0
7.11565 -0.0952444 0
0 0 0

-1.59328 -3.48333 0
6.45814 -0.05997 0
0 0 0

-1.34111 -3.43327 0
4.57267 0.480109 0
0 0 0

-0.0400546 -3.12615 0
4.20596 0.326165 0
0 0 0

-1.61824 -2.21551 0
5.72049 -0.652624 0
0 0 0

-0.286734 -1.75968 0
4.43619 -0.949174 0
0 0 0

0.502591 -2.23994 0
2.64616 -1.30137 0
0 0 0

-0.827517 -2.42056 0
0.640553 -1.57372 0
0 0 0

0.617733 -3.224 0
2.92939 -2.8796 0
0 0 0

-0.580744 -3.59491 0
1.01265 -3.34448 0
0 0 0

-1.99859 1.62341 0
-2.48359 1.81963 0
0 0 0

-2.8875 1.43561 0
-6.50474 0.970085 0
0 0 0

1.42297 0.56142 0
2.41017 -2.03533 0
0 0 0

3.76006 0.158753 0
6.78282 -2.51335 0
0 0 0

-2.11101 -2.57111 0
6.7139 -1.4621 0
0 0 0

-4.03446 -4.19188 0
6.57794 -0.468321 0
0 0 0

-1.89323 -3.41937 0
5.73949 -1.95917 0
0 0 0

-4.69567 -6.09594 0
6.5157 -0.180554 0
0 0 0

-5.23802 -1.34373 0
7.05079 -0.984857 0
0 0 0

-1.79502 0.457273 0
9.76574 -1.16559 0
0 0 0

-6.46992 -4.23927 0
7.00008 0.108738 0
0 0 0

-3.10119 5.26299 0
9.08036 1.3561 0
0 0 0

3.09734 -1.66014 0
11.9794 -3.23247 0
0 0 0

6.5014 -2.48638 0
11.9737 -4.27444 0
0 0 0

2.01235 4.96813 0
11.6695 0.579936 0
0 0 0

5.5462 0.852203 0
12.037 -4.49579 0
0 0 0

8.90657 -1.552 0
11.7584 -3.57844 0
0 0 0

6.5868 -2.59146 0
11.5243 -3.01389 0
0 0 0

8.83139 1.63253 0
11.8179 -4.53421 0
0 0 0

6.69056 -4.58769 0
7.51083 -2.98321 0
0 0 0

-0.574767 -7.45677 0
2.52972 -0.256995 0
0 0 0

-2.14951 -8.24029 0
2.31281 0.243809 0
0 0 0

-0.436915 -5.31719 0
-1.60224 0.348521 0
0 0 0

-0.222552 -10.176 0
-1.13345 0.839574 0
0 0 0

-2.91206 -8.54617 0
0.652007 0.319814 0
0 0 0

-3.97061 8.69908 0
-0.280091 2.94545 0
0 0 0

-2.08562 -10.5209 0
-0.525336 0.952149 0
0 0 0

-3.81724 7.14733 0
-1.20761 1.15904 0
0 0 0

-5.58017 8.69853 0
-3.14799 2.86638 0
0 0 0

-3.36239 4.94231 0
-2.57789 -3.57601 0
0 0 0

-5.43062 6.98735 0
-2.98339 0.982963 0
0 0 0

-4.00642 10.7394 0
-2.87277 -0.921681 0
0 0 0

2.57161 6.11626 0
0.139127 -3.03849 0
0 0 0

5.67671 -4.29863 0
2.33085 -1.7378 0
0 0 0

1.62266 11.6575 0
-0.295368 -0.501307 0
0 0 0

3.82972 -3.52646 0
0.720693 -0.022271 0
0 0 0

0.39927 -2.88323 0
-1.29129 -0.146363 0
0 0 0

-0.239465 -11.8747 0
-1.78378 1.60526 0
0 0 0

1.98966 -5.06024 0
-0.399772 -4.72608 0
0 0 0

-0.564287 -13.3258 0
-3.20916 4.09711 0
0 0 0

-2.01003 -12.2703 0
-0.179816 2.02668 0
0 0 0

-1.4642 6.78182 0
-0.823699 -1.71211 0
0 0 0

-1.83869 -13.7352 0
-0.53144 4.95726 0
0 0 0

-1.68773 10.5225 0
-0.34092 -7.96657 0
0 0 0

2.09189 6.99654 0
-6.62652 -2.1028 0
0 0 0

2.66467 11.1702 0
-10.9358 0.169255 0
0 0 0

2.00257 10.6134 0
-6.47797 -8.11779 0
0 0 0

2.93544 4.86125 0
-10.7535 -1.59708 0
0 0 0

-3.98664 10.4439 0
-11.94 0.0596031 0
0 0 0

-9.03251 -4.21216 0
-10.5216 4.78009 0
0 0 0

-3.29437 3.73971 0
-11.8355 -0.952562 0
0 0 0

-8.51091 -3.78743 0
-10.7735 8.74492 0
0 0 0

SCALARS active double 1
LOOKUP_TABLE default
1
1
1
1
1
1
1
1
1
1
1
1
1
1
1
1
1
1
1
1
1
1
1
1
1
1
1
1
1
1
1
1
1
1
1
1
1
1
1
1
1
1
1
1
1
1
1
1
1
1
1
1
1
1
1
1
1
1
1
1
1
1
1
1
SCALARS extent double 1
LOOKUP_TABLE default
0.0125
0.0125
0.0125
0.0125
0.0125
0.0125
0.0125
0.0125
0.0125
0.0125
0.0125
0.0125
0.0125
0.0125
0.0125
0.0125
0.0125
0.0125
0.0125
0.0125
0.0125
0.0125
0.0125
0.0125
0.0125
0.0125
0.0125
0.0125
0.0125
0.0125
0.0125
0.0125
0.0125
0.0125
0.0125
0.0125
0.0125
0.0125
0.0125
0.0125
0.0125
0.0125
0.0125
0.0125
0.0125
0.0125
0.0125
0.0125
0.0125
0.0125
0.0125
0.0125
0.0125
0.0125
0.0125
0.0125
0.0125
0.0125
0.0125
0.0125
0.0125
0.0125
0.0125
0.0125
SCALARS pressure double 1
LOOKUP_TABLE default
805.365
-104.52
-292.197
-2838.98
-4240.05
-5591.89
3988.77
5541.94
-8888.81
-7695.43
2314.76
1925.1
-602.494
1725.82
-3750.36
3165.06
2367.22
3722.04
277.16
-1821.05
6752.92
-2406.91
1576.69
-58.4537
-3008.81
7167.94
1047.96
6452.81
-8643.27
3382.71
3323.27
7933.68
-6987.17
-2216.87
2030.6
6875.53
-4109.3
-257.556
4861.2
5432.28
1034.67
10203.1
-937.962
6852.7
-2946.82
4355.28
-6799.84
-376.399
-4800.68
927.034
752.359
-1250.17
-4510.13
-850.145
648.146
-1748.91
6209.56
1384.53
8145.33
3933.39
-2546.93
-2053.58
-3699.45
3005.83
SCALARS density double 1
LOOKUP_TABLE default
1008.41
998.914
996.966
970.906
956.862
943.503
1042.36
1059.33
911.701
923.086
1024.37
1020.22
993.754
1018.11
961.747
1033.46
1024.92
1039.47
1002.89
981.239
1072.76
975.279
1016.53
999.392
969.193
1077.4
1010.96
1069.41
914.032
1035.81
1035.17
1086.01
929.911
977.208
1021.34
1074.12
958.164
997.325
1051.86
1058.12
1010.82
1111.95
990.293
1073.87
969.818
1046.34
931.724
996.093
951.299
1009.69
1007.86
987.082
954.178
991.197
1006.76
981.976
1066.71
1014.5
1088.4
1041.76
973.86
978.869
962.256
1031.75
