# vtk DataFile Version 3.0
Frame: 30, Time: 0.517
ASCII
DATASET UNSTRUCTURED_GRID
POINTS 64 double
0.202323 0.10975 0 
0.203638 0.134437 0 
0.226236 0.108666 0 
0.227542 0.13356 0 
0.202431 0.1586 0 
0.203626 0.183552 0 
0.227273 0.157434 0 
0.228881 0.182025 0 
0.202012 0.20801 0 
0.20073 0.232942 0 
0.228744 0.207803 0 
0.226354 0.232387 0 
0.202047 0.258975 0 
0.200037 0.282566 0 
0.228214 0.258915 0 
0.226072 0.282741 0 
0.251634 0.108562 0 
0.252084 0.133754 0 
0.275032 0.106139 0 
0.275435 0.130941 0 
0.251367 0.15802 0 
0.252002 0.182933 0 
0.275804 0.155466 0 
0.276001 0.180885 0 
0.252116 0.209764 0 
0.24937 0.233809 0 
0.277437 0.208686 0 
0.275815 0.232819 0 
0.25194 0.258997 0 
0.252102 0.285154 0 
0.278176 0.258434 0 
0.277645 0.283928 0 
0.29973 0.102765 0 
0.298432 0.128697 0 
0.326752 0.103105 0 
0.32318 0.128534 0 
0.299206 0.154018 0 
0.298997 0.179599 0 
0.324156 0.153706 0 
0.323495 0.179316 0 
0.301113 0.20631 0 
0.300771 0.230901 0 
0.325148 0.205125 0 
0.325513 0.229652 0 
0.303115 0.258394 0 
0.303334 0.282941 0 
0.327967 0.255929 0 
0.329364 0.28101 0 
0.350952 0.102277 0 
0.346204 0.128505 0 
0.375512 0.101563 0 
0.370889 0.127635 0 
0.348869 0.153083 0 
0.348547 0.177869 0 
0.375106 0.150969 0 
0.374239 0.176641 0 
0.349287 0.202309 0 
0.350772 0.227122 0 
0.374406 0.201581 0 
0.376958 0.225879 0 
0.35194 0.253551 0 
0.353916 0.277929 0 
0.376732 0.25247 0 
0.3809 0.276079 0 
CELLS 64 128
1 0
1 1
1 2
1 3
1 4
1 5
1 6
1 7
1 8
1 9
1 10
1 11
1 12
1 13
1 14
1 15
1 16
1 17
1 18
1 19
1 20
1 21
1 22
1 23
1 24
1 25
1 26
1 27
1 28
1 29
1 30
1 31
1 32
1 33
1 34
1 35
1 36
1 37
1 38
1 39
1 40
1 41
1 42
1 43
1 44
1 45
1 46
1 47
1 48
1 49
1 50
1 51
1 52
1 53
1 54
1 55
1 56
1 57
1 58
1 59
1 60
1 61
1 62
1 63
CELL_TYPES 64
1
1
1
1
1
1
1
1
1
1
1
1
1
1
1
1
1
1
1
1
1
1
1
1
1
1
1
1
1
1
1
1
1
1
1
1
1
1
1
1
1
1
1
1
1
1
1
1
1
1
1
1
1
1
1
1
1
1
1
1
1
1
1
1
POINT_DATA 64
VECTORS displacement double
-0.210177 -0.30275 0 
-0.208862 -0.303063 0 
-0.211264 -0.303834 0 
-0.209958 -0.30394 0 
-0.210069 -0.3039 0 
-0.208874 -0.303948 0 
-0.210227 -0.305066 0 
-0.208619 -0.305475 0 
-0.210488 -0.30449 0 
-0.21177 -0.304558 0 
-0.208756 -0.304697 0 
-0.211146 -0.305113 0 
-0.210453 -0.303525 0 
-0.212463 -0.304934 0 
-0.209286 -0.303585 0 
-0.211428 -0.304759 0 
-0.210866 -0.303938 0 
-0.210416 -0.303746 0 
-0.212468 -0.306361 0 
-0.212065 -0.306559 0 
-0.211133 -0.30448 0 
-0.210498 -0.304567 0 
-0.211696 -0.307034 0 
-0.211499 -0.306615 0 
-0.210384 -0.302736 0 
-0.21313 -0.303691 0 
-0.210063 -0.303814 0 
-0.211685 -0.304681 0 
-0.21056 -0.303503 0 
-0.210398 -0.302346 0 
-0.209324 -0.304066 0 
-0.209855 -0.303572 0 
-0.21277 -0.309735 0 
-0.214068 -0.308803 0 
-0.210748 -0.309395 0 
-0.21432 -0.308966 0 
-0.213294 -0.308482 0 
-0.213503 -0.307901 0 
-0.213344 -0.308794 0 
-0.214005 -0.308184 0 
-0.211387 -0.30619 0 
-0.211729 -0.306599 0 
-0.212352 -0.307375 0 
-0.211987 -0.307848 0 
-0.209385 -0.304106 0 
-0.209166 -0.304559 0 
-0.209533 -0.306571 0 
-0.208136 -0.30649 0 
-0.211548 -0.310223 0 
-0.216296 -0.308995 0 
-0.211988 -0.310937 0 
-0.216611 -0.309865 0 
-0.213631 -0.309417 0 
-0.213953 -0.309631 0 
-0.212394 -0.311531 0 
-0.213261 -0.310859 0 
-0.213213 -0.310191 0 
-0.211728 -0.310378 0 
-0.213094 -0.310919 0 
-0.210542 -0.311621 0 
-0.21056 -0.308949 0 
-0.208584 -0.309571 0 
-0.210768 -0.31003 0 
-0.2066 -0.311421 0 
VECTORS velocity double
-1.10097 -0.675638 0 
-0.757252 -0.123593 0 
-1.08064 -0.340438 0 
-1.29814 -0.460316 0 
-1.04737 -0.671546 0 
-1.05228 -0.273517 0 
-1.16177 -0.689515 0 
-1.03029 -0.199043 0 
-1.10781 -0.450704 0 
-1.33643 -0.660387 0 
-1.07053 -0.5059 0 
-0.869906 -0.924272 0 
-0.935356 -0.306559 0 
-1.53834 -0.767974 0 
-0.792998 -0.133865 0 
-1.63249 -0.502796 0 
-0.853338 -0.698825 0 
-1.02433 -0.302103 0 
-1.42672 -0.433391 0 
-1.07687 0.0398733 0 
-1.03587 -0.562392 0 
-1.02706 -0.291121 0 
-0.998125 -0.388612 0 
-1.06507 -0.243019 0 
-1.21197 -0.416711 0 
-1.17799 -0.725732 0 
-0.928864 -0.245909 0 
-1.02759 -0.672042 0 
-1.23742 -0.202361 0 
-1.47693 -0.573876 0 
-1.08963 0.0839424 0 
-1.2317 -0.464101 0 
-1.05954 -0.452935 0 
-1.14142 -0.357942 0 
-1.12068 -0.459841 0 
-0.884577 -0.175161 0 
-0.994587 -0.648116 0 
-0.82059 -0.255317 0 
-0.71478 -0.656674 0 
-0.644027 -0.110257 0 
-0.964809 -0.505054 0 
-0.937822 -0.743109 0 
-1.25567 -0.324076 0 
-1.25491 -0.382367 0 
-1.21886 -0.139763 0 
-1.19478 -0.399225 0 
-1.29292 0.0790887 0 
-1.20056 -0.125013 0 
-1.08861 -0.28428 0 
-0.774925 0.113185 0 
-0.93939 -0.240455 0 
-0.796876 -0.471608 0 
-1.04136 -0.60352 0 
-0.625147 -0.263734 0 
-1.02799 -0.409169 0 
-0.904697 0.166017 0 
-0.990253 -0.362745 0 
-1.14338 -0.690018 0 
-0.931813 -0.200088 0 
-1.14391 -0.383434 0 
-1.25326 -0.154271 0 
-1.06418 -0.481401 0 
-1.17288 -0.193445 0 
-1.19582 -0.210649 0 
SCALARS mass double 1
LOOKUP_TABLE default
0.625
0.625
0.625
0.625
0.625
0.625
0.625
0.625
0.625
0.625
0.625
0.625
0.625
0.625
0.625
0.625
0.625
0.625
0.625
0.625
0.625
0.625
0.625
0.625
0.625
0.625
0.625
0.625
0.625
0.625
0.625
0.625
0.625
0.625
0.625
0.625
0.625
0.625
0.625
0.625
0.625
0.625
0.625
0.625
0.625
0.625
0.625
0.625
0.625
0.625
0.625
0.625
0.625
0.625
0.625
0.625
0.625
0.625
0.625
0.625
0.625
0.625
0.625
0.625
SCALARS volume double 1
LOOKUP_TABLE default
0.000632617
0.000603291
0.000608159
0.000629027
0.000608566
0.000642536
0.000593481
0.000610541
0.000634928
0.00063016
0.000615031
0.000610379
0.000648582
0.00060509
0.000646778
0.000593006
0.000632783
0.000638782
0.000595293
0.000605025
0.000600473
0.000654846
0.00059289
0.000634412
0.000647444
0.000573543
0.000641679
0.000620519
0.000673747
0.000610244
0.000644776
0.000609254
0.000657997
0.00060564
0.000605588
0.000605787
0.000619568
0.000628403
0.00063055
0.000621654
0.000638569
0.000595239
0.000672488
0.000606457
0.000661298
0.000589329
0.000666838
0.000600373
0.000634556
0.000609371
0.00062436
0.000643736
0.000625145
0.000639284
0.000612944
0.000629772
0.000609593
0.000640239
0.000607277
0.000631387
0.000630713
0.000625388
0.00062896
0.000609686
VECTORS momentum double
-0.688105 -0.422274 0 
-0.473283 -0.0772454 0 
-0.675402 -0.212773 0 
-0.811338 -0.287698 0 
-0.654608 -0.419717 0 
-0.657673 -0.170948 0 
-0.726109 -0.430947 0 
-0.643934 -0.124402 0 
-0.692384 -0.28169 0 
-0.835266 -0.412742 0 
-0.669081 -0.316188 0 
-0.543691 -0.57767 0 
-0.584597 -0.191599 0 
-0.961464 -0.479983 0 
-0.495624 -0.0836659 0 
-1.0203 -0.314247 0 
-0.533336 -0.436765 0 
-0.640204 -0.188815 0 
-0.891701 -0.270869 0 
-0.673045 0.0249208 0 
-0.64742 -0.351495 0 
-0.641913 -0.181951 0 
-0.623828 -0.242883 0 
-0.665669 -0.151887 0 
-0.75748 -0.260444 0 
-0.736245 -0.453583 0 
-0.58054 -0.153693 0 
-0.642242 -0.420026 0 
-0.773387 -0.126476 0 
-0.923082 -0.358672 0 
-0.681017 0.052464 0 
-0.76981 -0.290063 0 
-0.662212 -0.283084 0 
-0.713385 -0.223714 0 
-0.700423 -0.287401 0 
-0.55286 -0.109476 0 
-0.621617 -0.405072 0 
-0.512869 -0.159573 0 
-0.446738 -0.410421 0 
-0.402517 -0.0689107 0 
-0.603006 -0.315658 0 
-0.586139 -0.464443 0 
-0.784796 -0.202548 0 
-0.784317 -0.238979 0 
-0.761786 -0.0873518 0 
-0.746735 -0.249516 0 
-0.808076 0.0494304 0 
-0.750348 -0.0781329 0 
-0.680384 -0.177675 0 
-0.484328 0.0707409 0 
-0.587119 -0.150284 0 
-0.498048 -0.294755 0 
-0.650848 -0.3772 0 
-0.390717 -0.164834 0 
-0.642496 -0.25573 0 
-0.565436 0.103761 0 
-0.618908 -0.226716 0 
-0.714614 -0.431261 0 
-0.582383 -0.125055 0 
-0.714945 -0.239646 0 
-0.783286 -0.0964194 0 
-0.665115 -0.300876 0 
-0.733049 -0.120903 0 
-0.747388 -0.131656 0 
VECTORS body_force double
0 -9.81 0 
0 -9.81 0 
0 -9.81 0 
0 -9.81 0 
0 -9.81 0 
0 -9.81 0 
0 -9.81 0 
0 -9.81 0 
0 -9.81 0 
0 -9.81 0 
0 -9.81 0 
0 -9.81 0 
0 -9.81 0 
0 -9.81 0 
0 -9.81 0 
0 -9.81 0 
0 -9.81 0 
0 -9.81 0 
0 -9.81 0 
0 -9.81 0 
0 -9.81 0 
0 -9.81 0 
0 -9.81 0 
0 -9.81 0 
0 -9.81 0 
0 -9.81 0 
0 -9.81 0 
0 -9.81 0 
0 -9.81 0 
0 -9.81 0 
0 -9.81 0 
0 -9.81 0 
0 -9.81 0 
0 -9.81 0 
0 -9.81 0 
0 -9.81 0 
0 -9.81 0 
0 -9.81 0 
0 -9.81 0 
0 -9.81 0 
0 -9.81 0 
0 -9.81 0 
0 -9.81 0 
0 -9.81 0 
0 -9.81 0 
0 -9.81 0 
0 -9.81 0 
0 -9.81 0 
0 -9.81 0 
0 -9.81 0 
0 -9.81 0 
0 -9.81 0 
0 -9.81 0 
0 -9.81 0 
0 -9.81 0 
0 -9.81 0 
0 -9.81 0 
0 -9.81 0 
0 -9.81 0 
0 -9.81 0 
0 -9.81 0 
0 -9.81 0 
0 -9.81 0 
0 -9.81 0 
TENSORS cauchy_stress double
1654.81 74.9426 0
74.9426 674.675 0
0 0 0

-5367.52 -1791.5 0
-1791.5 -1430.88 0
0 0 0

-2643.38 1738.03 0
1738.03 -2609.67 0
0 0 0

194.333 -171.557 0
-171.557 1040.7 0
0 0 0

-3957.51 1597.1 0
1597.1 -1166.7 0
0 0 0

2200.98 2004.8 0
2004.8 3120.47 0
0 0 0

-2407.6 -1935.66 0
-1935.66 -7543.63 0
0 0 0

-3860.23 504.225 0
504.225 -641.099 0
0 0 0

4468.3 -832.013 0
-832.013 -1437.45 0
0 0 0

142.778 2861.23 0
2861.23 1438.35 0
0 0 0

-1925.57 -2439.16 0
-2439.16 -1166.69 0
0 0 0

-2714.62 3076.8 0
3076.8 -1837.6 0
0 0 0

5708.37 -1393.22 0
-1393.22 1413.97 0
0 0 0

-3711.78 577.382 0
577.382 -2513.94 0
0 0 0

-385.117 -1344.12 0
-1344.12 6971.88 0
0 0 0

2097.36 -3014.36 0
-3014.36 -12202.5 0
0 0 0

1691.63 1440.31 0
1440.31 688.474 0
0 0 0

-809.712 1862.39 0
1862.39 5004.14 0
0 0 0

-4923.3 -1848.21 0
-1848.21 -4441.63 0
0 0 0

-5922.83 -116.961 0
-116.961 -323.577 0
0 0 0

-2392.77 1608.69 0
1608.69 -5305.98 0
0 0 0

3302.7 4979.25 0
4979.25 5668.05 0
0 0 0

-4917.32 -5116.96 0
-5116.96 -5225.47 0
0 0 0

-3489.98 979.728 0
979.728 6364.42 0
0 0 0

2357.8 620.755 0
620.755 4427.06 0
0 0 0

-5871.71 -1034.36 0
-1034.36 -10651.1 0
0 0 0

-2483.59 -895.21 0
-895.21 7548.33 0
0 0 0

2701.09 -4358.98 0
-4358.98 -4084.88 0
0 0 0

7099.22 1964.56 0
1964.56 7343.65 0
0 0 0

2499.49 -4419.82 0
-4419.82 -7094.41 0
0 0 0

2293.38 2146.82 0
2146.82 3697.39 0
0 0 0

-1949.75 -2300.69 0
-2300.69 -2957.28 0
0 0 0

6857.21 696.827 0
696.827 3036.89 0
0 0 0

-6585.12 4506.39 0
4506.39 534.015 0
0 0 0

-2120.78 -1359.86 0
-1359.86 -3946.88 0
0 0 0

-5542.3 454.293 0
454.293 -462.018 0
0 0 0

-1855.22 -2055.67 0
-2055.67 176.591 0
0 0 0

-1509.42 2947.99 0
2947.99 2553.71 0
0 0 0

436.372 -6122.07 0
-6122.07 1263.78 0
0 0 0

-1980.56 -533.09 0
-533.09 948.363 0
0 0 0

-2772.49 2459.39 0
2459.39 6902.84 0
0 0 0

-4981.35 -2425.47 0
-2425.47 -4401.21 0
0 0 0

2756.86 -720.808 0
-720.808 11326.4 0
0 0 0

1280.52 -7925.72 0
-7925.72 -7072.42 0
0 0 0

668.317 5627.73 0
5627.73 10188 0
0 0 0

3766.76 -5215.55 0
-5215.55 -15068.1 0
0 0 0

2727.79 2769.94 0
2769.94 9732.95 0
0 0 0

-3146.02 -6748.05 0
-6748.05 -4584.69 0
0 0 0

261.101 1700.67 0
1700.67 2656.94 0
0 0 0

-6748.76 2768.98 0
2768.98 1878.71 0
0 0 0

401.063 232.577 0
232.577 -598.126 0
0 0 0

1713.96 848.656 0
848.656 3966.12 0
0 0 0

1203.83 -2157.9 0
-2157.9 -1159.25 0
0 0 0

3429.07 -834.542 0
-834.542 916.414 0
0 0 0

-2639.44 39.1388 0
39.1388 -1106.27 0
0 0 0

-1641.54 1045.23 0
1045.23 3104.24 0
0 0 0

-4357.09 1414.11 0
1414.11 -443.031 0
0 0 0

3622.55 -2300.54 0
-2300.54 1009.99 0
0 0 0

-2966.27 938.962 0
938.962 -2565.8 0
0 0 0

2453 -2512.99 0
-2512.99 -497.591 0
0 0 0

-1359.1 3809.08 0
3809.08 3108.82 0
0 0 0

1362.48 -2721.14 0
-2721.14 -1243.22 0
0 0 0

-3268.35 -1381.43 0
-1381.43 4482.89 0
0 0 0

342.629 1599.17 0
1599.17 -5113.39 0
0 0 0

TENSORS velocity_gradient double
-0.353923 0.320696 0
1.01361 0.645265 0
0 0 0

-0.0710534 0.425502 0
0.47881 0.585728 0
0 0 0

-0.310351 0.291528 0
0.651373 0.41685 0
0 0 0

-0.617753 0.275471 0
0.536376 0.410844 0
0 0 0

0.369703 -0.848774 0
0.0583299 -0.150628 0
0 0 0

-0.538462 -1.00382 0
0.197098 -0.162726 0
0 0 0

-0.676441 -0.811316 0
0.470237 -0.156236 0
0 0 0

-0.242091 -0.782547 0
0.494628 -0.15462 0
0 0 0

-1.50618 -1.28931 0
0.0639215 -1.2983 0
0 0 0

-1.23864 -1.35023 0
0.449721 -1.32882 0
0 0 0

0.147685 -0.907209 0
0.790113 -0.426025 0
0 0 0

0.386473 -0.930183 0
1.6196 -0.505831 0
0 0 0

0.289735 -4.77979 0
1.46752 -1.0744 0
0 0 0

2.38247 -5.01003 0
1.43891 -1.11923 0
0 0 0

0.525044 -4.4821 0
2.29385 -0.766786 0
0 0 0

0.454017 -4.47604 0
2.5373 -0.787558 0
0 0 0

-0.355735 0.314565 0
0.963346 0.303759 0
0 0 0

0.755341 0.325727 0
0.880598 0.301931 0
0 0 0

-0.528235 1.65358 0
1.0956 0.21646 0
0 0 0

1.03135 1.6763 0
1.00495 0.215139 0
0 0 0

1.35608 -0.440838 0
0.762033 -0.160531 0
0 0 0

1.71036 -0.433544 0
0.687631 -0.161987 0
0 0 0

2.2227 -0.234425 0
0.904092 -0.267142 0
0 0 0

2.35988 -0.294649 0
0.764459 -0.283507 0
0 0 0

1.50337 -0.96689 0
0.883197 0.309313 0
0 0 0

0.567263 -0.910863 0
1.54237 0.232648 0
0 0 0

1.99005 -2.16075 0
0.86719 0.898211 0
0 0 0

0.762898 -2.08091 0
1.41297 0.862705 0
0 0 0

0.413501 -4.3062 0
2.01243 -0.510526 0
0 0 0

1.39475 -4.29979 0
2.33248 -0.507312 0
0 0 0

0.345554 -3.08538 0
1.90969 -0.168051 0
0 0 0

1.61312 -3.10785 0
2.24734 -0.174037 0
0 0 0

1.07441 1.86841 0
1.63443 -0.477286 0
0 0 0

1.51847 2.85488 0
1.32575 0.0662811 0
0 0 0

2.98059 1.93556 0
2.28768 -0.611715 0
0 0 0

2.27542 2.41732 0
1.70361 -0.508508 0
0 0 0

1.79969 0.149819 0
1.08074 -0.290081 0
0 0 0

1.40137 -0.319671 0
1.15766 -0.35106 0
0 0 0

1.45841 -0.550071 0
1.24385 -0.154432 0
0 0 0

0.451734 -1.15113 0
1.54354 -0.0822531 0
0 0 0

0.376045 -3.23118 0
1.4165 1.2757 0
0 0 0

-0.315968 -3.22196 0
1.35435 1.2747 0
0 0 0

-0.452674 -3.60078 0
1.72286 0.926766 0
0 0 0

-0.932303 -3.76821 0
1.36572 0.985567 0
0 0 0

-0.598948 -1.78048 0
1.23122 0.115923 0
0 0 0

0.860585 -1.76578 0
1.35329 0.118249 0
0 0 0

-0.930049 -0.254935 0
1.0927 0.236874 0
0 0 0

0.626797 -0.160463 0
1.20413 0.241656 0
0 0 0

1.23927 1.42524 0
0.119286 -0.703678 0
0 0 0

1.59525 1.73075 0
1.12656 -1.02961 0
0 0 0

0.326726 0.869 0
-1.04058 -0.290078 0
0 0 0

-0.229786 1.16699 0
-0.458502 -0.661919 0
0 0 0

0.487752 -1.15482 0
0.754422 0.018932 0
0 0 0

0.176079 -1.98268 0
1.34197 0.322004 0
0 0 0

-0.57892 -0.610743 0
0.156909 0.518615 0
0 0 0

-0.239499 -1.73947 0
1.08101 1.19943 0
0 0 0

-0.0606542 -3.47756 0
1.70637 0.48439 0
0 0 0

0.191133 -4.08458 0
1.01205 0.497886 0
0 0 0

0.205081 -2.97121 0
1.69088 0.15164 0
0 0 0

0.742289 -3.58442 0
0.853079 -0.533071 0
0 0 0

0.478183 -0.240853 0
0.322388 0.461447 0
0 0 0

-0.262213 0.687671 0
0.74705 0.494911 0
0 0 0

0.984556 -1.402 0
0.0672248 0.687261 0
0 0 0

-0.226796 -0.789635 0
0.645773 1.28576 0
0 0 0

SCALARS active double 1
LOOKUP_TABLE default
1
1
1
1
1
1
1
1
1
1
1
1
1
1
1
1
1
1
1
1
1
1
1
1
1
1
1
1
1
1
1
1
1
1
1
1
1
1
1
1
1
1
1
1
1
1
1
1
1
1
1
1
1
1
1
1
1
1
1
1
1
1
1
1
SCALARS extent double 1
LOOKUP_TABLE default
0.0125
0.0125
0.0125
0.0125
0.0125
0.0125
0.0125
0.0125
0.0125
0.0125
0.0125
0.0125
0.0125
0.0125
0.0125
0.0125
0.0125
0.0125
0.0125
0.0125
0.0125
0.0125
0.0125
0.0125
0.0125
0.0125
0.0125
0.0125
0.0125
0.0125
0.0125
0.0125
0.0125
0.0125
0.0125
0.0125
0.0125
0.0125
0.0125
0.0125
0.0125
0.0125
0.0125
0.0125
0.0125
0.0125
0.0125
0.0125
0.0125
0.0125
0.0125
0.0125
0.0125
0.0125
0.0125
0.0125
0.0125
0.0125
0.0125
0.0125
0.0125
0.0125
0.0125
0.0125
SCALARS pressure double 1
LOOKUP_TABLE default
-1164.74
3399.2
2626.52
-617.514
2562.11
-2660.72
4975.62
2250.66
-1515.43
-790.565
1546.13
2276.11
-3561.17
3112.86
-3293.38
5052.56
-1190.05
-2097.21
4682.47
3123.2
3849.38
-4485.38
5071.4
-1437.22
-3392.43
8261.41
-2532.37
691.895
-7221.44
2297.46
-2995.39
2453.51
-4947.05
3025.55
3033.83
3002.16
839.312
-522.141
-850.074
516.099
-2065.17
4691.28
-7041.62
2895.95
-5428.13
5650.68
-6230.37
3865.36
-1459.02
2435.03
98.5318
-2840.04
-22.2872
-2172.74
1872.86
-731.35
2400.06
-2316.27
2766.03
-977.704
-874.864
-59.6307
-607.268
2385.38
SCALARS density double 1
LOOKUP_TABLE default
987.96
1035.98
1027.69
993.598
1027
972.708
1053.11
1023.68
984.363
991.812
1016.21
1023.95
963.641
1032.9
966.329
1053.95
987.7
978.425
1049.9
1033.01
1040.85
954.423
1054.16
985.164
965.334
1089.72
974.007
1007.22
927.648
1024.18
969.328
1025.84
949.852
1031.97
1032.05
1031.71
1008.77
994.584
991.198
1005.38
978.751
1050
929.384
1030.58
945.111
1060.53
937.259
1041.02
984.941
1025.65
1001.03
970.896
999.768
977.657
1019.67
992.423
1025.27
976.199
1029.18
989.883
990.943
999.38
993.704
1025.12
