# vtk DataFile Version 3.0
Frame: 55, Time: 0.934
ASCII
DATASET UNSTRUCTURED_GRID
POINTS 64 double
0.0704807 0.0470853 0 
0.067923 0.0709545 0 
0.0953822 0.0510339 0 
0.0920558 0.0756532 0 
0.0613918 0.0940263 0 
0.056104 0.117869 0 
0.0868314 0.0998035 0 
0.0807916 0.124355 0 
0.0492163 0.140432 0 
0.0435708 0.165442 0 
0.0743745 0.148718 0 
0.0672734 0.171973 0 
0.0417377 0.19172 0 
0.0390776 0.217455 0 
0.0644705 0.197218 0 
0.0607672 0.222289 0 
0.119921 0.0561619 0 
0.114878 0.0812694 0 
0.143071 0.0589991 0 
0.137987 0.0841363 0 
0.109313 0.106375 0 
0.102433 0.130315 0 
0.134512 0.109463 0 
0.128125 0.132948 0 
0.0961173 0.155108 0 
0.0889604 0.178597 0 
0.122144 0.157556 0 
0.116398 0.180373 0 
0.0863897 0.203505 0 
0.0822809 0.229676 0 
0.112786 0.205055 0 
0.106802 0.23 0 
0.16716 0.061249 0 
0.159809 0.0864488 0 
0.194594 0.0678438 0 
0.184317 0.0912468 0 
0.156945 0.112177 0 
0.151253 0.136995 0 
0.181591 0.116029 0 
0.175566 0.140286 0 
0.146943 0.161876 0 
0.142469 0.184846 0 
0.171784 0.164843 0 
0.166774 0.189431 0 
0.137311 0.209636 0 
0.130805 0.23406 0 
0.160045 0.214493 0 
0.152334 0.239449 0 
0.219896 0.073104 0 
0.207303 0.0971037 0 
0.244232 0.0788977 0 
0.231428 0.102221 0 
0.205492 0.122018 0 
0.200004 0.146271 0 
0.230985 0.125548 0 
0.225444 0.149886 0 
0.195834 0.170147 0 
0.191339 0.194926 0 
0.220866 0.175735 0 
0.216974 0.201313 0 
0.18287 0.219762 0 
0.175537 0.2441 0 
0.208593 0.226321 0 
0.205501 0.250637 0 
CELLS 64 128
1 0
1 1
1 2
1 3
1 4
1 5
1 6
1 7
1 8
1 9
1 10
1 11
1 12
1 13
1 14
1 15
1 16
1 17
1 18
1 19
1 20
1 21
1 22
1 23
1 24
1 25
1 26
1 27
1 28
1 29
1 30
1 31
1 32
1 33
1 34
1 35
1 36
1 37
1 38
1 39
1 40
1 41
1 42
1 43
1 44
1 45
1 46
1 47
1 48
1 49
1 50
1 51
1 52
1 53
1 54
1 55
1 56
1 57
1 58
1 59
1 60
1 61
1 62
1 63
CELL_TYPES 64
1
1
1
1
1
1
1
1
1
1
1
1
1
1
1
1
1
1
1
1
1
1
1
1
1
1
1
1
1
1
1
1
1
1
1
1
1
1
1
1
1
1
1
1
1
1
1
1
1
1
1
1
1
1
1
1
1
1
1
1
1
1
1
1
POINT_DATA 64
VECTORS displacement double
-0.342019 -0.365415 0 
-0.344577 -0.366545 0 
-0.342118 -0.361466 0 
-0.345444 -0.361847 0 
-0.351108 -0.368474 0 
-0.356396 -0.369631 0 
-0.350669 -0.362697 0 
-0.356708 -0.363145 0 
-0.363284 -0.372068 0 
-0.368929 -0.372058 0 
-0.363126 -0.363782 0 
-0.370227 -0.365527 0 
-0.370762 -0.37078 0 
-0.373422 -0.370045 0 
-0.37303 -0.365282 0 
-0.376733 -0.365211 0 
-0.342579 -0.356338 0 
-0.347622 -0.356231 0 
-0.344429 -0.353501 0 
-0.349513 -0.353364 0 
-0.353187 -0.356125 0 
-0.360067 -0.357185 0 
-0.352988 -0.353037 0 
-0.359375 -0.354552 0 
-0.366383 -0.357392 0 
-0.37354 -0.358903 0 
-0.365356 -0.354944 0 
-0.371102 -0.357127 0 
-0.37611 -0.358995 0 
-0.380219 -0.357824 0 
-0.374714 -0.357445 0 
-0.380698 -0.3575 0 
-0.34534 -0.351251 0 
-0.352691 -0.351051 0 
-0.342906 -0.344656 0 
-0.353183 -0.346253 0 
-0.355555 -0.350323 0 
-0.361247 -0.350505 0 
-0.355909 -0.346471 0 
-0.361934 -0.347214 0 
-0.365557 -0.350624 0 
-0.370031 -0.352654 0 
-0.365716 -0.347657 0 
-0.370726 -0.348069 0 
-0.375189 -0.352864 0 
-0.381695 -0.35344 0 
-0.377455 -0.348007 0 
-0.385166 -0.348051 0 
-0.342604 -0.339396 0 
-0.355197 -0.340396 0 
-0.343268 -0.333602 0 
-0.356072 -0.335279 0 
-0.357008 -0.340482 0 
-0.362496 -0.341229 0 
-0.356515 -0.336952 0 
-0.362056 -0.337614 0 
-0.366666 -0.342353 0 
-0.371161 -0.342574 0 
-0.366634 -0.336765 0 
-0.370526 -0.336187 0 
-0.37963 -0.342738 0 
-0.386963 -0.3434 0 
-0.378907 -0.336179 0 
-0.381999 -0.336863 0 
VECTORS velocity double
0.0997662 -0.417984 0 
-0.486424 -0.122144 0 
0.101405 0.342724 0 
-0.669067 0.387025 0 
-0.491232 -0.640528 0 
-0.65857 -0.445988 0 
-0.537751 -0.376117 0 
-0.540805 -0.13728 0 
-0.408814 -0.731809 0 
-0.844297 -1.06608 0 
-0.461117 -0.331755 0 
-0.430221 -0.440005 0 
-0.502063 -0.762092 0 
-1.26544 -0.419356 0 
-0.355817 0.0692163 0 
0.127586 0.467062 0 
0.0879266 0.186008 0 
-0.555178 0.706598 0 
-0.0295932 0.700012 0 
-0.506587 1.06109 0 
-0.465908 0.231428 0 
-0.588725 0.259888 0 
-0.386717 0.531346 0 
-0.600002 0.681849 0 
-1.1136 -0.0458113 0 
-1.13886 -0.171385 0 
-1.28202 0.769468 0 
-1.7153 0.511246 0 
-1.15281 0.214735 0 
-0.933516 0.693345 0 
-1.5749 0.524027 0 
-1.88481 0.103427 0 
-0.117788 0.934834 0 
-1.08867 1.10397 0 
-0.739164 1.05676 0 
-0.935468 1.48807 0 
-0.945411 0.599967 0 
-0.560125 0.741787 0 
-0.577944 1.1742 0 
-0.611248 1.3529 0 
-1.06963 0.817139 0 
-1.08341 0.716128 0 
-1.23394 1.19058 0 
-0.589146 0.895561 0 
-0.856023 0.246645 0 
-1.61811 0.288149 0 
-0.279652 0.585919 0 
-1.59142 0.336801 0 
-0.0457358 0.925748 0 
-0.41937 1.15484 0 
-0.34292 1.65837 0 
-0.727798 1.35143 0 
-0.617883 0.579808 0 
-0.68712 1.08413 0 
-0.79366 1.07586 0 
-1.07982 1.03634 0 
-1.07727 1.18513 0 
-0.609007 0.657246 0 
-0.971575 1.18542 0 
-0.835997 1.26946 0 
-1.15195 0.635436 0 
-2.17623 0.589619 0 
-1.20119 0.91494 0 
-1.47697 1.06646 0 
SCALARS mass double 1
LOOKUP_TABLE default
0.625
0.625
0.625
0.625
0.625
0.625
0.625
0.625
0.625
0.625
0.625
0.625
0.625
0.625
0.625
0.625
0.625
0.625
0.625
0.625
0.625
0.625
0.625
0.625
0.625
0.625
0.625
0.625
0.625
0.625
0.625
0.625
0.625
0.625
0.625
0.625
0.625
0.625
0.625
0.625
0.625
0.625
0.625
0.625
0.625
0.625
0.625
0.625
0.625
0.625
0.625
0.625
0.625
0.625
0.625
0.625
0.625
0.625
0.625
0.625
0.625
0.625
0.625
0.625
SCALARS volume double 1
LOOKUP_TABLE default
0.000612757
0.000613929
0.000611098
0.000611351
0.000601953
0.000607602
0.000621299
0.000611817
0.000561896
0.000557969
0.00060404
0.000596957
0.000558891
0.000528295
0.000594549
0.000575471
0.000633251
0.000614315
0.000616912
0.000594775
0.000619796
0.000632198
0.000615131
0.000593084
0.000631422
0.000587252
0.000610473
0.000617392
0.000626537
0.000574466
0.000611322
0.000595803
0.000642693
0.000595959
0.00060827
0.000606784
0.000639549
0.000640341
0.000616045
0.000605441
0.000626111
0.000598347
0.000632252
0.000606866
0.000614326
0.000571309
0.000633904
0.000575321
0.000639386
0.000638403
0.000622974
0.000627585
0.000619628
0.000625956
0.000633968
0.000625818
0.000611397
0.000634356
0.000659183
0.00060319
0.00060967
0.000657991
0.000636641
0.000630217
VECTORS momentum double
0.0623539 -0.26124 0 
-0.304015 -0.0763401 0 
0.0633783 0.214202 0 
-0.418167 0.241891 0 
-0.30702 -0.40033 0 
-0.411606 -0.278743 0 
-0.336094 -0.235073 0 
-0.338003 -0.0857997 0 
-0.255509 -0.457381 0 
-0.527686 -0.666297 0 
-0.288198 -0.207347 0 
-0.268888 -0.275003 0 
-0.313789 -0.476307 0 
-0.790899 -0.262097 0 
-0.222386 0.0432602 0 
0.079741 0.291914 0 
0.0549541 0.116255 0 
-0.346986 0.441624 0 
-0.0184957 0.437507 0 
-0.316617 0.66318 0 
-0.291193 0.144642 0 
-0.367953 0.16243 0 
-0.241698 0.332091 0 
-0.375001 0.426156 0 
-0.696003 -0.028632 0 
-0.711785 -0.107116 0 
-0.80126 0.480917 0 
-1.07206 0.319529 0 
-0.720507 0.13421 0 
-0.583447 0.433341 0 
-0.984314 0.327517 0 
-1.17801 0.0646419 0 
-0.0736178 0.584271 0 
-0.680421 0.689983 0 
-0.461978 0.660475 0 
-0.584668 0.930042 0 
-0.590882 0.374979 0 
-0.350078 0.463617 0 
-0.361215 0.733874 0 
-0.38203 0.845564 0 
-0.668517 0.510712 0 
-0.677134 0.44758 0 
-0.771213 0.744113 0 
-0.368216 0.559726 0 
-0.535014 0.154153 0 
-1.01132 0.180093 0 
-0.174783 0.3662 0 
-0.994638 0.210501 0 
-0.0285849 0.578593 0 
-0.262106 0.721774 0 
-0.214325 1.03648 0 
-0.454874 0.844646 0 
-0.386177 0.36238 0 
-0.42945 0.67758 0 
-0.496038 0.672414 0 
-0.674886 0.647712 0 
-0.673297 0.740706 0 
-0.38063 0.410778 0 
-0.607234 0.740889 0 
-0.522498 0.793415 0 
-0.719967 0.397147 0 
-1.36014 0.368512 0 
-0.750741 0.571837 0 
-0.923105 0.66654 0 
VECTORS body_force double
0 -9.81 0 
0 -9.81 0 
0 -9.81 0 
0 -9.81 0 
0 -9.81 0 
0 -9.81 0 
0 -9.81 0 
0 -9.81 0 
0 -9.81 0 
0 -9.81 0 
0 -9.81 0 
0 -9.81 0 
0 -9.81 0 
0 -9.81 0 
0 -9.81 0 
0 -9.81 0 
0 -9.81 0 
0 -9.81 0 
0 -9.81 0 
0 -9.81 0 
0 -9.81 0 
0 -9.81 0 
0 -9.81 0 
0 -9.81 0 
0 -9.81 0 
0 -9.81 0 
0 -9.81 0 
0 -9.81 0 
0 -9.81 0 
0 -9.81 0 
0 -9.81 0 
0 -9.81 0 
0 -9.81 0 
0 -9.81 0 
0 -9.81 0 
0 -9.81 0 
0 -9.81 0 
0 -9.81 0 
0 -9.81 0 
0 -9.81 0 
0 -9.81 0 
0 -9.81 0 
0 -9.81 0 
0 -9.81 0 
0 -9.81 0 
0 -9.81 0 
0 -9.81 0 
0 -9.81 0 
0 -9.81 0 
0 -9.81 0 
0 -9.81 0 
0 -9.81 0 
0 -9.81 0 
0 -9.81 0 
0 -9.81 0 
0 -9.81 0 
0 -9.81 0 
0 -9.81 0 
0 -9.81 0 
0 -9.81 0 
0 -9.81 0 
0 -9.81 0 
0 -9.81 0 
0 -9.81 0 
TENSORS cauchy_stress double
1620.13 1928.23 0
1928.23 -5424.52 0
0 0 0

-1078.61 -61.3132 0
-61.3132 -2358.25 0
0 0 0

-2405.54 -16.3788 0
-16.3788 -1920.33 0
0 0 0

-2342.85 -1013.23 0
-1013.23 -1903.39 0
0 0 0

-2825.37 1991.95 0
1991.95 -4400.08 0
0 0 0

-4644.66 1720.48 0
1720.48 -784.372 0
0 0 0

1950.42 362 0
362 -3092.46 0
0 0 0

-3217.12 -1534.26 0
-1534.26 -882.694 0
0 0 0

-11215.5 340.503 0
340.503 -9252.75 0
0 0 0

-19801.7 1052.26 0
1052.26 -2015.37 0
0 0 0

-3270.49 708.18 0
708.18 -3289.38 0
0 0 0

-7107.07 4246.38 0
4246.38 -1721.12 0
0 0 0

-19232.5 156.159 0
156.159 -2266.86 0
0 0 0

-29654.4 1322.11 0
1322.11 -2671.8 0
0 0 0

-10964 999.229 0
999.229 1358.48 0
0 0 0

-13719.6 3302 0
3302 -2157.95 0
0 0 0

-278.815 822.214 0
822.214 2801 0
0 0 0

-7076.35 578.062 0
578.062 3760.22 0
0 0 0

-1542.91 -112.675 0
-112.675 -961.907 0
0 0 0

-8660.57 -2116.98 0
-2116.98 -871.709 0
0 0 0

-4254.04 3618.27 0
3618.27 2646.02 0
0 0 0

2247.45 -725.053 0
-725.053 -45.3051 0
0 0 0

-2899.54 -1153.13 0
-1153.13 -161.397 0
0 0 0

-3644.62 -3794.62 0
-3794.62 -6435.28 0
0 0 0

1065.89 -1067.02 0
-1067.02 899.883 0
0 0 0

-3808.96 -1735.39 0
-1735.39 -8171.37 0
0 0 0

-3639.17 330.744 0
330.744 -883.296 0
0 0 0

4091.83 -1560.66 0
-1560.66 -6447.04 0
0 0 0

-519.298 2473.85 0
2473.85 991.54 0
0 0 0

-9152.52 -5728 0
-5728 -7061.17 0
0 0 0

-2098.97 -717.037 0
-717.037 -2156.42 0
0 0 0

-4271.13 -5493.66 0
-5493.66 -4929.32 0
0 0 0

1997.37 1765.21 0
1765.21 3370.92 0
0 0 0

-9760.97 -1721.28 0
-1721.28 611.136 0
0 0 0

-1238.11 3096.8 0
3096.8 -3979.79 0
0 0 0

-3469.52 -2099.71 0
-2099.71 -2218.73 0
0 0 0

1429.62 -529.948 0
-529.948 2995.61 0
0 0 0

2541.01 -3436.41 0
-3436.41 2122.31 0
0 0 0

-1506.93 -574.125 0
-574.125 -1268.47 0
0 0 0

-4060.52 428.521 0
428.521 -2053.67 0
0 0 0

2111.8 -849.036 0
-849.036 -1770.32 0
0 0 0

2141.25 504.368 0
504.368 -10522.3 0
0 0 0

-358.801 -957.847 0
-957.847 2577.39 0
0 0 0

448.847 951.225 0
951.225 -6111.24 0
0 0 0

-4783.52 -1104.81 0
-1104.81 1470.9 0
0 0 0

-6228.39 -3016.2 0
-3016.2 -11045.1 0
0 0 0

-3317.82 -4759.1 0
-4759.1 6038.08 0
0 0 0

-11337 -3316.96 0
-3316.96 -4590.67 0
0 0 0

2719.15 1806.78 0
1806.78 1657.16 0
0 0 0

-1679.92 -1161.69 0
-1161.69 5760.3 0
0 0 0

5.28204 1137.37 0
1137.37 -629.783 0
0 0 0

-192.058 482.71 0
482.71 985.713 0
0 0 0

-2408.82 1620.42 0
1620.42 748.798 0
0 0 0

606.867 487.863 0
487.863 -313.055 0
0 0 0

-281.319 1803.3 0
1803.3 3021.23 0
0 0 0

2171.17 -1813.3 0
-1813.3 -1919.55 0
0 0 0

-3475.03 598.072 0
598.072 -756.625 0
0 0 0

1826.77 -40.8217 0
-40.8217 1030.61 0
0 0 0

2055.58 -2816.24 0
-2816.24 8184.72 0
0 0 0

-3712.03 -1765.3 0
-1765.3 -3118.63 0
0 0 0

-3429.84 -6544.34 0
-6544.34 -1345.77 0
0 0 0

4394.69 2476.7 0
2476.7 5497.63 0
0 0 0

4624.64 -3315.45 0
-3315.45 -1075.69 0
0 0 0

-581.025 188.172 0
188.172 2179.57 0
0 0 0

TENSORS velocity_gradient double
0.0344441 -9.44236 0
8.83274 -1.39127 0
0 0 0

0.463478 -7.41269 0
10.5032 -2.62977 0
0 0 0

-0.0369852 -7.81547 0
9.51645 0.806326 0
0 0 0

0.485599 -7.29268 0
10.6849 -1.64394 0
0 0 0

0.545023 -7.18952 0
11.4472 -2.87394 0
0 0 0

-1.59844 -0.87929 0
12.2159 -2.68536 0
0 0 0

0.226694 -5.99957 0
11.6395 -1.82135 0
0 0 0

-2.347 -3.8696 0
12.3967 -1.96348 0
0 0 0

-8.00373 -0.430412 0
10.3254 -1.55565 0
0 0 0

-11.4537 -0.431098 0
5.08986 5.85085 0
0 0 0

-5.33176 -3.37575 0
12.8499 0.489774 0
0 0 0

-8.35061 -2.83284 0
11.5551 4.72514 0
0 0 0

-11.8037 -0.39378 0
5.54622 5.8213 0
0 0 0

-12.7185 -1.89011 0
7.06962 9.44552 0
0 0 0

-11.405 -2.40876 0
9.6735 5.93045 0
0 0 0

-11.8168 -2.28939 0
6.94144 8.86794 0
0 0 0

-1.49465 -7.6628 0
11.6214 -0.221301 0
0 0 0

-1.92578 -7.51019 0
12.5185 -0.821919 0
0 0 0

-1.54868 -7.97811 0
11.761 0.118027 0
0 0 0

-1.96874 -7.89654 0
12.6048 -0.045832 0
0 0 0

-2.07972 -5.87101 0
13.2871 -1.20854 0
0 0 0

-1.83912 -5.80117 0
13.4936 -1.36709 0
0 0 0

-2.01035 -5.18085 0
13.3466 -0.67405 0
0 0 0

-1.38548 -5.34703 0
13.8482 -0.807446 0
0 0 0

-4.67455 -6.24181 0
12.9297 2.17735 0
0 0 0

-9.18545 -5.71236 0
11.101 3.15883 0
0 0 0

-0.442476 -5.49601 0
13.3668 -0.32519 0
0 0 0

1.08916 -5.8718 0
10.6237 0.347857 0
0 0 0

-11.7765 -2.83023 0
9.10072 5.24443 0
0 0 0

-11.7556 -2.10407 0
6.09264 6.29629 0
0 0 0

1.75426 -3.85888 0
7.35842 1.74141 0
0 0 0

-0.929672 -2.87551 0
3.02716 2.91424 0
0 0 0

-3.18242 -6.40239 0
5.38372 0.605126 0
0 0 0

-0.757838 -7.09389 0
5.76497 0.496393 0
0 0 0

-1.98472 -3.8491 0
5.42079 0.969025 0
0 0 0

-0.310676 -4.73444 0
5.83528 0.867394 0
0 0 0

0.755506 -4.70279 0
5.86054 -0.441574 0
0 0 0

0.257271 -4.79707 0
8.38047 -0.448301 0
0 0 0

0.796905 -4.42776 0
5.82036 -0.708556 0
0 0 0

1.06818 -4.49374 0
5.55702 -0.644511 0
0 0 0

0.402599 -3.90086 0
10.4437 -3.04767 0
0 0 0

1.37081 -4.12755 0
10.1193 -2.77607 0
0 0 0

1.67315 -2.90249 0
5.48249 -3.48932 0
0 0 0

2.53284 -3.07393 0
5.55519 -3.50382 0
0 0 0

1.39325 -6.32007 0
6.62699 -2.4238 0
0 0 0

-1.38186 -5.59965 0
2.32641 -1.30736 0
0 0 0

2.19012 -8.2222 0
6.31746 -3.85864 0
0 0 0

0.274007 -7.74628 0
6.36207 -3.9621 0
0 0 0

2.62254 -4.18814 0
4.59254 -0.192568 0
0 0 0

1.49774 -3.87234 0
3.08196 0.255986 0
0 0 0

2.33015 -5.21455 0
4.17455 -1.67331 0
0 0 0

1.14491 -6.20104 0
2.78565 -1.91812 0
0 0 0

-0.610619 -4.82332 0
1.70209 -1.23678 0
0 0 0

-1.09434 -4.27555 0
2.66701 -1.29086 0
0 0 0

-0.949312 -7.25267 0
1.49738 -2.61613 0
0 0 0

-2.87659 -4.14817 0
0.590238 -1.60124 0
0 0 0

0.89295 -2.02615 0
4.71753 -3.26125 0
0 0 0

2.70726 -2.39739 0
5.57818 -3.40378 0
0 0 0

-1.85971 -0.603016 0
2.80801 -1.03025 0
0 0 0

-0.45445 -5.73124 0
5.38657 -1.24604 0
0 0 0

1.91661 -9.43696 0
6.58784 -2.65775 0
0 0 0

0.614859 -9.05917 0
7.87472 -3.03123 0
0 0 0

-0.125809 -10.2234 0
6.64407 -1.40459 0
0 0 0

0.0991054 -6.83897 0
7.0415 -2.83829 0
0 0 0

SCALARS active double 1
LOOKUP_TABLE default
1
1
1
1
1
1
1
1
1
1
1
1
1
1
1
1
1
1
1
1
1
1
1
1
1
1
1
1
1
1
1
1
1
1
1
1
1
1
1
1
1
1
1
1
1
1
1
1
1
1
1
1
1
1
1
1
1
1
1
1
1
1
1
1
SCALARS extent double 1
LOOKUP_TABLE default
0.0125
0.0125
0.0125
0.0125
0.0125
0.0125
0.0125
0.0125
0.0125
0.0125
0.0125
0.0125
0.0125
0.0125
0.0125
0.0125
0.0125
0.0125
0.0125
0.0125
0.0125
0.0125
0.0125
0.0125
0.0125
0.0125
0.0125
0.0125
0.0125
0.0125
0.0125
0.0125
0.0125
0.0125
0.0125
0.0125
0.0125
0.0125
0.0125
0.0125
0.0125
0.0125
0.0125
0.0125
0.0125
0.0125
0.0125
0.0125
0.0125
0.0125
0.0125
0.0125
0.0125
0.0125
0.0125
0.0125
0.0125
0.0125
0.0125
0.0125
0.0125
0.0125
0.0125
0.0125
SCALARS pressure double 1
LOOKUP_TABLE default
1902.2
1718.43
2162.94
2123.12
3612.72
2714.51
571.023
2049.91
10234.1
10908.5
3279.94
4414.09
10749.7
16163.1
4802.74
7938.8
-1261.09
1658.07
1252.41
4766.14
804.01
-1101.07
1530.47
5039.95
-982.889
5990.16
2261.23
1177.61
-236.121
8106.84
2127.69
4600.22
-2684.15
4574.92
2608.95
2844.13
-2212.62
-2331.66
1387.7
3057.09
-170.739
4190.54
-1109.3
2831.2
1656.31
8636.72
-1360.13
7963.86
-2188.16
-2040.19
312.25
-396.827
830.012
-146.906
-1369.95
-125.809
2115.83
-1428.69
-5120.15
3415.33
2387.81
-4946.16
-1774.47
-799.273
SCALARS density double 1
LOOKUP_TABLE default
1019.98
1018.03
1022.75
1022.33
1038.29
1028.63
1005.96
1021.55
1112.31
1120.13
1034.7
1046.98
1118.29
1183.05
1051.22
1086.07
986.97
1017.39
1013.11
1050.82
1008.4
988.614
1016.04
1053.81
989.83
1064.28
1023.8
1012.32
997.547
1087.97
1022.37
1049.01
972.471
1048.73
1027.5
1030.02
977.252
976.042
1014.54
1032.3
998.226
1044.55
988.53
1029.88
1017.37
1093.98
985.954
1086.35
977.5
979.006
1003.25
995.881
1008.67
998.473
985.853
998.692
1022.25
985.251
948.143
1036.16
1025.14
949.861
981.715
991.722
