# vtk DataFile Version 3.0
Frame: 4, Time: 0.084
ASCII
DATASET UNSTRUCTURED_GRID
POINTS 64 double
0.4125 0.376644 0 
0.4125 0.401644 0 
0.4375 0.376644 0 
0.4375 0.401644 0 
0.4125 0.426644 0 
0.4125 0.451644 0 
0.4375 0.426644 0 
0.4375 0.451644 0 
0.4125 0.476644 0 
0.4125 0.501644 0 
0.4375 0.476644 0 
0.4375 0.501644 0 
0.4125 0.526644 0 
0.4125 0.551644 0 
0.4375 0.526644 0 
0.4375 0.551644 0 
0.4625 0.376644 0 
0.4625 0.401644 0 
0.4875 0.376644 0 
0.4875 0.401644 0 
0.4625 0.426644 0 
0.4625 0.451644 0 
0.4875 0.426644 0 
0.4875 0.451644 0 
0.4625 0.476644 0 
0.4625 0.501644 0 
0.4875 0.476644 0 
0.4875 0.501644 0 
0.4625 0.526644 0 
0.4625 0.551644 0 
0.4875 0.526644 0 
0.4875 0.551644 0 
0.5125 0.376644 0 
0.5125 0.401644 0 
0.5375 0.376644 0 
0.5375 0.401644 0 
0.5125 0.426644 0 
0.5125 0.451644 0 
0.5375 0.426644 0 
0.5375 0.451644 0 
0.5125 0.476644 0 
0.5125 0.501644 0 
0.5375 0.476644 0 
0.5375 0.501644 0 
0.5125 0.526644 0 
0.5125 0.551644 0 
0.5375 0.526644 0 
0.5375 0.551644 0 
0.5625 0.376644 0 
0.5625 0.401644 0 
0.5875 0.376644 0 
0.5875 0.401644 0 
0.5625 0.426644 0 
0.5625 0.451644 0 
0.5875 0.426644 0 
0.5875 0.451644 0 
0.5625 0.476644 0 
0.5625 0.501644 0 
0.5875 0.476644 0 
0.5875 0.501644 0 
0.5625 0.526644 0 
0.5625 0.551644 0 
0.5875 0.526644 0 
0.5875 0.551644 0 
CELLS 64 128
1 0
1 1
1 2
1 3
1 4
1 5
1 6
1 7
1 8
1 9
1 10
1 11
1 12
1 13
1 14
1 15
1 16
1 17
1 18
1 19
1 20
1 21
1 22
1 23
1 24
1 25
1 26
1 27
1 28
1 29
1 30
1 31
1 32
1 33
1 34
1 35
1 36
1 37
1 38
1 39
1 40
1 41
1 42
1 43
1 44
1 45
1 46
1 47
1 48
1 49
1 50
1 51
1 52
1 53
1 54
1 55
1 56
1 57
1 58
1 59
1 60
1 61
1 62
1 63
CELL_TYPES 64
1
1
1
1
1
1
1
1
1
1
1
1
1
1
1
1
1
1
1
1
1
1
1
1
1
1
1
1
1
1
1
1
1
1
1
1
1
1
1
1
1
1
1
1
1
1
1
1
1
1
1
1
1
1
1
1
1
1
1
1
1
1
1
1
POINT_DATA 64
VECTORS displacement double
-8.15479e-18 -0.0358556 0 
-1.44249e-17 -0.0358556 0 
-8.98536e-18 -0.0358556 0 
-1.33943e-17 -0.0358556 0 
-2.12237e-17 -0.0358556 0 
-1.89311e-17 -0.0358556 0 
-1.74414e-17 -0.0358556 0 
-1.69597e-17 -0.0358556 0 
-1.38161e-17 -0.0358556 0 
-1.23293e-17 -0.0358556 0 
-1.52109e-17 -0.0358556 0 
-1.36805e-17 -0.0358556 0 
-1.11363e-17 -0.0358556 0 
-8.613e-18 -0.0358555 0 
-1.14396e-17 -0.0358556 0 
-8.28274e-18 -0.0358556 0 
-8.57922e-18 -0.0358556 0 
-1.12114e-17 -0.0358555 0 
-6.93637e-18 -0.0358556 0 
-7.87612e-18 -0.0358556 0 
-1.32446e-17 -0.0358556 0 
-1.40345e-17 -0.0358556 0 
-8.63327e-18 -0.0358556 0 
-1.01554e-17 -0.0358556 0 
-1.49153e-17 -0.0358555 0 
-1.40489e-17 -0.0358556 0 
-1.29293e-17 -0.0358556 0 
-1.34344e-17 -0.0358556 0 
-1.20404e-17 -0.0358556 0 
-8.83092e-18 -0.0358556 0 
-1.29387e-17 -0.0358556 0 
-1.02575e-17 -0.0358556 0 
-5.19494e-18 -0.0358555 0 
-4.7531e-18 -0.0358555 0 
-3.35493e-18 -0.0358555 0 
-1.84229e-18 -0.0358555 0 
-4.6959e-18 -0.0358555 0 
-6.65269e-18 -0.0358556 0 
-1.43244e-18 -0.0358555 0 
-3.52638e-18 -0.0358555 0 
-1.03376e-17 -0.0358555 0 
-1.23601e-17 -0.0358555 0 
-7.14018e-18 -0.0358556 0 
-1.08258e-17 -0.0358555 0 
-1.41154e-17 -0.0358556 0 
-1.31387e-17 -0.0358555 0 
-1.55704e-17 -0.0358556 0 
-1.74745e-17 -0.0358555 0 
-2.84594e-18 -0.0358555 0 
-1.98533e-19 -0.0358555 0 
-3.66799e-18 -0.0358555 0 
1.78184e-19 -0.0358556 0 
1.46785e-18 -0.0358555 0 
-1.46936e-18 -0.0358556 0 
4.00498e-18 -0.0358555 0 
-4.81636e-19 -0.0358555 0 
-5.88033e-18 -0.0358555 0 
-1.0435e-17 -0.0358555 0 
-6.55801e-18 -0.0358555 0 
-1.11876e-17 -0.0358555 0 
-1.66559e-17 -0.0358556 0 
-2.10393e-17 -0.0358555 0 
-1.73719e-17 -0.0358555 0 
-2.38332e-17 -0.0358555 0 
VECTORS velocity double
8.03713e-17 -0.83385 0 
5.0611e-16 -0.83385 0 
-3.07742e-16 -0.83385 0 
-2.75707e-16 -0.83385 0 
3.72966e-16 -0.83385 0 
1.49961e-15 -0.83385 0 
5.42177e-17 -0.83385 0 
6.31433e-16 -0.83385 0 
1.29856e-15 -0.83385 0 
6.24284e-16 -0.83385 0 
4.35924e-16 -0.83385 0 
2.66683e-16 -0.83385 0 
1.36231e-16 -0.83385 0 
-6.23383e-16 -0.83385 0 
-9.36713e-17 -0.83385 0 
-5.33229e-16 -0.83385 0 
-7.07561e-16 -0.83385 0 
-7.09953e-16 -0.83385 0 
-1.11909e-15 -0.83385 0 
-7.96628e-16 -0.83385 0 
-1.6959e-16 -0.83385 0 
9.76976e-17 -0.83385 0 
-2.98456e-16 -0.83385 0 
-1.01592e-16 -0.83385 0 
-1.20532e-17 -0.83385 0 
5.74739e-17 -0.83385 0 
-4.53698e-17 -0.83385 0 
-3.34444e-18 -0.83385 0 
-2.92185e-16 -0.83385 0 
-5.14809e-16 -0.83385 0 
-4.59311e-16 -0.83385 0 
-5.68125e-16 -0.83385 0 
-1.40966e-15 -0.83385 0 
-8.24809e-16 -0.83385 0 
-1.57927e-15 -0.83385 0 
-7.94496e-16 -0.83385 0 
-5.34317e-16 -0.83385 0 
-3.69344e-16 -0.83385 0 
-8.77174e-16 -0.83385 0 
-7.0556e-16 -0.83385 0 
-9.20373e-17 -0.83385 0 
-6.73439e-17 -0.83385 0 
-1.52056e-16 -0.83385 0 
-1.34524e-16 -0.83385 0 
-4.50669e-16 -0.83385 0 
-4.20943e-16 -0.83385 0 
-2.6626e-16 -0.83385 0 
-7.32649e-17 -0.83385 0 
-1.66581e-15 -0.83385 0 
-1.1734e-15 -0.83385 0 
-1.66928e-15 -0.83385 0 
-1.96152e-15 -0.83385 0 
-1.38039e-15 -0.83385 0 
-1.57353e-15 -0.83385 0 
-2.04397e-15 -0.83385 0 
-2.97326e-15 -0.83385 0 
-8.54997e-16 -0.83385 0 
-4.85927e-16 -0.83385 0 
-2.20086e-15 -0.83385 0 
-1.12155e-15 -0.83385 0 
-9.0912e-17 -0.83385 0 
1.90427e-16 -0.83385 0 
7.53741e-17 -0.83385 0 
3.70132e-16 -0.83385 0 
SCALARS mass double 1
LOOKUP_TABLE default
0.625
0.625
0.625
0.625
0.625
0.625
0.625
0.625
0.625
0.625
0.625
0.625
0.625
0.625
0.625
0.625
0.625
0.625
0.625
0.625
0.625
0.625
0.625
0.625
0.625
0.625
0.625
0.625
0.625
0.625
0.625
0.625
0.625
0.625
0.625
0.625
0.625
0.625
0.625
0.625
0.625
0.625
0.625
0.625
0.625
0.625
0.625
0.625
0.625
0.625
0.625
0.625
0.625
0.625
0.625
0.625
0.625
0.625
0.625
0.625
0.625
0.625
0.625
0.625
SCALARS volume double 1
LOOKUP_TABLE default
0.000625
0.000625
0.000625
0.000625
0.000625
0.000625
0.000625
0.000625
0.000625
0.000625
0.000625
0.000625
0.000625
0.000625
0.000625
0.000625
0.000625
0.000625
0.000625
0.000625
0.000625
0.000625
0.000625
0.000625
0.000625
0.000625
0.000625
0.000625
0.000625
0.000625
0.000625
0.000625
0.000625
0.000625
0.000625
0.000625
0.000625
0.000625
0.000625
0.000625
0.000625
0.000625
0.000625
0.000625
0.000625
0.000625
0.000625
0.000625
0.000625
0.000625
0.000625
0.000625
0.000625
0.000625
0.000625
0.000625
0.000625
0.000625
0.000625
0.000625
0.000625
0.000625
0.000625
0.000625
VECTORS momentum double
5.02321e-17 -0.521156 0 
3.16319e-16 -0.521156 0 
-1.92339e-16 -0.521156 0 
-1.72317e-16 -0.521156 0 
2.33104e-16 -0.521156 0 
9.37259e-16 -0.521156 0 
3.3886e-17 -0.521156 0 
3.94646e-16 -0.521156 0 
8.116e-16 -0.521156 0 
3.90178e-16 -0.521156 0 
2.72452e-16 -0.521156 0 
1.66677e-16 -0.521156 0 
8.51441e-17 -0.521156 0 
-3.89615e-16 -0.521156 0 
-5.85446e-17 -0.521156 0 
-3.33268e-16 -0.521156 0 
-4.42226e-16 -0.521156 0 
-4.43721e-16 -0.521156 0 
-6.99429e-16 -0.521156 0 
-4.97893e-16 -0.521156 0 
-1.05993e-16 -0.521156 0 
6.1061e-17 -0.521156 0 
-1.86535e-16 -0.521156 0 
-6.34949e-17 -0.521156 0 
-7.53326e-18 -0.521156 0 
3.59212e-17 -0.521156 0 
-2.83561e-17 -0.521156 0 
-2.09028e-18 -0.521156 0 
-1.82616e-16 -0.521156 0 
-3.21756e-16 -0.521156 0 
-2.87069e-16 -0.521156 0 
-3.55078e-16 -0.521156 0 
-8.81036e-16 -0.521156 0 
-5.15506e-16 -0.521156 0 
-9.87046e-16 -0.521156 0 
-4.9656e-16 -0.521156 0 
-3.33948e-16 -0.521156 0 
-2.3084e-16 -0.521156 0 
-5.48234e-16 -0.521156 0 
-4.40975e-16 -0.521156 0 
-5.75233e-17 -0.521156 0 
-4.20899e-17 -0.521156 0 
-9.50349e-17 -0.521156 0 
-8.40778e-17 -0.521156 0 
-2.81668e-16 -0.521156 0 
-2.6309e-16 -0.521156 0 
-1.66412e-16 -0.521156 0 
-4.57905e-17 -0.521156 0 
-1.04113e-15 -0.521156 0 
-7.33374e-16 -0.521156 0 
-1.0433e-15 -0.521156 0 
-1.22595e-15 -0.521156 0 
-8.62744e-16 -0.521156 0 
-9.83458e-16 -0.521156 0 
-1.27748e-15 -0.521156 0 
-1.85829e-15 -0.521156 0 
-5.34373e-16 -0.521156 0 
-3.03704e-16 -0.521156 0 
-1.37554e-15 -0.521156 0 
-7.0097e-16 -0.521156 0 
-5.682e-17 -0.521156 0 
1.19017e-16 -0.521156 0 
4.71088e-17 -0.521156 0 
2.31333e-16 -0.521156 0 
VECTORS body_force double
0 -9.81 0 
0 -9.81 0 
0 -9.81 0 
0 -9.81 0 
0 -9.81 0 
0 -9.81 0 
0 -9.81 0 
0 -9.81 0 
0 -9.81 0 
0 -9.81 0 
0 -9.81 0 
0 -9.81 0 
0 -9.81 0 
0 -9.81 0 
0 -9.81 0 
0 -9.81 0 
0 -9.81 0 
0 -9.81 0 
0 -9.81 0 
0 -9.81 0 
0 -9.81 0 
0 -9.81 0 
0 -9.81 0 
0 -9.81 0 
0 -9.81 0 
0 -9.81 0 
0 -9.81 0 
0 -9.81 0 
0 -9.81 0 
0 -9.81 0 
0 -9.81 0 
0 -9.81 0 
0 -9.81 0 
0 -9.81 0 
0 -9.81 0 
0 -9.81 0 
0 -9.81 0 
0 -9.81 0 
0 -9.81 0 
0 -9.81 0 
0 -9.81 0 
0 -9.81 0 
0 -9.81 0 
0 -9.81 0 
0 -9.81 0 
0 -9.81 0 
0 -9.81 0 
0 -9.81 0 
0 -9.81 0 
0 -9.81 0 
0 -9.81 0 
0 -9.81 0 
0 -9.81 0 
0 -9.81 0 
0 -9.81 0 
0 -9.81 0 
0 -9.81 0 
0 -9.81 0 
0 -9.81 0 
0 -9.81 0 
0 -9.81 0 
0 -9.81 0 
0 -9.81 0 
0 -9.81 0 
TENSORS cauchy_stress double
-4.74531e-12 3.68475e-12 0
3.68475e-12 -2.55374e-12 0
0 0 0

2.08819e-11 -5.6984e-12 0
-5.6984e-12 3.81537e-11 0
0 0 0

-7.79896e-12 3.93459e-12 0
3.93459e-12 -9.67892e-12 0
0 0 0

9.97554e-12 -3.49929e-13 0
-3.49929e-13 1.27056e-11 0
0 0 0

2.11188e-11 -6.48936e-12 0
-6.48936e-12 1.04837e-11 0
0 0 0

-1.98558e-11 6.95771e-12 0
6.95771e-12 -6.65493e-11 0
0 0 0

1.66516e-11 -3.66246e-12 0
-3.66246e-12 6.02421e-14 0
0 0 0

-1.95596e-11 2.97596e-12 0
2.97596e-12 -6.58581e-11 0
0 0 0

3.05569e-11 -1.80549e-12 0
-1.80549e-12 8.56057e-11 0
0 0 0

1.00309e-11 -6.19012e-12 0
-6.19012e-12 3.7264e-11 0
0 0 0

1.82018e-11 -4.87394e-12 0
-4.87394e-12 5.67772e-11 0
0 0 0

8.61856e-12 -4.58036e-13 0
-4.58036e-13 3.39686e-11 0
0 0 0

1.11962e-12 -2.68621e-12 0
-2.68621e-12 5.72366e-12 0
0 0 0

1.9288e-12 -4.51288e-12 0
-4.51288e-12 1.11334e-12 0
0 0 0

3.41066e-12 -3.02861e-12 0
-3.02861e-12 1.10694e-11 0
0 0 0

1.38569e-13 -1.75386e-12 0
-1.75386e-12 -3.06388e-12 0
0 0 0

8.36371e-12 -3.51465e-12 0
-3.51465e-12 2.66561e-12 0
0 0 0

2.26827e-11 -3.17991e-12 0
-3.17991e-12 1.87189e-11 0
0 0 0

2.58908e-12 -1.78943e-12 0
-1.78943e-12 -1.08085e-11 0
0 0 0

2.43833e-11 -1.98124e-12 0
-1.98124e-12 2.26868e-11 0
0 0 0

1.63812e-11 -5.3398e-12 0
-5.3398e-12 -9.07237e-12 0
0 0 0

-1.40557e-11 2.77331e-14 0
2.77331e-14 -7.25823e-11 0
0 0 0

1.63504e-11 -1.98894e-12 0
-1.98894e-12 -9.1443e-12 0
0 0 0

-1.45329e-11 -3.99106e-12 0
-3.99106e-12 -7.36958e-11 0
0 0 0

3.9474e-11 -3.20671e-12 0
-3.20671e-12 7.17362e-11 0
0 0 0

1.77249e-11 -3.95027e-12 0
-3.95027e-12 3.50561e-11 0
0 0 0

3.63507e-11 -5.22787e-12 0
-5.22787e-12 6.44485e-11 0
0 0 0

1.74095e-11 -1.13331e-12 0
-1.13331e-12 3.43201e-11 0
0 0 0

-6.33694e-12 -3.11214e-12 0
-3.11214e-12 -5.57298e-12 0
0 0 0

-7.92834e-12 -2.62694e-12 0
-2.62694e-12 -3.86757e-12 0
0 0 0

3.43211e-13 -2.66778e-12 0
-2.66778e-12 1.0014e-11 0
0 0 0

-4.87629e-12 2.54391e-12 0
2.54391e-12 3.25387e-12 0
0 0 0

6.18719e-12 5.58709e-14 0
5.58709e-14 -4.43517e-12 0
0 0 0

1.80018e-11 2.05855e-12 0
2.05855e-12 1.21499e-11 0
0 0 0

6.34332e-12 2.47521e-12 0
2.47521e-12 -4.07088e-12 0
0 0 0

2.21428e-11 2.669e-13 0
2.669e-13 2.1812e-11 0
0 0 0

1.48214e-11 -6.11525e-13 0
-6.11525e-13 1.11204e-12 0
0 0 0

-2.3544e-11 -3.71981e-12 0
-3.71981e-12 -8.70007e-11 0
0 0 0

1.42802e-11 7.03041e-13 0
7.03041e-13 -1.50843e-13 0
0 0 0

-1.52141e-11 -4.6883e-12 0
-4.6883e-12 -6.75643e-11 0
0 0 0

4.35566e-11 -2.00136e-12 0
-2.00136e-12 6.88384e-11 0
0 0 0

1.3813e-11 -9.00691e-13 0
-9.00691e-13 1.64944e-11 0
0 0 0

4.52679e-11 1.17613e-13 0
1.17613e-13 7.28316e-11 0
0 0 0

1.32125e-11 -4.08721e-12 0
-4.08721e-12 1.50933e-11 0
0 0 0

-3.61854e-12 -2.66637e-12 0
-2.66637e-12 6.48001e-12 0
0 0 0

-1.97035e-11 3.72029e-12 0
3.72029e-12 -1.50547e-12 0
0 0 0

-3.72422e-12 -7.03663e-12 0
-7.03663e-12 6.23342e-12 0
0 0 0

-1.82319e-11 -1.014e-12 0
-1.014e-12 1.92822e-12 0
0 0 0

-6.61936e-12 -4.71064e-12 0
-4.71064e-12 -7.01393e-12 0
0 0 0

1.00525e-11 -1.11988e-12 0
-1.11988e-12 1.95921e-11 0
0 0 0

-3.32552e-12 -3.34366e-12 0
-3.34366e-12 6.71697e-13 0
0 0 0

1.5665e-11 1.53526e-12 0
1.53526e-12 3.26879e-11 0
0 0 0

1.56791e-11 1.61295e-12 0
1.61295e-12 1.05627e-11 0
0 0 0

-2.70066e-11 -5.62494e-12 0
-5.62494e-12 -7.31459e-11 0
0 0 0

1.44749e-11 2.81636e-12 0
2.81636e-12 7.75297e-12 0
0 0 0

-2.07375e-11 -7.95274e-12 0
-7.95274e-12 -5.85181e-11 0
0 0 0

2.67893e-11 1.49255e-12 0
1.49255e-12 6.9459e-11 0
0 0 0

1.01244e-12 2.72959e-12 0
2.72959e-12 1.00813e-11 0
0 0 0

3.48154e-11 6.3692e-13 0
6.3692e-13 8.81864e-11 0
0 0 0

8.95961e-12 5.62068e-12 0
5.62068e-12 2.86246e-11 0
0 0 0

-5.98053e-12 5.76374e-12 0
5.76374e-12 -6.61128e-12 0
0 0 0

-9.96326e-12 9.68156e-12 0
9.68156e-12 5.40788e-12 0
0 0 0

-1.17068e-12 5.21458e-12 0
5.21458e-12 4.61171e-12 0
0 0 0

-1.2101e-11 6.47145e-12 0
6.47145e-12 4.19886e-13 0
0 0 0

TENSORS velocity_gradient double
-9.56474e-15 8.52156e-15 0
1.77636e-15 1.77636e-15 0
0 0 0

-1.36377e-14 1.10991e-14 0
7.54952e-15 2.17604e-14 0
0 0 0

-9.56474e-15 3.60009e-15 0
1.06581e-14 1.77636e-14 0
0 0 0

-1.36377e-14 9.57162e-15 0
1.06581e-14 2.4869e-14 0
0 0 0

-1.40652e-14 1.22129e-14 0
0 1.42109e-14 0
0 0 0

-1.38898e-14 8.40468e-16 0
-4.88498e-15 9.32587e-15 0
0 0 0

-1.40652e-14 1.21521e-14 0
-3.55271e-15 2.4869e-14 0
0 0 0

-1.38898e-14 1.72447e-15 0
-2.66454e-15 -9.76996e-15 0
0 0 0

-1.26996e-14 -4.07382e-15 0
-3.55271e-15 -2.4869e-14 0
0 0 0

-1.09728e-14 -1.37148e-14 0
1.02141e-14 8.83738e-14 0
0 0 0

-1.26996e-14 -2.78153e-15 0
0 -1.42109e-14 0
0 0 0

-1.09728e-14 -1.06844e-14 0
7.10543e-15 6.39488e-14 0
0 0 0

-7.37903e-15 -1.78809e-14 0
-3.55271e-15 1.77636e-14 0
0 0 0

-4.58627e-15 -3.28124e-15 0
-5.32907e-15 8.88178e-15 0
0 0 0

-7.37903e-15 -1.40994e-14 0
-3.55271e-15 1.06581e-14 0
0 0 0

-4.58627e-15 -3.45484e-15 0
-6.21725e-15 -1.33227e-14 0
0 0 0

-1.2524e-14 2.72657e-15 0
1.59872e-14 2.30926e-14 0
0 0 0

-1.00239e-14 9.04647e-15 0
2.66454e-15 9.76996e-15 0
0 0 0

-1.2524e-14 5.901e-15 0
1.77636e-14 1.77636e-14 0
0 0 0

-1.00239e-14 9.52363e-15 0
1.68754e-14 1.68754e-14 0
0 0 0

-1.04209e-14 1.17774e-14 0
8.88178e-15 1.59872e-14 0
0 0 0

-1.05062e-14 3.0284e-15 0
1.73195e-14 -3.9968e-15 0
0 0 0

-1.04209e-14 1.1089e-14 0
3.55271e-15 1.77636e-14 0
0 0 0

-1.05062e-14 4.75227e-15 0
-5.32907e-15 -5.32907e-15 0
0 0 0

-8.00054e-15 -7.52257e-16 0
5.32907e-15 -1.77636e-15 0
0 0 0

-5.13343e-15 -7.5843e-15 0
-1.33227e-15 7.68274e-14 0
0 0 0

-8.00054e-15 2.014e-15 0
3.55271e-15 -1.06581e-14 0
0 0 0

-5.13343e-15 -4.41459e-15 0
-3.55271e-15 6.75016e-14 0
0 0 0

-1.83296e-15 -1.05366e-14 0
-7.10543e-15 1.42109e-14 0
0 0 0

-1.28189e-16 -5.14816e-15 0
-7.10543e-15 0 0
0 0 0

-1.83296e-15 -7.19253e-15 0
0 0 0
0 0 0

-1.28189e-16 -8.36122e-15 0
-3.55271e-15 3.55271e-15 0
0 0 0

-8.6538e-15 7.85505e-15 0
1.06581e-14 1.06581e-14 0
0 0 0

-8.73461e-15 8.50006e-15 0
8.88178e-15 -5.32907e-15 0
0 0 0

-8.6538e-15 8.58874e-15 0
3.55271e-15 3.55271e-15 0
0 0 0

-8.73461e-15 5.97577e-15 0
-8.88178e-16 2.75335e-14 0
0 0 0

-1.23148e-14 8.77878e-15 0
1.77636e-15 8.88178e-15 0
0 0 0

-1.47489e-14 6.64415e-15 0
6.66134e-15 -7.54952e-15 0
0 0 0

-1.23148e-14 4.84665e-15 0
7.10543e-15 -7.10543e-15 0
0 0 0

-1.47489e-14 8.70404e-15 0
1.24345e-14 -1.59872e-14 0
0 0 0

-1.0747e-14 5.72172e-15 0
8.88178e-15 -5.32907e-15 0
0 0 0

-5.52578e-15 6.39006e-16 0
8.43769e-15 6.52811e-14 0
0 0 0

-1.0747e-14 1.03709e-14 0
0 -1.42109e-14 0
0 0 0

-5.52578e-15 7.57649e-15 0
1.77636e-14 6.03961e-14 0
0 0 0

2.15332e-15 -1.55735e-15 0
1.59872e-14 -5.32907e-15 0
0 0 0

8.81358e-15 -8.53668e-15 0
1.95399e-14 1.95399e-14 0
0 0 0

2.15332e-15 6.36895e-15 0
1.06581e-14 3.55271e-15 0
0 0 0

8.81358e-15 -5.67454e-15 0
1.77636e-14 1.06581e-14 0
0 0 0

-5.05207e-15 4.74987e-15 0
-8.88178e-15 1.95399e-14 0
0 0 0

-1.28253e-14 1.7843e-15 0
-1.5099e-14 1.33227e-14 0
0 0 0

-5.05207e-15 -3.66156e-15 0
-1.77636e-14 3.55271e-15 0
0 0 0

-1.28253e-14 -4.07437e-15 0
-1.77636e-15 1.24345e-14 0
0 0 0

-1.78566e-14 5.02802e-16 0
-1.77636e-15 2.66454e-14 0
0 0 0

-2.10231e-14 1.05344e-14 0
1.11022e-14 -1.02141e-14 0
0 0 0

-1.78566e-14 -4.25275e-15 0
-7.10543e-15 3.55271e-14 0
0 0 0

-2.10231e-14 1.21353e-14 0
2.13163e-14 -7.10543e-15 0
0 0 0

-1.73621e-14 1.48693e-14 0
7.10543e-15 -2.13163e-14 0
0 0 0

-1.23635e-14 1.4521e-14 0
1.64313e-14 6.61693e-14 0
0 0 0

-1.73621e-14 1.9217e-14 0
1.06581e-14 -2.4869e-14 0
0 0 0

-1.23635e-14 2.14724e-14 0
2.13163e-14 5.68434e-14 0
0 0 0

-4.56817e-15 1.43704e-14 0
1.42109e-14 -1.42109e-14 0
0 0 0

2.1766e-15 -2.86887e-15 0
1.06581e-14 1.06581e-14 0
0 0 0

-4.56817e-15 2.2447e-14 0
1.42109e-14 -7.10543e-15 0
0 0 0

2.1766e-15 -1.19655e-16 0
1.33227e-14 1.33227e-14 0
0 0 0

SCALARS active double 1
LOOKUP_TABLE default
1
1
1
1
1
1
1
1
1
1
1
1
1
1
1
1
1
1
1
1
1
1
1
1
1
1
1
1
1
1
1
1
1
1
1
1
1
1
1
1
1
1
1
1
1
1
1
1
1
1
1
1
1
1
1
1
1
1
1
1
1
1
1
1
SCALARS extent double 1
LOOKUP_TABLE default
0.0125
0.0125
0.0125
0.0125
0.0125
0.0125
0.0125
0.0125
0.0125
0.0125
0.0125
0.0125
0.0125
0.0125
0.0125
0.0125
0.0125
0.0125
0.0125
0.0125
0.0125
0.0125
0.0125
0.0125
0.0125
0.0125
0.0125
0.0125
0.0125
0.0125
0.0125
0.0125
0.0125
0.0125
0.0125
0.0125
0.0125
0.0125
0.0125
0.0125
0.0125
0.0125
0.0125
0.0125
0.0125
0.0125
0.0125
0.0125
0.0125
0.0125
0.0125
0.0125
0.0125
0.0125
0.0125
0.0125
0.0125
0.0125
0.0125
0.0125
0.0125
0.0125
0.0125
0.0125
SCALARS pressure double 1
LOOKUP_TABLE default
3.64953e-12
-2.95178e-11
8.73894e-12
-1.13406e-11
-1.58012e-11
4.32025e-11
-8.35591e-12
4.27088e-11
-5.80813e-11
-2.36475e-11
-3.74895e-11
-2.12936e-11
-3.42164e-12
-1.52107e-12
-7.24003e-12
1.46265e-12
-5.51466e-12
-2.07008e-11
4.10972e-12
-2.35351e-11
-3.65443e-12
4.3319e-11
-3.60305e-12
4.41143e-11
-5.56051e-11
-2.63905e-11
-5.03996e-11
-2.58648e-11
5.95496e-12
5.89795e-12
-5.17863e-12
8.1121e-13
-8.7601e-13
-1.50758e-11
-1.13622e-12
-2.19774e-11
-7.96674e-12
5.52723e-11
-7.06468e-12
4.13892e-11
-5.61975e-11
-1.51537e-11
-5.90497e-11
-1.41529e-11
-1.43074e-12
1.06045e-11
-1.2546e-12
8.15185e-12
6.81664e-12
-1.48223e-11
1.32691e-12
-2.41765e-11
-1.31209e-11
5.00762e-11
-1.11139e-11
3.96278e-11
-4.81242e-11
-5.54685e-12
-6.15009e-11
-1.87921e-11
6.29591e-12
2.27769e-12
-1.72052e-12
5.84054e-12
SCALARS density double 1
LOOKUP_TABLE default
1000
1000
1000
1000
1000
1000
1000
1000
1000
1000
1000
1000
1000
1000
1000
1000
1000
1000
1000
1000
1000
1000
1000
1000
1000
1000
1000
1000
1000
1000
1000
1000
1000
1000
1000
1000
1000
1000
1000
1000
1000
1000
1000
1000
1000
1000
1000
1000
1000
1000
1000
1000
1000
1000
1000
1000
1000
1000
1000
1000
1000
1000
1000
1000
