# vtk DataFile Version 3.0
Frame: 54, Time: 0.917
ASCII
DATASET UNSTRUCTURED_GRID
POINTS 64 double
0.0706875 0.0466035 0 
0.0709175 0.0709443 0 
0.0960916 0.0474525 0 
0.0955002 0.0720927 0 
0.0670967 0.095318 0 
0.0654498 0.120382 0 
0.0932317 0.0968666 0 
0.0914631 0.122045 0 
0.0618288 0.144668 0 
0.0583196 0.169991 0 
0.0891911 0.147282 0 
0.0846472 0.171469 0 
0.0586882 0.195349 0 
0.0568016 0.219744 0 
0.0843241 0.196479 0 
0.0816598 0.221166 0 
0.122433 0.0489092 0 
0.119987 0.0738713 0 
0.147425 0.04827 0 
0.144856 0.0727263 0 
0.117316 0.0992744 0 
0.114492 0.123738 0 
0.144178 0.0975497 0 
0.140981 0.121547 0 
0.112517 0.149055 0 
0.108377 0.173679 0 
0.138642 0.146966 0 
0.135665 0.171973 0 
0.108527 0.198873 0 
0.105552 0.225521 0 
0.134978 0.198424 0 
0.131968 0.224576 0 
0.17413 0.0479366 0 
0.168437 0.0725375 0 
0.204576 0.0515238 0 
0.194969 0.0753658 0 
0.167902 0.0976126 0 
0.164888 0.122381 0 
0.193636 0.099983 0 
0.189352 0.124459 0 
0.163479 0.147903 0 
0.161374 0.173703 0 
0.18767 0.149655 0 
0.185243 0.176254 0 
0.159396 0.201472 0 
0.157854 0.227868 0 
0.182565 0.203377 0 
0.181324 0.229844 0 
0.229887 0.0539394 0 
0.218582 0.0793435 0 
0.253877 0.0574462 0 
0.242605 0.0828474 0 
0.217984 0.104592 0 
0.213756 0.129314 0 
0.243465 0.107053 0 
0.239134 0.132274 0 
0.211249 0.153847 0 
0.209473 0.179517 0 
0.236402 0.158086 0 
0.235592 0.18314 0 
0.206057 0.205159 0 
0.205684 0.2296 0 
0.232877 0.207661 0 
0.236103 0.230527 0 
CELLS 64 128
1 0
1 1
1 2
1 3
1 4
1 5
1 6
1 7
1 8
1 9
1 10
1 11
1 12
1 13
1 14
1 15
1 16
1 17
1 18
1 19
1 20
1 21
1 22
1 23
1 24
1 25
1 26
1 27
1 28
1 29
1 30
1 31
1 32
1 33
1 34
1 35
1 36
1 37
1 38
1 39
1 40
1 41
1 42
1 43
1 44
1 45
1 46
1 47
1 48
1 49
1 50
1 51
1 52
1 53
1 54
1 55
1 56
1 57
1 58
1 59
1 60
1 61
1 62
1 63
CELL_TYPES 64
1
1
1
1
1
1
1
1
1
1
1
1
1
1
1
1
1
1
1
1
1
1
1
1
1
1
1
1
1
1
1
1
1
1
1
1
1
1
1
1
1
1
1
1
1
1
1
1
1
1
1
1
1
1
1
1
1
1
1
1
1
1
1
1
POINT_DATA 64
VECTORS displacement double
-0.341812 -0.365897 0 
-0.341583 -0.366556 0 
-0.341408 -0.365048 0 
-0.342 -0.365407 0 
-0.345403 -0.367182 0 
-0.34705 -0.367118 0 
-0.344268 -0.365633 0 
-0.346037 -0.365455 0 
-0.350671 -0.367832 0 
-0.35418 -0.367509 0 
-0.348309 -0.365218 0 
-0.352853 -0.366031 0 
-0.353812 -0.367151 0 
-0.355698 -0.367756 0 
-0.353176 -0.366021 0 
-0.35584 -0.366334 0 
-0.340067 -0.363591 0 
-0.342513 -0.363629 0 
-0.340075 -0.36423 0 
-0.342644 -0.364774 0 
-0.345184 -0.363226 0 
-0.348008 -0.363762 0 
-0.343322 -0.36495 0 
-0.346519 -0.365953 0 
-0.349983 -0.363445 0 
-0.354123 -0.363821 0 
-0.348858 -0.365534 0 
-0.351835 -0.365527 0 
-0.353973 -0.363627 0 
-0.356948 -0.361979 0 
-0.352522 -0.364076 0 
-0.355532 -0.362924 0 
-0.33837 -0.364563 0 
-0.344063 -0.364962 0 
-0.332924 -0.360976 0 
-0.342531 -0.362134 0 
-0.344598 -0.364887 0 
-0.347612 -0.365119 0 
-0.343864 -0.362517 0 
-0.348148 -0.363041 0 
-0.349021 -0.364597 0 
-0.351126 -0.363797 0 
-0.34983 -0.362845 0 
-0.352257 -0.361246 0 
-0.353104 -0.361028 0 
-0.354646 -0.359632 0 
-0.354935 -0.359123 0 
-0.356176 -0.357656 0 
-0.332613 -0.358561 0 
-0.343918 -0.358157 0 
-0.333623 -0.355054 0 
-0.344895 -0.354653 0 
-0.344516 -0.357908 0 
-0.348744 -0.358186 0 
-0.344035 -0.355447 0 
-0.348366 -0.355226 0 
-0.351251 -0.358653 0 
-0.353027 -0.357983 0 
-0.351098 -0.354414 0 
-0.351908 -0.35436 0 
-0.356443 -0.357341 0 
-0.356816 -0.3579 0 
-0.354623 -0.354839 0 
-0.351397 -0.356973 0 
VECTORS velocity double
0.152847 -0.286756 0 
-0.114979 0.082571 0 
0.185317 0.291079 0 
-0.410284 0.447613 0 
-0.0568743 -0.346066 0 
-0.581032 -0.00349432 0 
-0.229671 -0.155368 0 
-0.598933 0.404721 0 
-0.797108 -0.141817 0 
-1.54279 -0.355937 0 
-0.932598 0.45726 0 
-1.06465 0.342302 0 
-1.47106 0.17644 0 
-2.16073 0.0521745 0 
-1.18097 0.821363 0 
-1.14503 0.740381 0 
0.10869 -0.11028 0 
-0.328702 0.640462 0 
-0.090447 0.173238 0 
-0.305902 0.866414 0 
-0.162211 0.402665 0 
-0.658085 0.747924 0 
-0.000581918 0.60265 0 
-0.459224 0.753973 0 
-1.50776 0.727817 0 
-1.47595 0.539229 0 
-1.36627 0.861599 0 
-1.60476 0.612236 0 
-1.59068 0.66693 0 
-2.55101 0.50164 0 
-1.37724 0.544816 0 
-2.6221 -0.109537 0 
0.193165 0.478753 0 
-0.869711 0.84483 0 
-0.1167 0.67057 0 
-0.74872 1.14267 0 
-0.721282 0.531275 0 
-0.389768 0.542505 0 
-0.699578 0.8196 0 
-0.608661 0.88875 0 
-0.933875 0.41774 0 
-0.701376 0.329707 0 
-1.16742 0.66449 0 
-0.515263 0.699584 0 
-0.354159 -0.0256806 0 
-1.56053 0.272248 0 
-0.260299 0.710449 0 
-1.7235 0.723794 0 
0.082434 0.313281 0 
-0.551059 0.869941 0 
-0.851994 1.15663 0 
-1.10899 1.48128 0 
-0.863527 0.367488 0 
-0.629112 0.638489 0 
-0.768623 1.52354 0 
-0.344345 1.3025 0 
-1.07006 0.831965 0 
-0.992864 0.862691 0 
-0.659074 1.57808 0 
-1.47714 2.03147 0 
-1.75991 1.29215 0 
-2.76059 1.41692 0 
-2.04873 1.8422 0 
-2.00296 2.01398 0 
SCALARS mass double 1
LOOKUP_TABLE default
0.625
0.625
0.625
0.625
0.625
0.625
0.625
0.625
0.625
0.625
0.625
0.625
0.625
0.625
0.625
0.625
0.625
0.625
0.625
0.625
0.625
0.625
0.625
0.625
0.625
0.625
0.625
0.625
0.625
0.625
0.625
0.625
0.625
0.625
0.625
0.625
0.625
0.625
0.625
0.625
0.625
0.625
0.625
0.625
0.625
0.625
0.625
0.625
0.625
0.625
0.625
0.625
0.625
0.625
0.625
0.625
0.625
0.625
0.625
0.625
0.625
0.625
0.625
0.625
SCALARS volume double 1
LOOKUP_TABLE default
0.000614979
0.000628777
0.00059605
0.000616817
0.00062075
0.000639347
0.000627155
0.000628566
0.000619495
0.000621306
0.000634509
0.000629357
0.000640409
0.000617881
0.000632586
0.000604805
0.000640887
0.00064665
0.000614035
0.000614321
0.000648441
0.000642505
0.000638115
0.000604064
0.000645099
0.000621877
0.000637428
0.000644084
0.000673655
0.000633675
0.000619718
0.000644252
0.000657644
0.000618614
0.000616789
0.00063629
0.000649297
0.000632544
0.000633846
0.000600126
0.00066138
0.000649348
0.00064868
0.000630704
0.00065202
0.0006484
0.000642755
0.000611473
0.000635561
0.000633251
0.000638413
0.000646562
0.000622781
0.000623699
0.000650134
0.000637856
0.000607283
0.000635141
0.000632021
0.000587703
0.000589236
0.000654905
0.000598687
0.000582765
VECTORS momentum double
0.0955292 -0.179222 0 
-0.0718616 0.0516069 0 
0.115823 0.181925 0 
-0.256428 0.279758 0 
-0.0355464 -0.216292 0 
-0.363145 -0.00218395 0 
-0.143544 -0.0971053 0 
-0.374333 0.25295 0 
-0.498193 -0.0886355 0 
-0.964247 -0.222461 0 
-0.582874 0.285788 0 
-0.665406 0.213939 0 
-0.919415 0.110275 0 
-1.35046 0.032609 0 
-0.738107 0.513352 0 
-0.715644 0.462738 0 
0.0679314 -0.0689252 0 
-0.205439 0.400289 0 
-0.0565294 0.108274 0 
-0.191189 0.541509 0 
-0.101382 0.251666 0 
-0.411303 0.467453 0 
-0.000363699 0.376656 0 
-0.287015 0.471233 0 
-0.942349 0.454886 0 
-0.922469 0.337018 0 
-0.853921 0.538499 0 
-1.00297 0.382648 0 
-0.994174 0.416831 0 
-1.59438 0.313525 0 
-0.860772 0.34051 0 
-1.63881 -0.0684609 0 
0.120728 0.299221 0 
-0.543569 0.528019 0 
-0.0729375 0.419106 0 
-0.46795 0.71417 0 
-0.450801 0.332047 0 
-0.243605 0.339066 0 
-0.437236 0.51225 0 
-0.380413 0.555469 0 
-0.583672 0.261088 0 
-0.43836 0.206067 0 
-0.72964 0.415307 0 
-0.322039 0.43724 0 
-0.22135 -0.0160504 0 
-0.97533 0.170155 0 
-0.162687 0.44403 0 
-1.07719 0.452371 0 
0.0515212 0.195801 0 
-0.344412 0.543713 0 
-0.532496 0.722896 0 
-0.693121 0.925802 0 
-0.539704 0.22968 0 
-0.393195 0.399056 0 
-0.480389 0.952211 0 
-0.215215 0.814063 0 
-0.66879 0.519978 0 
-0.62054 0.539182 0 
-0.411921 0.986301 0 
-0.923211 1.26967 0 
-1.09995 0.807594 0 
-1.72537 0.885577 0 
-1.28046 1.15137 0 
-1.25185 1.25874 0 
VECTORS body_force double
0 -9.81 0 
0 -9.81 0 
0 -9.81 0 
0 -9.81 0 
0 -9.81 0 
0 -9.81 0 
0 -9.81 0 
0 -9.81 0 
0 -9.81 0 
0 -9.81 0 
0 -9.81 0 
0 -9.81 0 
0 -9.81 0 
0 -9.81 0 
0 -9.81 0 
0 -9.81 0 
0 -9.81 0 
0 -9.81 0 
0 -9.81 0 
0 -9.81 0 
0 -9.81 0 
0 -9.81 0 
0 -9.81 0 
0 -9.81 0 
0 -9.81 0 
0 -9.81 0 
0 -9.81 0 
0 -9.81 0 
0 -9.81 0 
0 -9.81 0 
0 -9.81 0 
0 -9.81 0 
0 -9.81 0 
0 -9.81 0 
0 -9.81 0 
0 -9.81 0 
0 -9.81 0 
0 -9.81 0 
0 -9.81 0 
0 -9.81 0 
0 -9.81 0 
0 -9.81 0 
0 -9.81 0 
0 -9.81 0 
0 -9.81 0 
0 -9.81 0 
0 -9.81 0 
0 -9.81 0 
0 -9.81 0 
0 -9.81 0 
0 -9.81 0 
0 -9.81 0 
0 -9.81 0 
0 -9.81 0 
0 -9.81 0 
0 -9.81 0 
0 -9.81 0 
0 -9.81 0 
0 -9.81 0 
0 -9.81 0 
0 -9.81 0 
0 -9.81 0 
0 -9.81 0 
0 -9.81 0 
TENSORS cauchy_stress double
2759.19 1090.63 0
1090.63 -5867.58 0
0 0 0

429.417 -1359.88 0
-1359.88 729.131 0
0 0 0

-2570.49 -997.354 0
-997.354 -6550.22 0
0 0 0

-1669.7 -2157.89 0
-2157.89 -864.708 0
0 0 0

-201.208 149.627 0
149.627 -1111.03 0
0 0 0

549.483 1108.12 0
1108.12 3814.96 0
0 0 0

2979.67 -1483.41 0
-1483.41 -2317.81 0
0 0 0

-68.2916 -1619.95 0
-1619.95 1162.45 0
0 0 0

-355.035 -1890.6 0
-1890.6 -1346.23 0
0 0 0

-2130.96 -361.15 0
-361.15 991.119 0
0 0 0

3362.13 -2240.26 0
-2240.26 -458.446 0
0 0 0

2234.96 639.342 0
639.342 -899.056 0
0 0 0

2147.73 -1274.19 0
-1274.19 2536.1 0
0 0 0

-2676.7 -903.522 0
-903.522 473.519 0
0 0 0

-694.268 -1706.44 0
-1706.44 3014.38 0
0 0 0

-3479.4 37.6685 0
37.6685 -2837.1 0
0 0 0

5846.79 -738.913 0
-738.913 -1019.56 0
0 0 0

1256.7 -327.897 0
-327.897 5292.09 0
0 0 0

3812.52 -1811.78 0
-1811.78 -7216.21 0
0 0 0

-2185.59 -3464.69 0
-3464.69 -1128.73 0
0 0 0

4154.34 2922.29 0
2922.29 2926.37 0
0 0 0

5111.16 -1330.52 0
-1330.52 201.044 0
0 0 0

3195.65 -3390.92 0
-3390.92 797.91 0
0 0 0

-1862.04 -5579.2 0
-5579.2 -4690.14 0
0 0 0

3174.19 -2205.28 0
-2205.28 2912.9 0
0 0 0

2595.02 -3758.07 0
-3758.07 -3558.37 0
0 0 0

-1319.62 -625.972 0
-625.972 5106.06 0
0 0 0

4045.8 -2631.64 0
-2631.64 1738.33 0
0 0 0

9317.98 384.226 0
384.226 5098.68 0
0 0 0

2967.7 -7964.42 0
-7964.42 -316.69 0
0 0 0

-3906.38 1775.46 0
1775.46 2274.29 0
0 0 0

3069.56 -2004.83 0
-2004.83 2764.83 0
0 0 0

11786.8 1314.23 0
1314.23 -1996.13 0
0 0 0

-2295.09 -418.6 0
-418.6 320.198 0
0 0 0

3220.99 452.196 0
452.196 -5764.13 0
0 0 0

3934.01 -2878.84 0
-2878.84 -491.109 0
0 0 0

5025.06 1045.38 0
1045.38 2309.33 0
0 0 0

1360.28 -1105.99 0
-1105.99 946.927 0
0 0 0

2497.57 -136.51 0
-136.51 205.325 0
0 0 0

-4944.48 1788.03 0
1788.03 -2865.46 0
0 0 0

2869.25 192.652 0
192.652 8010.88 0
0 0 0

4721.04 -1062.28 0
-1062.28 2628.26 0
0 0 0

-1761.05 1144.41 0
1144.41 8912.55 0
0 0 0

265.821 783.913 0
783.913 1481.32 0
0 0 0

-1566.56 3229.64 0
3229.64 9705.77 0
0 0 0

6050.42 -6.43189 0
-6.43189 1017.96 0
0 0 0

-4042.58 1606.85 0
1606.85 9429.51 0
0 0 0

-6292.07 195.201 0
195.201 2084.33 0
0 0 0

752.322 -542.068 0
-542.068 2470.06 0
0 0 0

-3426.92 -1961.97 0
-1961.97 5949.01 0
0 0 0

-977.516 64.374 0
64.374 5061.03 0
0 0 0

667.298 92.3299 0
92.3299 5855.43 0
0 0 0

-2469.23 1932.32 0
1932.32 1785.21 0
0 0 0

-499.929 1028.61 0
1028.61 99.0844 0
0 0 0

906.223 2271.86 0
2271.86 6675.75 0
0 0 0

2650.07 -1242.58 0
-1242.58 1265.34 0
0 0 0

-5883.81 2694.19 0
2694.19 353.753 0
0 0 0

-198.772 63.0964 0
63.0964 3293.96 0
0 0 0

-1421.63 -50.2809 0
-50.2809 3569.95 0
0 0 0

-5471.28 -673.252 0
-673.252 -6361.39 0
0 0 0

-7608.67 -662.492 0
-662.492 -3723.11 0
0 0 0

7135.09 5092.46 0
5092.46 1852.97 0
0 0 0

429.788 139.837 0
139.837 -8701.37 0
0 0 0

-5990.51 3701.74 0
3701.74 -7464.95 0
0 0 0

TENSORS velocity_gradient double
-0.925344 -4.99493 0
5.3062 0.512943 0
0 0 0

-0.965444 -5.94228 0
6.39018 0.710377 0
0 0 0

-1.23268 -4.13529 0
5.31773 2.84729 0
0 0 0

-1.16367 -6.32104 0
6.44703 1.38783 0
0 0 0

-1.37019 -6.93505 0
7.06371 0.779044 0
0 0 0

-1.51208 -14.4675 0
8.31383 1.89415 0
0 0 0

-1.38347 -8.22828 0
7.12027 1.80616 0
0 0 0

-1.51565 -14.532 0
8.39523 3.36621 0
0 0 0

-1.55157 -14.2294 0
9.63594 1.85381 0
0 0 0

-0.66296 -11.1856 0
8.83288 4.04906 0
0 0 0

-1.50003 -13.3137 0
9.63384 3.00483 0
0 0 0

-0.60526 -9.96096 0
8.76053 2.51367 0
0 0 0

0.475382 -10.6764 0
7.32869 3.70194 0
0 0 0

0.641655 -6.73873 0
4.9918 1.34618 0
0 0 0

0.494946 -9.39568 0
7.2508 1.76383 0
0 0 0

0.635252 -6.86115 0
4.85258 -1.31551 0
0 0 0

-2.60161 -4.28755 0
5.25384 4.89951 0
0 0 0

-2.11833 -5.91662 0
6.69178 2.45425 0
0 0 0

-2.82135 -4.28174 0
4.89779 7.32125 0
0 0 0

-2.37629 -5.31407 0
6.30707 3.58715 0
0 0 0

-1.35353 -8.98239 0
7.58374 2.36114 0
0 0 0

0.192128 -13.4886 0
6.11077 2.60164 0
0 0 0

-1.66022 -6.86963 0
7.28197 2.7465 0
0 0 0

0.0275552 -11.6369 0
6.29797 0.495319 0
0 0 0

1.99516 -11.5131 0
3.96668 1.63161 0
0 0 0

4.01851 -8.49278 0
0.859528 0.393654 0
0 0 0

1.8256 -10.5668 0
4.20214 -0.239451 0
0 0 0

3.87196 -6.19865 0
1.09353 -3.26958 0
0 0 0

5.67164 -8.34827 0
-2.30054 -1.04509 0
0 0 0

3.24829 -7.82106 0
-3.56419 -3.33028 0
0 0 0

5.67877 -7.9645 0
-2.26799 -3.56059 0
0 0 0

3.35174 -11.0067 0
-3.5367 -4.17654 0
0 0 0

-3.28611 -5.55008 0
4.22044 9.12904 0
0 0 0

-4.16962 -5.68604 0
3.73538 3.04015 0
0 0 0

-4.03129 -6.73607 0
5.32043 7.41872 0
0 0 0

-4.05378 -6.36318 0
3.97543 1.90108 0
0 0 0

-4.61937 -6.40007 0
2.70761 2.31451 0
0 0 0

-2.00944 -8.92386 0
2.81701 0.077722 0
0 0 0

-4.35404 -5.78862 0
2.85462 1.31535 0
0 0 0

-1.73528 -5.57625 0
2.84892 0.467371 0
0 0 0

1.13669 -8.21776 0
3.49788 -0.65445 0
0 0 0

0.480769 -5.82854 0
7.31139 -2.86264 0
0 0 0

1.20066 -6.44113 0
3.65704 0.963637 0
0 0 0

0.339173 -7.25293 0
7.72745 1.32272 0
0 0 0

-1.17677 -10.2632 0
12.157 -3.04673 0
0 0 0

-2.72324 -13.5463 0
16.5368 -3.14903 0
0 0 0

-1.27232 -12.6485 0
12.4322 0.870118 0
0 0 0

-2.81556 -14.918 0
16.7972 0.719037 0
0 0 0

-4.07635 -5.60836 0
5.59342 6.24369 0
0 0 0

-2.58269 -5.31044 0
6.35475 2.10614 0
0 0 0

-2.97042 -3.10217 0
1.76292 1.08754 0
0 0 0

-2.36262 -3.72353 0
6.43641 2.69504 0
0 0 0

-0.789953 -3.08233 0
7.14114 1.80056 0
0 0 0

1.46684 -2.87925 0
8.55071 1.47947 0
0 0 0

-0.669892 -0.286311 0
6.45842 3.14399 0
0 0 0

1.72044 -0.529591 0
8.71161 2.97037 0
0 0 0

2.34634 -8.61393 0
10.0684 3.74686 0
0 0 0

-2.5653 -10.3201 0
11.9708 4.51827 0
0 0 0

2.01747 -15.9726 0
10.3398 6.52991 0
0 0 0

-3.26257 -15.8848 0
12.2189 6.49868 0
0 0 0

-6.42422 -14.2306 0
13.9904 4.21371 0
0 0 0

-4.5191 -15.2184 0
16.2324 4.19854 0
0 0 0

-6.55078 -12.7507 0
14.168 6.70672 0
0 0 0

-4.4797 -12.4028 0
16.2722 7.03811 0
0 0 0

SCALARS active double 1
LOOKUP_TABLE default
1
1
1
1
1
1
1
1
1
1
1
1
1
1
1
1
1
1
1
1
1
1
1
1
1
1
1
1
1
1
1
1
1
1
1
1
1
1
1
1
1
1
1
1
1
1
1
1
1
1
1
1
1
1
1
1
1
1
1
1
1
1
1
1
SCALARS extent double 1
LOOKUP_TABLE default
0.0125
0.0125
0.0125
0.0125
0.0125
0.0125
0.0125
0.0125
0.0125
0.0125
0.0125
0.0125
0.0125
0.0125
0.0125
0.0125
0.0125
0.0125
0.0125
0.0125
0.0125
0.0125
0.0125
0.0125
0.0125
0.0125
0.0125
0.0125
0.0125
0.0125
0.0125
0.0125
0.0125
0.0125
0.0125
0.0125
0.0125
0.0125
0.0125
0.0125
0.0125
0.0125
0.0125
0.0125
0.0125
0.0125
0.0125
0.0125
0.0125
0.0125
0.0125
0.0125
0.0125
0.0125
0.0125
0.0125
0.0125
0.0125
0.0125
0.0125
0.0125
0.0125
0.0125
0.0125
SCALARS pressure double 1
LOOKUP_TABLE default
1554.19
-579.274
4560.35
1267.21
656.117
-2182.22
-330.931
-547.081
850.635
569.923
-1451.84
-667.953
-2341.92
1101.59
-1160.06
3158.25
-2413.62
-3274.4
1701.85
1657.16
-3540.35
-2656.1
-1996.78
3276.09
-3043.55
481.676
-1893.22
-2892.07
-7208.33
-1325.51
816.044
-2917.2
-4895.33
987.447
1271.57
-1721.45
-3667.19
-1153.6
-1351.45
3904.97
-5440.06
-3674.65
-3575.75
-873.57
-4069.6
-3534.19
-2693.46
2103.87
-1611.19
-1261.05
-2041.76
-3261.36
342.009
200.422
-3790.99
-1957.71
2765.03
-1547.59
-1074.16
5916.34
5665.89
-4494.03
4135.79
6727.73
SCALARS density double 1
LOOKUP_TABLE default
1016.29
993.994
1048.57
1013.27
1006.85
977.56
996.564
994.327
1008.89
1005.94
985.014
993.077
975.938
1011.52
988.008
1033.39
975.211
966.52
1017.86
1017.38
963.85
972.755
979.448
1034.66
968.843
1005.02
980.503
970.37
927.774
986.309
1008.52
970.117
950.363
1010.32
1013.31
982.256
962.579
988.074
986.043
1041.45
944.994
962.505
963.495
990.956
958.559
963.912
972.377
1022.12
983.383
986.971
978.99
966.651
1003.56
1002.09
961.341
979.846
1029.17
984.034
988.891
1063.46
1060.7
954.337
1043.95
1072.47
