# vtk DataFile Version 3.0
Frame: 32, Time: 0.534
ASCII
DATASET UNSTRUCTURED_GRID
POINTS 64 double
0.96273 0.417153 0 
0.959044 0.391298 0 
0.939208 0.421179 0 
0.933517 0.394409 0 
0.956009 0.367041 0 
0.954481 0.341903 0 
0.930658 0.368918 0 
0.928635 0.343007 0 
0.95159 0.317029 0 
0.948244 0.292464 0 
0.925385 0.317029 0 
0.923131 0.291737 0 
0.949031 0.269499 0 
0.952944 0.249937 0 
0.923534 0.266068 0 
0.927578 0.241518 0 
0.916132 0.422806 0 
0.910762 0.397451 0 
0.893407 0.424742 0 
0.887013 0.399504 0 
0.9072 0.372056 0 
0.90489 0.346806 0 
0.88241 0.375014 0 
0.880854 0.348938 0 
0.901337 0.320162 0 
0.899454 0.29383 0 
0.878233 0.322737 0 
0.875802 0.296333 0 
0.897811 0.266551 0 
0.897192 0.24075 0 
0.87313 0.269771 0 
0.868952 0.243744 0 
0.870071 0.429774 0 
0.861551 0.406331 0 
0.846432 0.436217 0 
0.836977 0.412007 0 
0.859388 0.381043 0 
0.856369 0.354088 0 
0.835097 0.385657 0 
0.831375 0.361189 0 
0.853678 0.327143 0 
0.851802 0.300554 0 
0.829495 0.333904 0 
0.827992 0.307356 0 
0.847755 0.274678 0 
0.841236 0.249897 0 
0.822117 0.282183 0 
0.814596 0.257349 0 
0.822972 0.442299 0 
0.814092 0.417665 0 
0.797742 0.451773 0 
0.789673 0.426823 0 
0.810343 0.391709 0 
0.806357 0.365085 0 
0.785525 0.399812 0 
0.781324 0.372344 0 
0.804763 0.338666 0 
0.802923 0.31302 0 
0.779163 0.347336 0 
0.776865 0.322202 0 
0.796299 0.28886 0 
0.789732 0.264894 0 
0.771568 0.298073 0 
0.765383 0.273637 0 
CELLS 64 128
1 0
1 1
1 2
1 3
1 4
1 5
1 6
1 7
1 8
1 9
1 10
1 11
1 12
1 13
1 14
1 15
1 16
1 17
1 18
1 19
1 20
1 21
1 22
1 23
1 24
1 25
1 26
1 27
1 28
1 29
1 30
1 31
1 32
1 33
1 34
1 35
1 36
1 37
1 38
1 39
1 40
1 41
1 42
1 43
1 44
1 45
1 46
1 47
1 48
1 49
1 50
1 51
1 52
1 53
1 54
1 55
1 56
1 57
1 58
1 59
1 60
1 61
1 62
1 63
CELL_TYPES 64
1
1
1
1
1
1
1
1
1
1
1
1
1
1
1
1
1
1
1
1
1
1
1
1
1
1
1
1
1
1
1
1
1
1
1
1
1
1
1
1
1
1
1
1
1
1
1
1
1
1
1
1
1
1
1
1
1
1
1
1
1
1
1
1
POINT_DATA 64
VECTORS displacement double
0.45023 -0.195347 0 
0.446544 -0.246202 0 
0.401708 -0.191321 0 
0.396017 -0.243091 0 
0.443509 -0.295459 0 
0.441981 -0.345597 0 
0.393158 -0.293582 0 
0.391135 -0.344493 0 
0.43909 -0.395471 0 
0.435744 -0.445036 0 
0.387885 -0.395471 0 
0.385631 -0.445763 0 
0.436531 -0.493001 0 
0.440444 -0.537563 0 
0.386034 -0.496432 0 
0.390078 -0.545982 0 
0.353632 -0.189694 0 
0.348262 -0.240049 0 
0.305907 -0.187758 0 
0.299513 -0.237996 0 
0.3447 -0.290444 0 
0.34239 -0.340694 0 
0.29491 -0.287486 0 
0.293354 -0.338562 0 
0.338837 -0.392338 0 
0.336954 -0.44367 0 
0.290733 -0.389763 0 
0.288302 -0.441167 0 
0.335311 -0.495949 0 
0.334692 -0.54675 0 
0.28563 -0.492729 0 
0.281452 -0.543756 0 
0.257571 -0.182726 0 
0.249051 -0.231169 0 
0.208932 -0.176283 0 
0.199477 -0.225493 0 
0.246888 -0.281457 0 
0.243869 -0.333412 0 
0.197597 -0.276843 0 
0.193875 -0.326311 0 
0.241178 -0.385357 0 
0.239302 -0.436946 0 
0.191995 -0.378596 0 
0.190492 -0.430144 0 
0.235255 -0.487822 0 
0.228736 -0.537603 0 
0.184617 -0.480317 0 
0.177096 -0.530151 0 
0.160472 -0.170201 0 
0.151592 -0.219835 0 
0.110242 -0.160727 0 
0.102173 -0.210677 0 
0.147843 -0.270791 0 
0.143857 -0.322415 0 
0.0980249 -0.262688 0 
0.0938244 -0.315156 0 
0.142263 -0.373834 0 
0.140423 -0.42448 0 
0.0916633 -0.365164 0 
0.0893646 -0.415298 0 
0.133799 -0.47364 0 
0.127232 -0.522606 0 
0.0840676 -0.464427 0 
0.0778831 -0.513863 0 
VECTORS velocity double
0.0126169 -0.329446 0 
-0.0735835 -0.346585 0 
-1.06308 1.01487 0 
-1.23282 1.96936 0 
-0.220505 0.187057 0 
-0.420722 0.0440602 0 
-1.40007 2.17444 0 
-1.37477 1.42231 0 
-0.598137 0.564704 0 
-0.518069 0.809548 0 
-1.31034 1.7881 0 
-1.28445 1.52269 0 
0.214091 1.12884 0 
-0.0132881 0.606013 0 
-0.713825 1.73701 0 
-0.481011 1.95664 0 
-0.825876 0.194168 0 
-1.08521 0.908099 0 
-0.97822 0.0288035 0 
-1.08183 0.387033 0 
-0.935828 1.56852 0 
-0.794931 0.945419 0 
-1.36981 0.62519 0 
-1.38538 0.8322 0 
-0.910252 1.50722 0 
-0.780202 1.62603 0 
-1.29398 1.30376 0 
-0.995035 1.51924 0 
-0.33156 1.83843 0 
-1.07113 1.9511 0 
0.0133348 1.6869 0 
-1.2807 1.90828 0 
-1.08637 0.258806 0 
-1.20871 0.808141 0 
-1.79359 0.468804 0 
-2.12766 1.29671 0 
-1.08407 0.979971 0 
-1.28313 1.7033 0 
-1.42917 1.22034 0 
-1.51047 1.51513 0 
-1.11486 1.82783 0 
-1.22849 1.50016 0 
-1.61454 1.03756 0 
-1.64674 1.08283 0 
-0.296134 1.46353 0 
-1.01043 1.7906 0 
-0.986429 1.21484 0 
-1.16755 1.52713 0 
-1.9161 0.0334196 0 
-2.37414 0.250924 0 
-2.23178 -0.259045 0 
-2.77315 0.383911 0 
-1.36198 0.279098 0 
-1.4334 0.424271 0 
-1.77561 -0.0344281 0 
-1.86506 -0.217616 0 
-1.75005 0.630922 0 
-1.65363 0.647313 0 
-1.64084 0.233624 0 
-1.2705 0.218409 0 
-0.616912 0.555785 0 
-0.836837 0.539428 0 
-1.21001 0.353694 0 
-1.27803 0.214476 0 
SCALARS mass double 1
LOOKUP_TABLE default
0.625
0.625
0.625
0.625
0.625
0.625
0.625
0.625
0.625
0.625
0.625
0.625
0.625
0.625
0.625
0.625
0.625
0.625
0.625
0.625
0.625
0.625
0.625
0.625
0.625
0.625
0.625
0.625
0.625
0.625
0.625
0.625
0.625
0.625
0.625
0.625
0.625
0.625
0.625
0.625
0.625
0.625
0.625
0.625
0.625
0.625
0.625
0.625
0.625
0.625
0.625
0.625
0.625
0.625
0.625
0.625
0.625
0.625
0.625
0.625
0.625
0.625
0.625
0.625
SCALARS volume double 1
LOOKUP_TABLE default
0.000498109
0.000528399
0.000629502
0.00060722
0.000557124
0.000577124
0.000586564
0.000634301
0.00059942
0.000596069
0.000625349
0.000585606
0.000614528
0.000511289
0.000604161
0.000677084
0.000554197
0.000559419
0.000613343
0.000608388
0.000576538
0.000609561
0.000612494
0.000617447
0.000588422
0.000611695
0.000619113
0.000650397
0.000644162
0.00070504
0.000648758
0.000674897
0.000594381
0.000607817
0.000607047
0.000607313
0.000605094
0.000652975
0.00062389
0.000634459
0.000633098
0.000595692
0.000630392
0.000597376
0.000648393
0.000650806
0.000666675
0.000618145
0.00064489
0.000611996
0.000637736
0.000642757
0.000638274
0.000624426
0.000636409
0.000643554
0.000650715
0.000640186
0.000617689
0.000589884
0.000617169
0.000629621
0.000607987
0.000618178
VECTORS momentum double
0.00788557 -0.205903 0 
-0.0459897 -0.216615 0 
-0.664425 0.634291 0 
-0.770513 1.23085 0 
-0.137816 0.116911 0 
-0.262951 0.0275376 0 
-0.875042 1.35902 0 
-0.859234 0.888945 0 
-0.373836 0.35294 0 
-0.323793 0.505968 0 
-0.81896 1.11756 0 
-0.802784 0.951682 0 
0.133807 0.705522 0 
-0.00830504 0.378758 0 
-0.44614 1.08563 0 
-0.300632 1.2229 0 
-0.516173 0.121355 0 
-0.678256 0.567562 0 
-0.611387 0.0180022 0 
-0.676146 0.241896 0 
-0.584893 0.980322 0 
-0.496832 0.590887 0 
-0.856129 0.390744 0 
-0.865859 0.520125 0 
-0.568908 0.942014 0 
-0.487626 1.01627 0 
-0.808736 0.814851 0 
-0.621897 0.949528 0 
-0.207225 1.14902 0 
-0.669457 1.21944 0 
0.00833427 1.05431 0 
-0.80044 1.19267 0 
-0.678981 0.161754 0 
-0.755444 0.505088 0 
-1.12099 0.293003 0 
-1.32979 0.810446 0 
-0.677543 0.612482 0 
-0.801955 1.06456 0 
-0.893233 0.76271 0 
-0.944046 0.946957 0 
-0.696788 1.14239 0 
-0.767807 0.937598 0 
-1.00909 0.648473 0 
-1.02921 0.67677 0 
-0.185084 0.914707 0 
-0.631517 1.11913 0 
-0.616518 0.759274 0 
-0.729719 0.954459 0 
-1.19756 0.0208873 0 
-1.48384 0.156828 0 
-1.39486 -0.161903 0 
-1.73322 0.239944 0 
-0.851236 0.174437 0 
-0.895875 0.265169 0 
-1.10976 -0.0215176 0 
-1.16567 -0.13601 0 
-1.09378 0.394326 0 
-1.03352 0.404571 0 
-1.02553 0.146015 0 
-0.794065 0.136506 0 
-0.38557 0.347365 0 
-0.523023 0.337142 0 
-0.756258 0.221058 0 
-0.798771 0.134048 0 
VECTORS body_force double
0 -9.81 0 
0 -9.81 0 
0 -9.81 0 
0 -9.81 0 
0 -9.81 0 
0 -9.81 0 
0 -9.81 0 
0 -9.81 0 
0 -9.81 0 
0 -9.81 0 
0 -9.81 0 
0 -9.81 0 
0 -9.81 0 
0 -9.81 0 
0 -9.81 0 
0 -9.81 0 
0 -9.81 0 
0 -9.81 0 
0 -9.81 0 
0 -9.81 0 
0 -9.81 0 
0 -9.81 0 
0 -9.81 0 
0 -9.81 0 
0 -9.81 0 
0 -9.81 0 
0 -9.81 0 
0 -9.81 0 
0 -9.81 0 
0 -9.81 0 
0 -9.81 0 
0 -9.81 0 
0 -9.81 0 
0 -9.81 0 
0 -9.81 0 
0 -9.81 0 
0 -9.81 0 
0 -9.81 0 
0 -9.81 0 
0 -9.81 0 
0 -9.81 0 
0 -9.81 0 
0 -9.81 0 
0 -9.81 0 
0 -9.81 0 
0 -9.81 0 
0 -9.81 0 
0 -9.81 0 
0 -9.81 0 
0 -9.81 0 
0 -9.81 0 
0 -9.81 0 
0 -9.81 0 
0 -9.81 0 
0 -9.81 0 
0 -9.81 0 
0 -9.81 0 
0 -9.81 0 
0 -9.81 0 
0 -9.81 0 
0 -9.81 0 
0 -9.81 0 
0 -9.81 0 
0 -9.81 0 
TENSORS cauchy_stress double
-31799.4 5950.98 0
5950.98 -11841.7 0
0 0 -13092.3

-20388.4 6190.15 0
6190.15 -11900.1 0
0 0 -9686.54

-3522.9 -43.9141 0
-43.9141 4903.25 0
0 0 414.107

-6465.04 4906.02 0
4906.02 914.948 0
0 0 -1665.03

-12059.6 7829.86 0
7829.86 -10048.6 0
0 0 -6632.49

-7807.46 8088.95 0
8088.95 -7518.25 0
0 0 -4597.71

-9592.27 -4151.05 0
-4151.05 -2613.48 0
0 0 -3661.72

-363.892 382.947 0
382.947 3204.79 0
0 0 852.268

-5504.95 10239.1 0
10239.1 -2531.36 0
0 0 -2410.89

-3044.76 11941.1 0
11941.1 -6069.63 0
0 0 -2734.32

378.917 1532.28 0
1532.28 -271.612 0
0 0 32.1915

-9506.27 3.04573 0
3.04573 -3013.76 0
0 0 -3756.01

-2130.69 22762.3 0
22762.3 -1118.91 0
0 0 -974.879

-32877.8 22156.9 0
22156.9 -5740.84 0
0 0 -11585.6

-3375.95 2356.91 0
2356.91 -3145.43 0
0 0 -1956.42

19716.1 -12892 0
-12892 -4323.08 0
0 0 4617.9

-15426.8 5304.59 0
5304.59 -7694.44 0
0 0 -6936.38

-14642.3 4670.99 0
4670.99 -6675.51 0
0 0 -6395.34

-4136.36 4689.89 0
4689.89 515.698 0
0 0 -1086.2

267.942 -378.346 0
-378.346 -5448.48 0
0 0 -1554.16

-8194.93 1194.45 0
1194.45 -7326.15 0
0 0 -4656.32

-6104.54 4905.8 0
4905.8 1294.44 0
0 0 -1443.03

-4298.22 -1849.66 0
-1849.66 411.167 0
0 0 -1166.12

-4455.01 -5685.88 0
-5685.88 2116.96 0
0 0 -701.413

-10113.1 3958.98 0
3958.98 -1484.4 0
0 0 -3479.25

-8166.43 -4976.69 0
-4976.69 4028.42 0
0 0 -1241.4

-5656.04 -2976.75 0
-2976.75 3836.2 0
0 0 -545.951

97.5426 -3381.42 0
-3381.42 7562.43 0
0 0 2297.99

1069.27 4584.5 0
4584.5 4738.01 0
0 0 1742.19

18978.5 -1346.3 0
-1346.3 4195.07 0
0 0 6952.08

1281.41 -982.134 0
-982.134 5893.17 0
0 0 2152.37

8790.06 -4331.74 0
-4331.74 5980.92 0
0 0 4431.29

-7633.87 99.3884 0
99.3884 -2025.85 0
0 0 -2897.91

-855.521 -2746.83 0
-2746.83 -4505.54 0
0 0 -1608.32

-5188.13 2560.23 0
2560.23 -416.764 0
0 0 -1681.47

-6598.67 258.662 0
258.662 1077.99 0
0 0 -1656.2

-12100.7 -7049.13 0
-7049.13 5876.24 0
0 0 -1867.33

-526.588 -4259.52 0
-4259.52 8947.1 0
0 0 2526.15

20.9406 -3006.13 0
-3006.13 -362.698 0
0 0 -102.527

3864.96 -3970.29 0
-3970.29 -976.274 0
0 0 866.607

-4515.26 -6971.05 0
-6971.05 6990.86 0
0 0 742.679

-7977.05 -269.36 0
-269.36 -1258.96 0
0 0 -2770.8

-6031.64 -1386.27 0
-1386.27 7683.74 0
0 0 495.629

-6005.17 -3511.33 0
-3511.33 -2688.06 0
0 0 -2607.97

3427.08 -414.739 0
-414.739 3639.27 0
0 0 2119.91

10729.9 1196.22 0
1196.22 -2949.2 0
0 0 2334.2

4598.09 -3770.53 0
-3770.53 7815.51 0
0 0 3724.08

-353.262 897.26 0
897.26 -1767.64 0
0 0 -636.27

1576.64 -1215.4 0
-1215.4 4448.05 0
0 0 1807.41

-5557.15 -3182.84 0
-3182.84 1513.56 0
0 0 -1213.08

3061.12 482.619 0
482.619 818.246 0
0 0 1163.81

249.873 -82.6542 0
-82.6542 5137.71 0
0 0 1616.27

-1294.39 -5017.83 0
-5017.83 5335.9 0
0 0 1212.45

-6264.99 -6874.55 0
-6874.55 6088.42 0
0 0 -52.9692

-2018.78 -4790.29 0
-4790.29 5497.44 0
0 0 1043.6

-198.443 -2489.44 0
-2489.44 5824.15 0
0 0 1687.71

555.144 -10135.4 0
-10135.4 7198.8 0
0 0 2326.18

3098.73 -3700.34 0
-3700.34 1518.11 0
0 0 1385.05

-2645.42 -5113.16 0
-5113.16 382.549 0
0 0 -678.86

-4857.41 -8434.13 0
-8434.13 -6262.95 0
0 0 -3336.11

1769.99 -1137.32 0
-1137.32 -4194.9 0
0 0 -727.473

5856.39 971.293 0
971.293 -4439.77 0
0 0 424.985

-1405.25 -330.885 0
-330.885 -3902.09 0
0 0 -1592.2

-107.725 -4599.85 0
-4599.85 -2003.03 0
0 0 -633.227

TENSORS velocity_gradient double
13.6241 -1.0843 0
-12.0976 -4.05973 0
0 0 0

13.4825 1.5294 0
-14.2457 -1.32117 0
0 0 0

7.9305 -1.03534 0
0.00336916 -6.53667 0
0 0 0

8.69558 1.55391 0
-2.99142 -3.87663 0
0 0 0

14.4034 1.64121 0
-15.0413 -1.41776 0
0 0 0

14.1992 -0.715285 0
-15.8705 -4.58963 0
0 0 0

8.14289 1.49356 0
-6.65358 -4.27654 0
0 0 0

7.1435 -2.31932 0
-9.46925 -5.76283 0
0 0 0

11.532 -0.846919 0
-16.2523 -4.78067 0
0 0 0

7.95301 -9.82342 0
-15.1711 -3.90561 0
0 0 0

5.15067 -2.57018 0
-10.2376 -5.85955 0
0 0 0

4.99111 -7.93454 0
-10.8717 -4.50644 0
0 0 0

7.41223 -9.79372 0
-16.708 -3.8782 0
0 0 0

6.04954 3.22064 0
-21.4729 -1.73181 0
0 0 0

7.79419 -7.95588 0
-11.325 -4.50299 0
0 0 0

9.78211 13.973 0
-12.3779 -2.05256 0
0 0 0

7.85858 -0.0326257 0
0.169799 -8.85706 0
0 0 0

8.66538 0.865669 0
-2.62297 -7.63561 0
0 0 0

9.76935 -0.134354 0
-1.22339 -10.1798 0
0 0 0

6.70338 -0.103287 0
-0.0420914 -9.34901 0
0 0 0

8.20778 0.991328 0
-6.22362 -7.60438 0
0 0 0

7.31147 -3.36012 0
-9.05101 -6.65545 0
0 0 0

5.68642 0.323341 0
-0.337246 -9.11653 0
0 0 0

4.99554 -3.13867 0
-0.395296 -6.308 0
0 0 0

5.17227 -4.25689 0
-6.32883 -6.32619 0
0 0 0

4.55194 -5.81043 0
-3.97775 -4.89907 0
0 0 0

4.7522 -4.72485 0
1.77104 -4.75968 0
0 0 0

4.37474 -6.10491 0
3.59558 -5.11147 0
0 0 0

4.96915 -5.74749 0
-2.26388 -4.92409 0
0 0 0

3.78265 14.277 0
-2.68614 -4.44352 0
0 0 0

3.36444 -6.34111 0
3.37378 -5.19526 0
0 0 0

1.23103 9.69331 0
2.56167 -6.64359 0
0 0 0

10.6221 -3.3444 0
-1.64848 -8.79286 0
0 0 0

7.29608 -4.33066 0
-0.188873 -8.32445 0
0 0 0

10.9118 -6.22883 0
4.48229 -7.41717 0
0 0 0

9.71921 -6.79602 0
8.94784 -6.98582 0
0 0 0

5.86827 -0.361292 0
-0.214072 -9.58026 0
0 0 0

5.09249 -1.65779 0
-0.577033 -7.78222 0
0 0 0

7.53497 -2.26057 0
11.133 -8.269 0
0 0 0

4.63342 -2.70376 0
13.9434 -7.83974 0
0 0 0

4.61084 -4.91265 0
2.73076 -2.63469 0
0 0 0

4.05013 -6.14885 0
6.07182 -4.16864 0
0 0 0

3.22231 -5.17426 0
14.4621 -2.83102 0
0 0 0

2.90655 -5.19368 0
13.4515 -2.89315 0
0 0 0

3.21082 -7.1464 0
9.4924 -5.38063 0
0 0 0

0.404197 -2.16044 0
13.5077 -7.36418 0
0 0 0

2.93828 -7.11276 0
13.3973 -5.18303 0
0 0 0

3.05812 -7.11586 0
13.6367 -5.1291 0
0 0 0

10.7945 -7.27549 0
7.71966 -6.43816 0
0 0 0

9.92633 -7.59059 0
8.71127 -6.07827 0
0 0 0

3.76982 -3.36367 0
3.79878 -7.95888 0
0 0 0

0.255289 -7.63701 0
5.28277 -3.76437 0
0 0 0

8.28457 -5.15238 0
10.4069 -5.46804 0
0 0 0

5.13596 -5.6359 0
13.4566 -4.99972 0
0 0 0

1.68199 -7.06582 0
10.0193 -3.72205 0
0 0 0

1.42361 -6.87961 0
9.87758 -4.5989 0
0 0 0

3.27977 -5.46685 0
14.6507 -3.76615 0
0 0 0

2.36895 -5.52758 0
13.024 -3.79452 0
0 0 0

0.826553 -6.60527 0
9.30619 -4.04209 0
0 0 0

-0.370896 -6.61722 0
9.4774 -3.80095 0
0 0 0

0.651595 -6.57355 0
11.7909 -4.44127 0
0 0 0

1.99042 -6.09927 0
14.0635 -3.83203 0
0 0 0

-0.939236 -5.15155 0
10.1899 -2.2887 0
0 0 0

1.11889 -3.77316 0
12.9527 -0.867411 0
0 0 0

SCALARS active double 1
LOOKUP_TABLE default
1
1
1
1
1
1
1
1
1
1
1
1
1
1
1
1
1
1
1
1
1
1
1
1
1
1
1
1
1
1
1
1
1
1
1
1
1
1
1
1
1
1
1
1
1
1
1
1
1
1
1
1
1
1
1
1
1
1
1
1
1
1
1
1
SCALARS extent double 1
LOOKUP_TABLE default
0.0125
0.0125
0.0125
0.0125
0.0125
0.0125
0.0125
0.0125
0.0125
0.0125
0.0125
0.0125
0.0125
0.0125
0.0125
0.0125
0.0125
0.0125
0.0125
0.0125
0.0125
0.0125
0.0125
0.0125
0.0125
0.0125
0.0125
0.0125
0.0125
0.0125
0.0125
0.0125
0.0125
0.0125
0.0125
0.0125
0.0125
0.0125
0.0125
0.0125
0.0125
0.0125
0.0125
0.0125
0.0125
0.0125
0.0125
0.0125
0.0125
0.0125
0.0125
0.0125
0.0125
0.0125
0.0125
0.0125
0.0125
0.0125
0.0125
0.0125
0.0125
0.0125
0.0125
0.0125
SCALARS pressure double 1
LOOKUP_TABLE default
18911.1
13991.7
-598.154
2405.04
9580.26
6641.14
5289.16
-1231.05
3482.4
3949.57
-46.4988
5425.35
1408.16
16734.7
2825.93
-6670.3
10019.2
9237.72
1568.95
2244.9
6725.8
2084.38
1684.39
1013.15
5025.58
1793.14
788.596
-3319.32
-2516.49
-10041.9
-3108.98
-6400.75
4185.88
2323.13
2428.79
2392.29
2697.26
-3648.89
148.095
-1251.77
-1072.76
4002.27
-715.909
3767.07
-3062.09
-3371.62
-5379.23
919.056
-2610.7
1752.22
-1681.06
-2334.62
-1751.32
76.511
-1507.42
-2437.81
-3360.04
-2000.63
980.576
4818.82
1050.79
-613.868
2299.85
914.661
SCALARS density double 1
LOOKUP_TABLE default
1254.75
1182.82
992.848
1029.28
1121.83
1082.96
1065.53
985.336
1042.67
1048.54
999.442
1067.27
1017.04
1222.4
1034.49
923.076
1127.76
1117.23
1019.01
1027.3
1084.06
1025.33
1020.42
1012.23
1062.16
1021.75
1009.51
960.951
970.254
886.475
963.38
926.067
1051.51
1028.27
1029.57
1029.12
1032.9
957.158
1001.78
985.091
987.209
1049.2
991.446
1046.24
963.922
960.348
937.489
1011.09
969.157
1021.25
980.029
972.373
979.203
1000.92
982.074
971.17
960.482
976.278
1011.84
1059.53
1012.69
992.661
1027.98
1011.04
