# vtk DataFile Version 3.0
Frame: 26, Time: 0.434
ASCII
DATASET UNSTRUCTURED_GRID
POINTS 64 double
0.391399 0.0814161 0 
0.382042 0.106902 0 
0.412402 0.092368 0 
0.403704 0.118549 0 
0.369557 0.13131 0 
0.359409 0.153262 0 
0.39267 0.140239 0 
0.382807 0.161336 0 
0.352066 0.17702 0 
0.341158 0.200549 0 
0.375648 0.186546 0 
0.363991 0.20985 0 
0.334688 0.225558 0 
0.32729 0.248814 0 
0.357636 0.234656 0 
0.350908 0.258331 0 
0.434315 0.104928 0 
0.425232 0.129131 0 
0.458667 0.112167 0 
0.447355 0.13543 0 
0.41399 0.150414 0 
0.405194 0.172009 0 
0.43732 0.156935 0 
0.428737 0.178799 0 
0.397481 0.196048 0 
0.385868 0.217912 0 
0.42143 0.203258 0 
0.411284 0.226067 0 
0.38014 0.242118 0 
0.374978 0.269549 0 
0.404287 0.250595 0 
0.398015 0.276066 0 
0.482493 0.118717 0 
0.470087 0.141417 0 
0.504557 0.12884 0 
0.492653 0.151371 0 
0.460308 0.163619 0 
0.452216 0.187939 0 
0.48331 0.17313 0 
0.47514 0.198026 0 
0.444539 0.213452 0 
0.435043 0.235803 0 
0.46605 0.224136 0 
0.459191 0.246372 0 
0.42746 0.259953 0 
0.420041 0.283602 0 
0.452645 0.2699 0 
0.442325 0.293967 0 
0.526671 0.138751 0 
0.514328 0.161468 0 
0.547775 0.153066 0 
0.537313 0.174377 0 
0.506256 0.183308 0 
0.496176 0.206685 0 
0.529127 0.196436 0 
0.518861 0.219532 0 
0.487615 0.23191 0 
0.482916 0.255862 0 
0.51224 0.242424 0 
0.508399 0.265906 0 
0.476092 0.280428 0 
0.464325 0.304276 0 
0.498919 0.290019 0 
0.487761 0.314243 0 
CELLS 64 128
1 0
1 1
1 2
1 3
1 4
1 5
1 6
1 7
1 8
1 9
1 10
1 11
1 12
1 13
1 14
1 15
1 16
1 17
1 18
1 19
1 20
1 21
1 22
1 23
1 24
1 25
1 26
1 27
1 28
1 29
1 30
1 31
1 32
1 33
1 34
1 35
1 36
1 37
1 38
1 39
1 40
1 41
1 42
1 43
1 44
1 45
1 46
1 47
1 48
1 49
1 50
1 51
1 52
1 53
1 54
1 55
1 56
1 57
1 58
1 59
1 60
1 61
1 62
1 63
CELL_TYPES 64
1
1
1
1
1
1
1
1
1
1
1
1
1
1
1
1
1
1
1
1
1
1
1
1
1
1
1
1
1
1
1
1
1
1
1
1
1
1
1
1
1
1
1
1
1
1
1
1
1
1
1
1
1
1
1
1
1
1
1
1
1
1
1
1
POINT_DATA 64
VECTORS displacement double
-0.0211008 -0.331084 0 
-0.0304579 -0.330598 0 
-0.0250982 -0.320132 0 
-0.0337964 -0.318951 0 
-0.0429429 -0.33119 0 
-0.0530912 -0.334238 0 
-0.0448301 -0.322261 0 
-0.0546929 -0.326164 0 
-0.060434 -0.33548 0 
-0.0713418 -0.336951 0 
-0.061852 -0.325954 0 
-0.073509 -0.32765 0 
-0.0778119 -0.336942 0 
-0.08521 -0.338686 0 
-0.0798643 -0.327844 0 
-0.0865918 -0.329169 0 
-0.0281854 -0.307572 0 
-0.0372678 -0.308369 0 
-0.028833 -0.300333 0 
-0.0401451 -0.30207 0 
-0.04851 -0.312086 0 
-0.0573064 -0.315491 0 
-0.05018 -0.305565 0 
-0.0587627 -0.308701 0 
-0.0650193 -0.316452 0 
-0.076632 -0.319588 0 
-0.0660704 -0.309242 0 
-0.0762158 -0.311433 0 
-0.0823597 -0.320382 0 
-0.087522 -0.317951 0 
-0.0832125 -0.311905 0 
-0.0894854 -0.311434 0 
-0.0300073 -0.293783 0 
-0.0424135 -0.296083 0 
-0.0329427 -0.28366 0 
-0.0448472 -0.286129 0 
-0.0521918 -0.298881 0 
-0.0602841 -0.299561 0 
-0.0541905 -0.28937 0 
-0.0623598 -0.289474 0 
-0.0679608 -0.299048 0 
-0.0774565 -0.301697 0 
-0.0714495 -0.288364 0 
-0.078309 -0.291128 0 
-0.0850395 -0.302547 0 
-0.0924589 -0.303898 0 
-0.0848553 -0.2926 0 
-0.0951751 -0.293533 0 
-0.0358291 -0.273749 0 
-0.0481718 -0.276032 0 
-0.039725 -0.259434 0 
-0.0501866 -0.263123 0 
-0.0562443 -0.279192 0 
-0.0663237 -0.280815 0 
-0.0583727 -0.266064 0 
-0.0686388 -0.267968 0 
-0.074885 -0.28059 0 
-0.0795841 -0.281638 0 
-0.0752601 -0.270076 0 
-0.0791011 -0.271594 0 
-0.0864081 -0.282072 0 
-0.0981746 -0.283224 0 
-0.0885809 -0.272481 0 
-0.0997389 -0.273257 0 
VECTORS velocity double
0.819618 0.114003 0 
-0.956746 -0.468592 0 
0.488676 0.981966 0 
-0.904075 0.925835 0 
-0.41533 -0.237195 0 
-0.615646 0.504134 0 
-0.149584 -0.0106184 0 
-0.333048 0.312861 0 
-0.0569652 -0.0640812 0 
-0.494632 -0.868192 0 
-0.0928773 0.357277 0 
-0.39434 -0.237442 0 
-0.387952 -0.994411 0 
-1.2978 -1.0315 0 
-0.883041 -0.418473 0 
-1.59427 -0.874771 0 
-0.140187 0.446834 0 
-0.289031 0.501343 0 
0.375341 -0.0425859 0 
0.158446 0.278333 0 
0.0360318 -0.155898 0 
-0.233049 0.335485 0 
-0.164279 -0.0337882 0 
-0.772384 0.506978 0 
0.228491 0.591802 0 
-0.244793 -0.304605 0 
0.234591 0.883813 0 
0.385115 0.244739 0 
-1.16148 -0.0430248 0 
-1.18588 -0.399081 0 
-0.873459 0.788639 0 
-1.57351 0.107537 0 
0.44783 0.49155 0 
0.466786 0.573559 0 
-0.03112 0.679648 0 
0.0443746 1.15498 0 
-0.262372 0.195441 0 
-0.76023 0.696967 0 
-0.87515 0.30894 0 
-0.944928 0.574451 0 
0.594783 1.12961 0 
0.326718 0.730864 0 
0.260702 0.989354 0 
-0.251859 0.881191 0 
-1.58715 0.688525 0 
-1.82297 0.67765 0 
-1.48155 1.18752 0 
-1.10109 1.48174 0 
0.490906 0.625951 0 
-0.0611229 1.08956 0 
-0.146772 1.17526 0 
-0.561467 0.995729 0 
-0.499032 0.902863 0 
-0.237537 1.55788 0 
-0.442844 1.12669 0 
0.190013 1.55971 0 
0.319746 1.51816 0 
-0.465448 1.1231 0 
0.233327 0.712954 0 
-0.315161 1.28668 0 
-0.951632 1.09708 0 
-0.826461 -0.343335 0 
-1.07143 1.66453 0 
-1.50384 0.944881 0 
SCALARS mass double 1
LOOKUP_TABLE default
0.625
0.625
0.625
0.625
0.625
0.625
0.625
0.625
0.625
0.625
0.625
0.625
0.625
0.625
0.625
0.625
0.625
0.625
0.625
0.625
0.625
0.625
0.625
0.625
0.625
0.625
0.625
0.625
0.625
0.625
0.625
0.625
0.625
0.625
0.625
0.625
0.625
0.625
0.625
0.625
0.625
0.625
0.625
0.625
0.625
0.625
0.625
0.625
0.625
0.625
0.625
0.625
0.625
0.625
0.625
0.625
0.625
0.625
0.625
0.625
0.625
0.625
0.625
0.625
SCALARS volume double 1
LOOKUP_TABLE default
0.000607901
0.000721574
0.000642737
0.000650557
0.000636712
0.000610515
0.000559098
0.000594559
0.000638896
0.000614594
0.000637348
0.0005882
0.000625158
0.00061376
0.000619863
0.000649567
0.000643125
0.000622984
0.000625764
0.000596406
0.00057015
0.000643363
0.000554558
0.000602725
0.000682388
0.000593917
0.000611761
0.000645518
0.000643526
0.00060457
0.000640888
0.000621394
0.000650448
0.000614211
0.000602663
0.000605374
0.000645932
0.000682654
0.000600698
0.000593591
0.000655825
0.000651544
0.000571139
0.000579159
0.000623432
0.000588437
0.000660043
0.00062526
0.000664668
0.000627834
0.000631265
0.000595306
0.000638792
0.000619594
0.000589154
0.000575719
0.000639149
0.000647055
0.000610201
0.000637405
0.000649141
0.000606432
0.000652917
0.000618819
VECTORS momentum double
0.512261 0.0712518 0 
-0.597966 -0.29287 0 
0.305423 0.613729 0 
-0.565047 0.578647 0 
-0.259582 -0.148247 0 
-0.384778 0.315084 0 
-0.0934899 -0.00663647 0 
-0.208155 0.195538 0 
-0.0356033 -0.0400508 0 
-0.309145 -0.54262 0 
-0.0580483 0.223298 0 
-0.246463 -0.148401 0 
-0.24247 -0.621507 0 
-0.811124 -0.644686 0 
-0.5519 -0.261546 0 
-0.996416 -0.546732 0 
-0.087617 0.279271 0 
-0.180645 0.313339 0 
0.234588 -0.0266162 0 
0.0990286 0.173958 0 
0.0225199 -0.097436 0 
-0.145656 0.209678 0 
-0.102674 -0.0211176 0 
-0.48274 0.316861 0 
0.142807 0.369876 0 
-0.152995 -0.190378 0 
0.146619 0.552383 0 
0.240697 0.152962 0 
-0.725927 -0.0268905 0 
-0.741172 -0.249426 0 
-0.545912 0.492899 0 
-0.983442 0.0672108 0 
0.279894 0.307218 0 
0.291741 0.358474 0 
-0.01945 0.42478 0 
0.0277341 0.72186 0 
-0.163982 0.122151 0 
-0.475143 0.435604 0 
-0.546969 0.193087 0 
-0.59058 0.359032 0 
0.371739 0.706004 0 
0.204198 0.45679 0 
0.162939 0.618346 0 
-0.157412 0.550744 0 
-0.991967 0.430328 0 
-1.13935 0.423531 0 
-0.925968 0.742201 0 
-0.688182 0.926089 0 
0.306816 0.39122 0 
-0.0382018 0.680975 0 
-0.0917325 0.734537 0 
-0.350917 0.622331 0 
-0.311895 0.564289 0 
-0.148461 0.973678 0 
-0.276777 0.704181 0 
0.118758 0.974816 0 
0.199841 0.948848 0 
-0.290905 0.701936 0 
0.145829 0.445596 0 
-0.196975 0.804177 0 
-0.59477 0.685673 0 
-0.516538 -0.214584 0 
-0.669642 1.04033 0 
-0.939903 0.590551 0 
VECTORS body_force double
0 -9.81 0 
0 -9.81 0 
0 -9.81 0 
0 -9.81 0 
0 -9.81 0 
0 -9.81 0 
0 -9.81 0 
0 -9.81 0 
0 -9.81 0 
0 -9.81 0 
0 -9.81 0 
0 -9.81 0 
0 -9.81 0 
0 -9.81 0 
0 -9.81 0 
0 -9.81 0 
0 -9.81 0 
0 -9.81 0 
0 -9.81 0 
0 -9.81 0 
0 -9.81 0 
0 -9.81 0 
0 -9.81 0 
0 -9.81 0 
0 -9.81 0 
0 -9.81 0 
0 -9.81 0 
0 -9.81 0 
0 -9.81 0 
0 -9.81 0 
0 -9.81 0 
0 -9.81 0 
0 -9.81 0 
0 -9.81 0 
0 -9.81 0 
0 -9.81 0 
0 -9.81 0 
0 -9.81 0 
0 -9.81 0 
0 -9.81 0 
0 -9.81 0 
0 -9.81 0 
0 -9.81 0 
0 -9.81 0 
0 -9.81 0 
0 -9.81 0 
0 -9.81 0 
0 -9.81 0 
0 -9.81 0 
0 -9.81 0 
0 -9.81 0 
0 -9.81 0 
0 -9.81 0 
0 -9.81 0 
0 -9.81 0 
0 -9.81 0 
0 -9.81 0 
0 -9.81 0 
0 -9.81 0 
0 -9.81 0 
0 -9.81 0 
0 -9.81 0 
0 -9.81 0 
0 -9.81 0 
TENSORS cauchy_stress double
-830.506 385.315 0
385.315 -4503.94 0
0 0 -1600.33

3137.72 3475.51 0
3475.51 24493.7 0
0 0 8289.42

2884.71 -2100.9 0
-2100.9 2496.77 0
0 0 1614.44

2332.27 -2490.75 0
-2490.75 5374.84 0
0 0 2312.13

7284.8 -2884.45 0
-2884.45 -3714.4 0
0 0 1071.12

-2537.82 3599.92 0
3599.92 -1971.43 0
0 0 -1352.78

-2199.74 -4246.7 0
-4246.7 -19228.4 0
0 0 -6428.44

-9526.81 7428.52 0
7428.52 -75.2874 0
0 0 -2880.63

3898.9 -102.099 0
-102.099 329.956 0
0 0 1268.66

-1735.4 -2118.95 0
-2118.95 -1493.4 0
0 0 -968.638

-4853.36 -772.177 0
-772.177 8615.56 0
0 0 1128.66

-8082.65 2663.21 0
2663.21 -3587.39 0
0 0 -3501.01

-1649.6 233.24 0
233.24 1698.32 0
0 0 14.6164

-2573.34 1255.63 0
1255.63 -916.677 0
0 0 -1047

-5931.67 4772.86 0
4772.86 4344.64 0
0 0 -476.11

3292.17 5273.21 0
5273.21 4122.1 0
0 0 2224.28

6516.55 4676.99 0
4676.99 -1019 0
0 0 1649.27

-4437.73 -1107.13 0
-1107.13 3816.41 0
0 0 -186.396

5766.56 -2740.44 0
-2740.44 -5531.54 0
0 0 70.5044

-6234.6 -5378.36 0
-5378.36 -2771.18 0
0 0 -2701.73

-1740.1 -2457.42 0
-2457.42 -15923.6 0
0 0 -5299.12

-397.255 9590.18 0
9590.18 5966.06 0
0 0 1670.64

-4983.51 -5517.61 0
-5517.61 -18012.6 0
0 0 -6898.84

-6640.91 2243.8 0
2243.8 -337.972 0
0 0 -2093.66

8432.72 3828.39 0
3828.39 8460.8 0
0 0 5068.06

3268.31 -1491.4 0
-1491.4 -13078.2 0
0 0 -2942.96

-2585.06 -1658.5 0
-1658.5 -1532.17 0
0 0 -1235.17

5631.51 -1962.6 0
-1962.6 580.313 0
0 0 1863.55

-862.502 1352.35 0
1352.35 6479.88 0
0 0 1685.21

-6653.78 -464.983 0
-464.983 262.715 0
0 0 -1917.32

1709.05 -191.093 0
-191.093 3118.59 0
0 0 1448.29

-5174.04 -2766.44 0
-2766.44 4061.35 0
0 0 -333.807

6523.11 3243.67 0
3243.67 1151.75 0
0 0 2302.46

-2385.81 -2996.17 0
-2996.17 -963.029 0
0 0 -1004.65

-5301.1 3105.71 0
3105.71 -1697.61 0
0 0 -2099.61

-5126.79 358.419 0
358.419 -1008.98 0
0 0 -1840.73

2996.13 48.3838 0
48.3838 3339.07 0
0 0 1900.56

2096.01 9282.71 0
9282.71 14872.6 0
0 0 5090.58

-5965.25 -2708.59 0
-2708.59 -1661.49 0
0 0 -2288.02

-10428 -5138.75 0
-5138.75 512.517 0
0 0 -2974.66

-4495.93 4892.83 0
4892.83 13754.2 0
0 0 2777.47

-4669.33 10266.6 0
10266.6 12668.1 0
0 0 2399.63

-9792.32 -8142.43 0
-8142.43 -7538.25 0
0 0 -5199.17

-4776.79 1946.12 0
1946.12 -9872.17 0
0 0 -4394.69

-6310.17 5243.71 0
5243.71 5827.08 0
0 0 -144.926

-4855.5 811.892 0
811.892 -6737.06 0
0 0 -3477.77

6814.23 -273.613 0
-273.613 3676.84 0
0 0 3147.32

1015.31 -5203.22 0
-5203.22 -935.478 0
0 0 23.9496

7990.26 -1393.3 0
-1393.3 3843.67 0
0 0 3550.18

-832.532 1786.5 0
1786.5 1702.61 0
0 0 261.023

343.632 603.048 0
603.048 1574.48 0
0 0 575.433

-5268.21 3538.39 0
3538.39 -4092.52 0
0 0 -2808.22

2948.39 3662.04 0
3662.04 1249.2 0
0 0 1259.28

-5908.51 3194.4 0
3194.4 4237.97 0
0 0 -501.164

-8166.75 -986.302 0
-986.302 -3191.8 0
0 0 -3407.57

-7869.24 4199.11 0
4199.11 -7925.33 0
0 0 -4738.37

-4169.87 3201.02 0
3201.02 8474.94 0
0 0 1291.52

-1465.52 13059.6 0
13059.6 8134.77 0
0 0 2000.77

-2202.77 4030.98 0
4030.98 -2405.61 0
0 0 -1382.51

1753.4 -804.759 0
-804.759 2026.16 0
0 0 1133.87

-2642.9 3536.88 0
3536.88 9931.05 0
0 0 2186.45

-4532.55 -1544.48 0
-1544.48 -1267.39 0
0 0 -1739.98

6495.1 -7921.21 0
-7921.21 1908.49 0
0 0 2521.08

-1800.31 1092.85 0
1092.85 -111.038 0
0 0 -573.405

TENSORS velocity_gradient double
2.72927 -19.2013 0
7.69051 1.66179 0
0 0 0

3.89637 -1.08663 0
7.59262 -0.733611 0
0 0 0

3.04844 -14.3494 0
1.99878 -2.71299 0
0 0 0

4.7671 -1.55162 0
1.41348 -3.04385 0
0 0 0

3.53373 -0.902655 0
3.53166 1.32668 0
0 0 0

3.4596 0.860054 0
1.91115 -4.79165 0
0 0 0

3.40227 -1.24414 0
2.0595 -2.49741 0
0 0 0

3.68783 2.2995 0
3.37514 -1.18663 0
0 0 0

2.25218 0.691201 0
9.28982 -8.82452 0
0 0 0

2.5638 -8.18398 0
12.6195 -6.83034 0
0 0 0

4.66939 2.02093 0
10.103 -3.09606 0
0 0 0

4.97153 -14.2104 0
14.6426 -4.2136 0
0 0 0

1.65798 -12.868 0
9.85523 -3.7941 0
0 0 0

0.0506575 -12.0904 0
6.96329 -1.91316 0
0 0 0

4.41801 -14.0782 0
17.0046 -4.77769 0
0 0 0

2.56327 -12.8862 0
14.6069 -3.05191 0
0 0 0

5.28234 -3.36544 0
-0.346005 -2.14767 0
0 0 0

4.55008 -2.44948 0
1.32111 -1.51658 0
0 0 0

1.43776 -3.80285 0
5.60303 1.45836 0
0 0 0

3.22894 -3.388 0
3.63753 0.389463 0
0 0 0

3.37915 -0.311016 0
3.15344 1.15928 0
0 0 0

1.24502 2.24271 0
5.17288 3.72156 0
0 0 0

2.84193 -1.52656 0
3.72002 6.71563 0
0 0 0

0.236544 -0.503432 0
5.70023 5.93801 0
0 0 0

2.9389 -0.193919 0
10.8089 1.79468 0
0 0 0

4.79985 -14.6947 0
15.3752 -2.1472 0
0 0 0

-1.38444 -8.0606 0
7.96404 2.43681 0
0 0 0

1.97457 -13.013 0
10.2558 0.332326 0
0 0 0

4.26092 -14.5763 0
17.675 -2.65213 0
0 0 0

4.1655 -12.9197 0
19.8539 -1.72532 0
0 0 0

5.45635 -13.4037 0
12.8148 -0.320907 0
0 0 0

5.023 -12.838 0
16.4468 -0.37945 0
0 0 0

1.22774 -4.58547 0
6.25669 3.89419 0
0 0 0

0.48141 -4.18149 0
8.57959 2.63683 0
0 0 0

-0.255116 -5.3213 0
4.73062 5.11636 0
0 0 0

0.164124 -4.64289 0
9.08481 5.61487 0
0 0 0

-0.24075 -3.36683 0
8.98965 7.4443 0
0 0 0

-0.965022 -2.93912 0
7.56156 7.5111 0
0 0 0

-0.539995 -4.11282 0
8.62257 6.5292 0
0 0 0

-0.999561 -3.40838 0
7.62894 5.82432 0
0 0 0

-0.123815 -7.42034 0
8.77845 3.594 0
0 0 0

3.57397 -8.99206 0
11.2115 2.73497 0
0 0 0

2.52814 -3.75076 0
6.482 3.45898 0
0 0 0

6.12093 -6.0366 0
5.48874 2.8915 0
0 0 0

6.09716 -12.8155 0
12.2634 -1.369 0
0 0 0

6.10503 -12.8178 0
11.1035 -1.02378 0
0 0 0

5.81941 -13.1573 0
6.15929 -2.55716 0
0 0 0

6.10838 -12.8105 0
10.6085 -2.11132 0
0 0 0

-0.781824 -6.08902 0
3.43179 3.27386 0
0 0 0

-0.620057 -3.85388 0
1.72615 5.03848 0
0 0 0

-1.53998 -3.59343 0
2.99988 2.38959 0
0 0 0

0.0849622 -2.58739 0
0.985827 3.70858 0
0 0 0

0.575058 -4.2929 0
0.471191 5.49948 0
0 0 0

0.0747143 0.935512 0
5.57194 2.35389 0
0 0 0

1.29183 -2.18359 0
-0.245028 3.84995 0
0 0 0

2.52325 3.00382 0
-0.744039 1.7492 0
0 0 0

3.82941 -0.0753777 0
6.14004 2.49313 0
0 0 0

6.58328 -13.5074 0
5.08858 -3.01209 0
0 0 0

3.73362 2.65069 0
-0.983945 1.81919 0
0 0 0

2.15215 -17.6393 0
5.38571 -0.588864 0
0 0 0

4.98333 -14.7472 0
4.08445 -3.52051 0
0 0 0

2.89443 -5.2691 0
3.85057 -5.63137 0
0 0 0

1.64396 -16.599 0
9.63244 -3.00565 0
0 0 0

1.54849 -6.1791 0
4.74647 -3.75398 0
0 0 0

SCALARS active double 1
LOOKUP_TABLE default
1
1
1
1
1
1
1
1
1
1
1
1
1
1
1
1
1
1
1
1
1
1
1
1
1
1
1
1
1
1
1
1
1
1
1
1
1
1
1
1
1
1
1
1
1
1
1
1
1
1
1
1
1
1
1
1
1
1
1
1
1
1
1
1
SCALARS extent double 1
LOOKUP_TABLE default
0.0125
0.0125
0.0125
0.0125
0.0125
0.0125
0.0125
0.0125
0.0125
0.0125
0.0125
0.0125
0.0125
0.0125
0.0125
0.0125
0.0125
0.0125
0.0125
0.0125
0.0125
0.0125
0.0125
0.0125
0.0125
0.0125
0.0125
0.0125
0.0125
0.0125
0.0125
0.0125
0.0125
0.0125
0.0125
0.0125
0.0125
0.0125
0.0125
0.0125
0.0125
0.0125
0.0125
0.0125
0.0125
0.0125
0.0125
0.0125
0.0125
0.0125
0.0125
0.0125
0.0125
0.0125
0.0125
0.0125
0.0125
0.0125
0.0125
0.0125
0.0125
0.0125
0.0125
0.0125
SCALARS pressure double 1
LOOKUP_TABLE default
2311.59
-11973.6
-2331.97
-3339.75
-1547.17
1954.01
9285.52
4160.91
-1832.5
1399.14
-1630.29
5057.02
-21.1126
1512.34
687.714
-3212.85
-2382.27
269.238
-101.84
3902.51
7654.28
-2413.15
9965
3024.18
-7320.53
4250.95
1784.13
-2691.79
-2434.2
2769.46
-2091.98
482.166
-3325.77
1451.16
3032.78
2658.83
-2745.25
-7353.07
3304.92
4296.73
-4011.9
-3466.14
7509.91
6347.88
209.338
5023.44
-4546.13
-34.5938
-5128.04
-377.033
-831.181
4056.32
-1818.96
723.903
4922.04
6844.31
-1865.53
-2890.01
1996.97
-1637.81
-3158.2
2513.31
-3641.55
828.252
SCALARS density double 1
LOOKUP_TABLE default
1028.13
866.162
972.404
960.715
981.605
1023.73
1117.87
1051.2
978.25
1016.93
980.627
1062.56
999.747
1018.31
1008.29
962.18
971.817
1003.24
998.779
1047.94
1096.2
971.457
1127.02
1036.96
915.902
1052.33
1021.64
968.215
971.212
1033.79
975.209
1005.8
960.877
1017.57
1037.06
1032.42
967.594
915.544
1040.46
1052.91
952.998
959.259
1094.3
1079.15
1002.52
1062.14
946.908
999.585
940.319
995.486
990.075
1049.88
978.409
1008.72
1060.84
1085.6
977.862
965.914
1024.25
980.538
962.811
1030.62
957.242
1009.99
