# vtk DataFile Version 3.0
Frame: 52, Time: 0.867
ASCII
DATASET UNSTRUCTURED_GRID
POINTS 64 double
0.443553 0.27582 0 
0.465085 0.26104 0 
0.428294 0.254588 0 
0.449668 0.238564 0 
0.484823 0.244297 0 
0.505718 0.228515 0 
0.469011 0.222821 0 
0.490296 0.2078 0 
0.526992 0.213988 0 
0.546192 0.196757 0 
0.511223 0.192857 0 
0.530244 0.176545 0 
0.56787 0.184106 0 
0.589744 0.172319 0 
0.552565 0.163182 0 
0.573877 0.149629 0 
0.413566 0.235239 0 
0.433488 0.218498 0 
0.398845 0.215582 0 
0.420156 0.198327 0 
0.454146 0.20296 0 
0.475062 0.188314 0 
0.4407 0.181786 0 
0.460337 0.16757 0 
0.495634 0.172766 0 
0.515017 0.156706 0 
0.480757 0.151909 0 
0.500932 0.136445 0 
0.536692 0.14211 0 
0.559872 0.128544 0 
0.5218 0.122142 0 
0.54406 0.107369 0 
0.385023 0.195312 0 
0.405043 0.177317 0 
0.373435 0.174656 0 
0.390829 0.156592 0 
0.425781 0.162191 0 
0.445622 0.145452 0 
0.410789 0.141345 0 
0.429216 0.125565 0 
0.465838 0.130018 0 
0.486558 0.115682 0 
0.449104 0.109984 0 
0.469062 0.0965645 0 
0.507129 0.100581 0 
0.529563 0.0863946 0 
0.489776 0.0816147 0 
0.513595 0.0680562 0 
0.359332 0.157181 0 
0.375401 0.137159 0 
0.339194 0.143456 0 
0.354446 0.118463 0 
0.394212 0.122656 0 
0.414305 0.104629 0 
0.375352 0.101374 0 
0.397433 0.0844397 0 
0.433923 0.0890354 0 
0.453824 0.074876 0 
0.416564 0.0692622 0 
0.438338 0.0542933 0 
0.476577 0.060921 0 
0.500275 0.0491731 0 
0.462451 0.0414154 0 
0.487639 0.0328398 0 
CELLS 64 128
1 0
1 1
1 2
1 3
1 4
1 5
1 6
1 7
1 8
1 9
1 10
1 11
1 12
1 13
1 14
1 15
1 16
1 17
1 18
1 19
1 20
1 21
1 22
1 23
1 24
1 25
1 26
1 27
1 28
1 29
1 30
1 31
1 32
1 33
1 34
1 35
1 36
1 37
1 38
1 39
1 40
1 41
1 42
1 43
1 44
1 45
1 46
1 47
1 48
1 49
1 50
1 51
1 52
1 53
1 54
1 55
1 56
1 57
1 58
1 59
1 60
1 61
1 62
1 63
CELL_TYPES 64
1
1
1
1
1
1
1
1
1
1
1
1
1
1
1
1
1
1
1
1
1
1
1
1
1
1
1
1
1
1
1
1
1
1
1
1
1
1
1
1
1
1
1
1
1
1
1
1
1
1
1
1
1
1
1
1
1
1
1
1
1
1
1
1
POINT_DATA 64
VECTORS displacement double
-0.0689472 -0.33668 0 
-0.047415 -0.37646 0 
-0.109206 -0.357912 0 
-0.087832 -0.398936 0 
-0.0276775 -0.418203 0 
-0.00678162 -0.458985 0 
-0.0684895 -0.439679 0 
-0.047204 -0.4797 0 
0.014492 -0.498512 0 
0.0336924 -0.540743 0 
-0.0262773 -0.519643 0 
-0.00725591 -0.560955 0 
0.0553697 -0.578394 0 
0.0772439 -0.615181 0 
0.0150653 -0.599318 0 
0.0363767 -0.637871 0 
-0.148934 -0.377261 0 
-0.129012 -0.419002 0 
-0.188655 -0.396918 0 
-0.167344 -0.439173 0 
-0.108354 -0.45954 0 
-0.0874378 -0.499186 0 
-0.1468 -0.480714 0 
-0.127163 -0.51993 0 
-0.0668665 -0.539734 0 
-0.0474833 -0.580794 0 
-0.106743 -0.560591 0 
-0.0865681 -0.601055 0 
-0.0258076 -0.62039 0 
-0.00262765 -0.658956 0 
-0.0657004 -0.640358 0 
-0.04344 -0.680131 0 
-0.227477 -0.417188 0 
-0.207457 -0.460183 0 
-0.264065 -0.437844 0 
-0.246671 -0.480908 0 
-0.186719 -0.500309 0 
-0.166878 -0.542048 0 
-0.226711 -0.521155 0 
-0.208284 -0.561935 0 
-0.146662 -0.582482 0 
-0.125942 -0.621818 0 
-0.188396 -0.602516 0 
-0.168438 -0.640935 0 
-0.105371 -0.661919 0 
-0.0829367 -0.701105 0 
-0.147724 -0.680885 0 
-0.123905 -0.719444 0 
-0.303168 -0.455319 0 
-0.287099 -0.500341 0 
-0.348306 -0.469044 0 
-0.333054 -0.519037 0 
-0.268288 -0.539844 0 
-0.248195 -0.582871 0 
-0.312148 -0.561126 0 
-0.290067 -0.60306 0 
-0.228577 -0.623465 0 
-0.208676 -0.662624 0 
-0.270936 -0.643238 0 
-0.249162 -0.683207 0 
-0.185923 -0.701579 0 
-0.162225 -0.738327 0 
-0.225049 -0.721085 0 
-0.199861 -0.75466 0 
VECTORS velocity double
-0.445193 -1.81459 0 
-0.609319 -1.93904 0 
-0.487681 -1.88346 0 
-0.360023 -1.84458 0 
-0.297325 -1.98165 0 
-0.481859 -2.18184 0 
-0.71997 -1.80308 0 
-0.605344 -1.8946 0 
-0.383141 -2.07468 0 
-0.384428 -2.24069 0 
-0.470307 -1.90094 0 
-0.764286 -2.15794 0 
-0.564297 -2.18918 0 
-0.448878 -2.42828 0 
-0.17585 -2.16331 0 
-0.696777 -2.17213 0 
-0.257316 -1.46538 0 
-0.548324 -1.97338 0 
-0.64301 -1.94336 0 
-0.752938 -1.39743 0 
-0.696047 -1.89368 0 
-0.473435 -2.00782 0 
-0.848611 -1.72651 0 
-1.01928 -1.68324 0 
-0.485225 -1.6745 0 
-0.668959 -1.74443 0 
-0.80801 -1.82238 0 
-0.705381 -1.65423 0 
-0.866472 -2.02128 0 
-0.59475 -2.15749 0 
-0.793198 -1.75887 0 
-0.809486 -1.8993 0 
-1.203 -1.59854 0 
-0.742559 -1.5224 0 
-1.08878 -1.53221 0 
-1.11215 -1.29812 0 
-0.609531 -1.81157 0 
-0.838886 -1.48064 0 
-1.28729 -1.6461 0 
-0.85904 -1.02607 0 
-0.537721 -1.38109 0 
-0.890402 -1.42457 0 
-0.662444 -1.49649 0 
-1.13465 -1.00962 0 
-0.685095 -1.82127 0 
-0.425885 -1.88628 0 
-0.634043 -1.10412 0 
-0.745504 -1.30101 0 
-0.453567 -2.28276 0 
-0.680929 -2.0388 0 
-0.854488 -1.52972 0 
-0.987288 -2.18395 0 
-0.934409 -1.63185 0 
-0.509631 -1.33515 0 
-0.613254 -1.83163 0 
-0.482817 -1.62768 0 
-0.520343 -1.58643 0 
-0.956567 -1.24008 0 
-0.717115 -1.63931 0 
-0.716035 -1.15379 0 
-0.554403 -0.967747 0 
-0.276876 -0.933347 0 
-1.126 -1.31757 0 
-0.786995 -0.690495 0 
SCALARS mass double 1
LOOKUP_TABLE default
0.625
0.625
0.625
0.625
0.625
0.625
0.625
0.625
0.625
0.625
0.625
0.625
0.625
0.625
0.625
0.625
0.625
0.625
0.625
0.625
0.625
0.625
0.625
0.625
0.625
0.625
0.625
0.625
0.625
0.625
0.625
0.625
0.625
0.625
0.625
0.625
0.625
0.625
0.625
0.625
0.625
0.625
0.625
0.625
0.625
0.625
0.625
0.625
0.625
0.625
0.625
0.625
0.625
0.625
0.625
0.625
0.625
0.625
0.625
0.625
0.625
0.625
0.625
0.625
SCALARS volume double 1
LOOKUP_TABLE default
0.000621386
0.000631957
0.000616647
0.000621766
0.000630352
0.000625357
0.00062649
0.000624793
0.000632646
0.000622852
0.000631896
0.00061133
0.000621773
0.00062614
0.000621888
0.00062634
0.000614431
0.000625346
0.000614621
0.000625554
0.000620879
0.000630684
0.000608127
0.000603532
0.000628439
0.000616203
0.000638272
0.000609799
0.000638848
0.00062609
0.000615847
0.000617238
0.000601043
0.000618159
0.000585557
0.000573712
0.0006308
0.000627914
0.000617052
0.000612835
0.000633345
0.000605959
0.000609429
0.000607115
0.00060358
0.000619234
0.000620236
0.000586627
0.000606045
0.000626578
0.00055021
0.000616708
0.000609815
0.000628358
0.000659328
0.000635308
0.000610621
0.000632814
0.000616018
0.000600658
0.000617676
0.000585365
0.000535367
0.000434454
VECTORS momentum double
-0.278246 -1.13412 0 
-0.380824 -1.2119 0 
-0.304801 -1.17716 0 
-0.225015 -1.15286 0 
-0.185828 -1.23853 0 
-0.301162 -1.36365 0 
-0.449981 -1.12692 0 
-0.37834 -1.18413 0 
-0.239463 -1.29667 0 
-0.240267 -1.40043 0 
-0.293942 -1.18809 0 
-0.477679 -1.34871 0 
-0.352685 -1.36824 0 
-0.280549 -1.51768 0 
-0.109906 -1.35207 0 
-0.435486 -1.35758 0 
-0.160823 -0.915865 0 
-0.342703 -1.23336 0 
-0.401881 -1.2146 0 
-0.470586 -0.873391 0 
-0.43503 -1.18355 0 
-0.295897 -1.25489 0 
-0.530382 -1.07907 0 
-0.63705 -1.05203 0 
-0.303265 -1.04656 0 
-0.418099 -1.09027 0 
-0.505007 -1.13899 0 
-0.440863 -1.03389 0 
-0.541545 -1.2633 0 
-0.371718 -1.34843 0 
-0.495749 -1.09929 0 
-0.505929 -1.18706 0 
-0.751878 -0.999086 0 
-0.4641 -0.951497 0 
-0.680487 -0.957634 0 
-0.695093 -0.811322 0 
-0.380957 -1.13223 0 
-0.524304 -0.925403 0 
-0.804556 -1.02881 0 
-0.5369 -0.641291 0 
-0.336076 -0.863182 0 
-0.556501 -0.890359 0 
-0.414028 -0.935304 0 
-0.709158 -0.631009 0 
-0.428184 -1.13829 0 
-0.266178 -1.17892 0 
-0.396277 -0.690074 0 
-0.46594 -0.813133 0 
-0.283479 -1.42673 0 
-0.425581 -1.27425 0 
-0.534055 -0.956078 0 
-0.617055 -1.36497 0 
-0.584006 -1.0199 0 
-0.318519 -0.834471 0 
-0.383284 -1.14477 0 
-0.301761 -1.0173 0 
-0.325214 -0.99152 0 
-0.597854 -0.775051 0 
-0.448197 -1.02457 0 
-0.447522 -0.721116 0 
-0.346502 -0.604842 0 
-0.173048 -0.583342 0 
-0.703748 -0.823481 0 
-0.491872 -0.43156 0 
VECTORS body_force double
0 -9.81 0 
0 -9.81 0 
0 -9.81 0 
0 -9.81 0 
0 -9.81 0 
0 -9.81 0 
0 -9.81 0 
0 -9.81 0 
0 -9.81 0 
0 -9.81 0 
0 -9.81 0 
0 -9.81 0 
0 -9.81 0 
0 -9.81 0 
0 -9.81 0 
0 -9.81 0 
0 -9.81 0 
0 -9.81 0 
0 -9.81 0 
0 -9.81 0 
0 -9.81 0 
0 -9.81 0 
0 -9.81 0 
0 -9.81 0 
0 -9.81 0 
0 -9.81 0 
0 -9.81 0 
0 -9.81 0 
0 -9.81 0 
0 -9.81 0 
0 -9.81 0 
0 -9.81 0 
0 -9.81 0 
0 -9.81 0 
0 -9.81 0 
0 -9.81 0 
0 -9.81 0 
0 -9.81 0 
0 -9.81 0 
0 -9.81 0 
0 -9.81 0 
0 -9.81 0 
0 -9.81 0 
0 -9.81 0 
0 -9.81 0 
0 -9.81 0 
0 -9.81 0 
0 -9.81 0 
0 -9.81 0 
0 -9.81 0 
0 -9.81 0 
0 -9.81 0 
0 -9.81 0 
0 -9.81 0 
0 -9.81 0 
0 -9.81 0 
0 -9.81 0 
0 -9.81 0 
0 -9.81 0 
0 -9.81 0 
0 -9.81 0 
0 -9.81 0 
0 -9.81 0 
0 -9.81 0 
TENSORS cauchy_stress double
-573.432 -465.517 0
-465.517 -541.682 0
0 0 -334.534

1349.02 -1014.04 0
-1014.04 779.848 0
0 0 638.659

-355.037 -1184.22 0
-1184.22 -2232.52 0
0 0 -776.267

-2458.23 -740.273 0
-740.273 1460.42 0
0 0 -299.342

263.963 -915.721 0
-915.721 1375.93 0
0 0 491.969

-244.605 -542.169 0
-542.169 354.352 0
0 0 32.9239

1.40935 -587.808 0
-587.808 456.646 0
0 0 137.417

-1709.44 -1607.89 0
-1607.89 1645.81 0
0 0 -19.0881

862.749 -476.844 0
-476.844 1475.57 0
0 0 701.495

-1833.04 -759.632 0
-759.632 1171.09 0
0 0 -198.587

-386.184 629.113 0
629.113 2496.55 0
0 0 633.109

-3685.02 -987.405 0
-987.405 -567.89 0
0 0 -1275.87

-738.166 81.1762 0
81.1762 -257.449 0
0 0 -298.684

74.4855 -803.815 0
-803.815 276.002 0
0 0 105.146

-1132.63 1854.13 0
1854.13 172.763 0
0 0 -287.961

1103.48 510.31 0
510.31 -691.63 0
0 0 123.554

-573.391 -273.039 0
-273.039 -2706.42 0
0 0 -983.944

1093.94 332.616 0
332.616 -987.519 0
0 0 31.9251

-730.108 -1692.18 0
-1692.18 -2490.25 0
0 0 -966.108

-440.867 -1672.5 0
-1672.5 611.133 0
0 0 51.0798

-2842.86 -1142.64 0
-1142.64 1570.66 0
0 0 -381.659

687.29 397.896 0
397.896 1053.87 0
0 0 522.348

-4496.57 -3003.41 0
-3003.41 -766.429 0
0 0 -1578.9

-2394.93 1212.74 0
1212.74 -4326.87 0
0 0 -2016.54

-1349.67 -543.134 0
-543.134 2405.04 0
0 0 316.612

-317.048 -1175.32 0
-1175.32 -2409.09 0
0 0 -817.842

3221.19 862.767 0
862.767 819.625 0
0 0 1212.24

-2150.47 -218.88 0
-218.88 -2584.63 0
0 0 -1420.53

4802.64 -1561.8 0
-1561.8 -588.301 0
0 0 1264.3

817.541 -627.833 0
-627.833 -482.565 0
0 0 100.493

355.056 139.128 0
139.128 -3192.27 0
0 0 -851.165

-9.26601 -744.63 0
-744.63 -2393.86 0
0 0 -720.938

-2489.15 -2621.46 0
-2621.46 -5027.22 0
0 0 -2254.91

-4358.79 -2230.2 0
-2230.2 2242.25 0
0 0 -634.961

-5320.05 -3980.58 0
-3980.58 -7216.03 0
0 0 -3760.82

-12536.7 628.359 0
628.359 -3929.34 0
0 0 -4939.82

-422.518 -2028.7 0
-2028.7 2198.95 0
0 0 532.929

-2026.4 -666.918 0
-666.918 2920.81 0
0 0 268.322

-1625.09 724.96 0
724.96 -835.999 0
0 0 -738.328

-594.153 6630.95 0
6630.95 -3185.78 0
0 0 -1133.98

3142.98 118.922 0
118.922 -592.39 0
0 0 765.178

-5213.48 1369.84 0
1369.84 -736.326 0
0 0 -1784.94

-1704.52 751.254 0
751.254 -3147.32 0
0 0 -1455.55

-3121.11 2247.79 0
2247.79 -2462.29 0
0 0 -1675.02

-3368.02 -1305.93 0
-1305.93 -3338.46 0
0 0 -2011.94

2105.62 -1709.78 0
-1709.78 -3887.88 0
0 0 -534.679

10417.3 1811.42 0
1811.42 -11888.6 0
0 0 -441.402

-2052.12 -2308.22 0
-2308.22 -10133.1 0
0 0 -3655.55

-4476.47 -3112.24 0
-3112.24 -1446.17 0
0 0 -1776.79

-47.3313 5953.36 0
5953.36 532.395 0
0 0 145.519

-20419.7 -12121.8 0
-12121.8 -4090.08 0
0 0 -7352.95

-1974.58 -5857.85 0
-5857.85 -593.821 0
0 0 -770.521

-3119.77 1515.47 0
1515.47 -1610.3 0
0 0 -1419.02

2636 -2454.8 0
-2454.8 -1605.66 0
0 0 309.104

10374.7 2539.19 0
2539.19 -92.1528 0
0 0 3084.77

3456.82 -242.483 0
-242.483 -310.897 0
0 0 943.777

46.141 2531.59 0
2531.59 -4522.02 0
0 0 -1342.76

1774.01 777.797 0
777.797 615.476 0
0 0 716.846

-399.625 -213.177 0
-213.177 -2384.18 0
0 0 -835.14

-2644.78 1083.45 0
1083.45 -4994.76 0
0 0 -2291.86

3670.58 1025.53 0
1025.53 -5937.58 0
0 0 -680.1

-3898.13 -3974.12 0
-3974.12 -8701.15 0
0 0 -3779.78

-5547.08 -2523.73 0
-2523.73 -24221.9 0
0 0 -8930.69

-15660 -5373.19 0
-5373.19 -54274.9 0
0 0 -20980.5

TENSORS velocity_gradient double
-0.0912091 0.493399 0
-2.33334 0.938713 0
0 0 0

0.0092982 -0.279467 0
-2.7287 1.14243 0
0 0 0

-0.425043 0.252085 0
-3.06222 0.414022 0
0 0 0

0.54042 3.85606 0
-2.98193 -1.97693 0
0 0 0

0.839429 1.80711 0
-2.76114 -1.17903 0
0 0 0

1.52001 2.05391 0
-3.77997 -1.52194 0
0 0 0

1.59403 3.14316 0
-2.91845 -1.88294 0
0 0 0

2.09857 2.42641 0
-3.03508 -1.71724 0
0 0 0

1.67216 1.8303 0
-4.0723 -1.09763 0
0 0 0

1.49254 2.4813 0
-4.25521 -1.59461 0
0 0 0

1.85345 2.93854 0
-4.59239 -3.28403 0
0 0 0

1.91001 2.96564 0
-5.18184 -2.75991 0
0 0 0

0.125535 2.62997 0
-3.78482 -1.60973 0
0 0 0

0.299984 2.30392 0
-4.06805 -1.08036 0
0 0 0

0.816405 2.83871 0
-4.63671 -1.99781 0
0 0 0

0.543515 2.33669 0
-4.59639 -1.98956 0
0 0 0

0.168149 5.72758 0
-3.14157 -1.64188 0
0 0 0

1.06471 4.65465 0
-2.95845 -1.86102 0
0 0 0

3.69138 6.21086 0
-0.629492 -1.54359 0
0 0 0

2.01923 4.1156 0
-2.51506 -1.87772 0
0 0 0

2.18976 3.52883 0
-3.03626 -2.26143 0
0 0 0

2.31982 2.80416 0
-3.21701 -4.15484 0
0 0 0

2.33931 2.62466 0
-1.37945 -3.72846 0
0 0 0

2.09531 2.6468 0
-3.44182 -4.31241 0
0 0 0

2.10627 3.00766 0
-3.77707 -3.90049 0
0 0 0

1.97471 3.01464 0
-5.91704 -3.31682 0
0 0 0

1.88893 2.28727 0
-3.58363 -4.32749 0
0 0 0

1.7264 0.811968 0
-5.5532 -5.18565 0
0 0 0

1.95157 1.22235 0
-6.48122 -3.781 0
0 0 0

0.12023 1.57866 0
-4.93464 -3.13675 0
0 0 0

1.78675 1.05594 0
-7.3221 -4.43286 0
0 0 0

1.49705 1.24953 0
-7.72235 -3.5177 0
0 0 0

4.47045 2.05172 0
1.54566 0.0548253 0
0 0 0

2.36741 2.99332 0
-0.899825 -0.810543 0
0 0 0

1.17002 -1.2893 0
2.81521 1.4066 0
0 0 0

-1.92109 1.68147 0
4.03641 0.232938 0
0 0 0

2.56184 2.79248 0
0.235659 -2.51049 0
0 0 0

2.17876 -0.410028 0
0.494791 -4.38931 0
0 0 0

2.11188 -4.39327 0
1.93626 -1.82934 0
0 0 0

0.74882 -2.81755 0
3.20852 -3.3001 0
0 0 0

1.16096 -0.446133 0
-3.47585 -5.05869 0
0 0 0

0.595873 0.369677 0
-3.34126 -5.25299 0
0 0 0

-0.127326 -1.25432 0
0.675763 -4.67546 0
0 0 0

0.370496 -0.451704 0
-2.63259 -5.00536 0
0 0 0

1.61367 -0.41981 0
-8.2716 -6.21766 0
0 0 0

1.53085 -3.0573 0
-9.05057 -7.23235 0
0 0 0

1.43764 -2.35805 0
-0.853072 -7.78055 0
0 0 0

1.44013 -3.1352 0
-10.1873 -8.20845 0
0 0 0

-1.79897 -3.70485 0
3.98817 2.36091 0
0 0 0

-2.07248 -2.70246 0
5.35752 0.743352 0
0 0 0

1.08566 0.713654 0
-5.86688 4.94833 0
0 0 0

0.355887 -0.319341 0
6.18321 2.30577 0
0 0 0

-0.323713 -4.70456 0
6.06805 -0.55739 0
0 0 0

-1.04569 -4.06487 0
4.88532 -2.08404 0
0 0 0

1.2163 -4.20775 0
7.54163 0.0019683 0
0 0 0

-2.5615 -1.27022 0
6.36095 -0.185141 0
0 0 0

-1.77258 0.931655 0
5.88638 -1.45234 0
0 0 0

1.4962 0.745716 0
0.943533 -2.95875 0
0 0 0

-2.17453 0.576732 0
6.92778 -0.532779 0
0 0 0

-2.45979 0.129501 0
7.65822 -2.97464 0
0 0 0

3.29125 -1.18297 0
1.98485 -5.98148 0
0 0 0

2.37611 -7.32633 0
-4.66924 -14.7106 0
0 0 0

3.70282 -15.084 0
3.07972 -23.0257 0
0 0 0

2.93066 -12.9019 0
2.4375 -21.2109 0
0 0 0

SCALARS active double 1
LOOKUP_TABLE default
1
1
1
1
1
1
1
1
1
1
1
1
1
1
1
1
1
1
1
1
1
1
1
1
1
1
1
1
1
1
1
1
1
1
1
1
1
1
1
1
1
1
1
1
1
1
1
1
1
1
1
1
1
1
1
1
1
1
1
1
1
1
1
1
SCALARS extent double 1
LOOKUP_TABLE default
0.0125
0.0125
0.0125
0.0125
0.0125
0.0125
0.0125
0.0125
0.0125
0.0125
0.0125
0.0125
0.0125
0.0125
0.0125
0.0125
0.0125
0.0125
0.0125
0.0125
0.0125
0.0125
0.0125
0.0125
0.0125
0.0125
0.0125
0.0125
0.0125
0.0125
0.0125
0.0125
0.0125
0.0125
0.0125
0.0125
0.0125
0.0125
0.0125
0.0125
0.0125
0.0125
0.0125
0.0125
0.0125
0.0125
0.0125
0.0125
0.0125
0.0125
0.0125
0.0125
0.0125
0.0125
0.0125
0.0125
0.0125
0.0125
0.0125
0.0125
0.0125
0.0125
0.0125
0.0125
SCALARS pressure double 1
LOOKUP_TABLE default
483.216
-922.508
1121.27
432.383
-710.622
-47.5567
-198.491
27.5717
-1013.27
286.848
-914.49
1842.93
431.433
-151.878
415.944
-178.466
1421.25
-46.1141
1395.49
-73.782
551.286
-754.503
2280.63
2912.78
-457.328
1181.33
-1751.02
2051.88
-1826.22
-145.156
1229.46
1041.36
3257.09
917.166
5432.3
7135.29
-769.786
-387.576
1066.47
1637.97
-1105.26
2578.25
2102.46
2419.48
2906.14
772.313
637.581
5280.24
2566.48
-210.194
10620.9
1112.98
2049.69
-446.483
-4455.78
-1363.23
1939.55
-1035.44
1206.31
3310.47
982.366
5459.69
12899.9
30305.1
SCALARS density double 1
LOOKUP_TABLE default
1005.82
988.991
1013.55
1005.2
991.509
999.429
997.621
1000.33
987.914
1003.45
989.086
1022.36
1005.19
998.179
1005
997.861
1017.2
999.447
1016.89
999.115
1006.64
990.987
1027.75
1035.57
994.527
1014.28
979.207
1024.93
978.324
998.26
1014.86
1012.57
1039.86
1011.07
1067.36
1089.4
990.805
995.36
1012.88
1019.85
986.824
1031.42
1025.55
1029.46
1035.49
1009.31
1007.68
1065.41
1031.28
997.481
1135.93
1013.45
1024.9
994.657
947.935
983.774
1023.55
987.652
1014.58
1040.53
1011.86
1067.71
1167.42
1438.59
