# vtk DataFile Version 3.0
Frame: 33, Time: 0.55
ASCII
DATASET UNSTRUCTURED_GRID
POINTS 64 double
0.950079 0.42958 0 
0.946699 0.405081 0 
0.921995 0.437323 0 
0.917907 0.411887 0 
0.942417 0.381432 0 
0.939856 0.356712 0 
0.915143 0.387242 0 
0.912908 0.362324 0 
0.936227 0.333155 0 
0.932768 0.30994 0 
0.909559 0.338335 0 
0.90741 0.314747 0 
0.935782 0.287117 0 
0.942182 0.266858 0 
0.908889 0.289523 0 
0.913262 0.264774 0 
0.895875 0.440804 0 
0.892567 0.416618 0 
0.870466 0.441692 0 
0.866701 0.41653 0 
0.889903 0.392387 0 
0.887678 0.368464 0 
0.8628 0.392913 0 
0.860641 0.368787 0 
0.884305 0.343813 0 
0.882865 0.319465 0 
0.858492 0.34454 0 
0.85739 0.320149 0 
0.881972 0.293214 0 
0.881537 0.267983 0 
0.856991 0.294882 0 
0.855537 0.269511 0 
0.84434 0.444331 0 
0.838708 0.420099 0 
0.81798 0.446512 0 
0.811368 0.421657 0 
0.83795 0.395905 0 
0.833468 0.371269 0 
0.811537 0.396848 0 
0.806723 0.373922 0 
0.831068 0.34611 0 
0.831252 0.321189 0 
0.804848 0.348213 0 
0.805407 0.322743 0 
0.830486 0.296272 0 
0.828549 0.271254 0 
0.802733 0.297531 0 
0.801132 0.27193 0 
0.79201 0.446849 0 
0.785958 0.4225 0 
0.765177 0.451043 0 
0.759588 0.425992 0 
0.784559 0.397986 0 
0.780151 0.372447 0 
0.757854 0.399433 0 
0.754023 0.373028 0 
0.77885 0.34735 0 
0.779014 0.322174 0 
0.752414 0.349314 0 
0.752285 0.324326 0 
0.775444 0.297026 0 
0.77481 0.271683 0 
0.749823 0.299282 0 
0.749001 0.272815 0 
CELLS 64 128
1 0
1 1
1 2
1 3
1 4
1 5
1 6
1 7
1 8
1 9
1 10
1 11
1 12
1 13
1 14
1 15
1 16
1 17
1 18
1 19
1 20
1 21
1 22
1 23
1 24
1 25
1 26
1 27
1 28
1 29
1 30
1 31
1 32
1 33
1 34
1 35
1 36
1 37
1 38
1 39
1 40
1 41
1 42
1 43
1 44
1 45
1 46
1 47
1 48
1 49
1 50
1 51
1 52
1 53
1 54
1 55
1 56
1 57
1 58
1 59
1 60
1 61
1 62
1 63
CELL_TYPES 64
1
1
1
1
1
1
1
1
1
1
1
1
1
1
1
1
1
1
1
1
1
1
1
1
1
1
1
1
1
1
1
1
1
1
1
1
1
1
1
1
1
1
1
1
1
1
1
1
1
1
1
1
1
1
1
1
1
1
1
1
1
1
1
1
POINT_DATA 64
VECTORS displacement double
0.437579 -0.18292 0 
0.434199 -0.232419 0 
0.384495 -0.175177 0 
0.380407 -0.225613 0 
0.429917 -0.281068 0 
0.427356 -0.330788 0 
0.377643 -0.275258 0 
0.375408 -0.325176 0 
0.423727 -0.379345 0 
0.420268 -0.42756 0 
0.372059 -0.374165 0 
0.36991 -0.422753 0 
0.423282 -0.475383 0 
0.429682 -0.520642 0 
0.371389 -0.472977 0 
0.375762 -0.522726 0 
0.333375 -0.171696 0 
0.330067 -0.220882 0 
0.282966 -0.170808 0 
0.279201 -0.22097 0 
0.327403 -0.270113 0 
0.325178 -0.319036 0 
0.2753 -0.269587 0 
0.273141 -0.318713 0 
0.321805 -0.368687 0 
0.320365 -0.418035 0 
0.270992 -0.36796 0 
0.26989 -0.417351 0 
0.319472 -0.469286 0 
0.319037 -0.519517 0 
0.269491 -0.467618 0 
0.268037 -0.517989 0 
0.23184 -0.168169 0 
0.226208 -0.217401 0 
0.18048 -0.165988 0 
0.173868 -0.215843 0 
0.22545 -0.266595 0 
0.220968 -0.316231 0 
0.174037 -0.265652 0 
0.169223 -0.313578 0 
0.218568 -0.36639 0 
0.218752 -0.416311 0 
0.167348 -0.364287 0 
0.167907 -0.414757 0 
0.217986 -0.466228 0 
0.216049 -0.516246 0 
0.165233 -0.464969 0 
0.163632 -0.51557 0 
0.12951 -0.165651 0 
0.123458 -0.215 0 
0.0776768 -0.161457 0 
0.0720877 -0.211508 0 
0.122059 -0.264514 0 
0.117651 -0.315053 0 
0.070354 -0.263067 0 
0.0665231 -0.314472 0 
0.11635 -0.36515 0 
0.116514 -0.415326 0 
0.0649136 -0.363186 0 
0.0647847 -0.413174 0 
0.112944 -0.465474 0 
0.11231 -0.515817 0 
0.0623232 -0.463218 0 
0.0615008 -0.514685 0 
VECTORS velocity double
-0.70751 0.350307 0 
-0.788323 0.607217 0 
-1.70114 1.79156 0 
-1.34029 2.47108 0 
-0.921223 1.1569 0 
-1.1694 0.934695 0 
-1.33582 2.57084 0 
-1.27884 1.82742 0 
-1.72255 0.881563 0 
-1.87111 0.518194 0 
-1.52255 1.97351 0 
-1.78101 1.36205 0 
-0.950948 0.790637 0 
-1.22274 0.373526 0 
-1.13381 1.24969 0 
-1.78438 1.29398 0 
-1.32862 1.1974 0 
-0.767115 1.13536 0 
-1.72661 1.2043 0 
-0.924442 0.63473 0 
-0.32161 1.55195 0 
-0.124537 0.941214 0 
-1.00408 0.527487 0 
-1.07164 0.533667 0 
-0.58494 1.57739 0 
-0.945978 1.6298 0 
-1.33632 0.990268 0 
-1.69736 1.28798 0 
-0.521035 1.39309 0 
-1.46085 1.10137 0 
-0.495171 1.19611 0 
-1.02036 1.09023 0 
-2.06578 1.37328 0 
-1.25809 1.0408 0 
-2.45725 1.27089 0 
-2.029 1.51164 0 
-0.861008 0.780236 0 
-1.28958 1.21517 0 
-1.09282 1.167 0 
-1.30032 1.27083 0 
-1.41753 1.22508 0 
-2.15785 1.0616 0 
-1.63933 0.628627 0 
-2.22809 0.788918 0 
-0.838086 0.936325 0 
-0.250277 0.985002 0 
-1.28005 0.847875 0 
-0.131994 0.840142 0 
-2.00903 0.347427 0 
-2.05808 0.419459 0 
-1.78816 -0.0610481 0 
-2.09755 0.150742 0 
-0.946666 0.461978 0 
-1.0757 0.442694 0 
-1.43845 -0.286696 0 
-1.72982 -0.502961 0 
-1.59859 0.51446 0 
-2.04898 0.488598 0 
-1.70352 -0.0552465 0 
-1.67292 -0.299939 0 
-0.961544 0.170607 0 
0.240684 -0.169107 0 
-1.66678 -0.460831 0 
-0.227856 -0.74411 0 
SCALARS mass double 1
LOOKUP_TABLE default
0.625
0.625
0.625
0.625
0.625
0.625
0.625
0.625
0.625
0.625
0.625
0.625
0.625
0.625
0.625
0.625
0.625
0.625
0.625
0.625
0.625
0.625
0.625
0.625
0.625
0.625
0.625
0.625
0.625
0.625
0.625
0.625
0.625
0.625
0.625
0.625
0.625
0.625
0.625
0.625
0.625
0.625
0.625
0.625
0.625
0.625
0.625
0.625
0.625
0.625
0.625
0.625
0.625
0.625
0.625
0.625
0.625
0.625
0.625
0.625
0.625
0.625
0.625
0.625
SCALARS volume double 1
LOOKUP_TABLE default
0.000638626
0.000648072
0.00068063
0.000645746
0.000649615
0.00061661
0.000611225
0.000620152
0.000614804
0.000596897
0.000597011
0.000566841
0.000631296
0.000555821
0.000623713
0.000725209
0.000599783
0.000598044
0.000654833
0.000636521
0.000605699
0.000644487
0.00061239
0.000638906
0.000602381
0.000612072
0.000634342
0.000644333
0.000632881
0.000639101
0.000633348
0.000599706
0.000645342
0.000649295
0.000641192
0.000636089
0.000591059
0.000640361
0.000622161
0.00062382
0.000637685
0.000595523
0.000641885
0.000608861
0.00065558
0.000623501
0.000684587
0.000611224
0.000638376
0.000605811
0.000614421
0.000634044
0.000634822
0.000604618
0.000634751
0.000618402
0.000646712
0.000630797
0.000607491
0.00058715
0.000618013
0.0006503
0.000614213
0.000647241
VECTORS momentum double
-0.442194 0.218942 0 
-0.492702 0.379511 0 
-1.06321 1.11972 0 
-0.83768 1.54442 0 
-0.575764 0.723061 0 
-0.730873 0.584184 0 
-0.834888 1.60678 0 
-0.799273 1.14213 0 
-1.0766 0.550977 0 
-1.16944 0.323871 0 
-0.951591 1.23344 0 
-1.11313 0.851283 0 
-0.594342 0.494148 0 
-0.764212 0.233454 0 
-0.708631 0.781059 0 
-1.11524 0.808737 0 
-0.830387 0.748375 0 
-0.479447 0.709601 0 
-1.07913 0.752686 0 
-0.577776 0.396706 0 
-0.201006 0.969967 0 
-0.0778355 0.588259 0 
-0.62755 0.32968 0 
-0.669773 0.333542 0 
-0.365587 0.985869 0 
-0.591236 1.01863 0 
-0.835199 0.618918 0 
-1.06085 0.804985 0 
-0.325647 0.870681 0 
-0.913031 0.688359 0 
-0.309482 0.747568 0 
-0.637725 0.681393 0 
-1.29111 0.8583 0 
-0.786305 0.650499 0 
-1.53578 0.794309 0 
-1.26812 0.944775 0 
-0.53813 0.487648 0 
-0.805984 0.759479 0 
-0.68301 0.729375 0 
-0.812698 0.794268 0 
-0.885956 0.765678 0 
-1.34866 0.663497 0 
-1.02458 0.392892 0 
-1.39255 0.493074 0 
-0.523804 0.585203 0 
-0.156423 0.615626 0 
-0.800031 0.529922 0 
-0.082496 0.525089 0 
-1.25565 0.217142 0 
-1.2863 0.262162 0 
-1.1176 -0.0381551 0 
-1.31097 0.0942137 0 
-0.591667 0.288736 0 
-0.672315 0.276684 0 
-0.899029 -0.179185 0 
-1.08114 -0.314351 0 
-0.999118 0.321538 0 
-1.28061 0.305374 0 
-1.0647 -0.034529 0 
-1.04558 -0.187462 0 
-0.600965 0.10663 0 
0.150427 -0.105692 0 
-1.04174 -0.288019 0 
-0.14241 -0.465069 0 
VECTORS body_force double
0 -9.81 0 
0 -9.81 0 
0 -9.81 0 
0 -9.81 0 
0 -9.81 0 
0 -9.81 0 
0 -9.81 0 
0 -9.81 0 
0 -9.81 0 
0 -9.81 0 
0 -9.81 0 
0 -9.81 0 
0 -9.81 0 
0 -9.81 0 
0 -9.81 0 
0 -9.81 0 
0 -9.81 0 
0 -9.81 0 
0 -9.81 0 
0 -9.81 0 
0 -9.81 0 
0 -9.81 0 
0 -9.81 0 
0 -9.81 0 
0 -9.81 0 
0 -9.81 0 
0 -9.81 0 
0 -9.81 0 
0 -9.81 0 
0 -9.81 0 
0 -9.81 0 
0 -9.81 0 
0 -9.81 0 
0 -9.81 0 
0 -9.81 0 
0 -9.81 0 
0 -9.81 0 
0 -9.81 0 
0 -9.81 0 
0 -9.81 0 
0 -9.81 0 
0 -9.81 0 
0 -9.81 0 
0 -9.81 0 
0 -9.81 0 
0 -9.81 0 
0 -9.81 0 
0 -9.81 0 
0 -9.81 0 
0 -9.81 0 
0 -9.81 0 
0 -9.81 0 
0 -9.81 0 
0 -9.81 0 
0 -9.81 0 
0 -9.81 0 
0 -9.81 0 
0 -9.81 0 
0 -9.81 0 
0 -9.81 0 
0 -9.81 0 
0 -9.81 0 
0 -9.81 0 
0 -9.81 0 
TENSORS cauchy_stress double
3720.18 -5774.25 0
-5774.25 427.476 0
0 0 1244.3

7861.42 -3166.98 0
-3166.98 -890.144 0
0 0 2091.38

9544.79 -6766.5 0
-6766.5 6852.71 0
0 0 4919.25

4077.87 -1305.62 0
-1305.62 2201.77 0
0 0 1883.89

8786.39 793.409 0
793.409 -1357.79 0
0 0 2228.58

4573.46 561.561 0
561.561 -7172.35 0
0 0 -779.665

-3555.16 -8596.96 0
-8596.96 -730.77 0
0 0 -1285.78

142.522 -5979.65 0
-5979.65 -1639.95 0
0 0 -449.227

1253.99 2237.9 0
2237.9 -4417.21 0
0 0 -948.966

-591.959 545.253 0
545.253 -8255.65 0
0 0 -2654.28

-1955.45 -6021.7 0
-6021.7 -6855.47 0
0 0 -2643.28

-11853.2 -8695.45 0
-8695.45 -6930.21 0
0 0 -5635.01

5983.99 8970.87 0
8970.87 -4056.59 0
0 0 578.222

-15342.8 11116.2 0
11116.2 -7215.9 0
0 0 -6767.62

2349.16 -8182.3 0
-8182.3 -2745.67 0
0 0 -118.953

26308.3 -18971.4 0
-18971.4 2289.36 0
0 0 8579.31

-1606.61 -722.65 0
-722.65 -6313.45 0
0 0 -2376.02

-2651.63 666.2 0
666.2 -5826.66 0
0 0 -2543.49

5890.66 3481.72 0
3481.72 3076.37 0
0 0 2690.11

8141.63 793.664 0
793.664 -4628.97 0
0 0 1053.8

2400.06 1813.95 0
1813.95 -8432.38 0
0 0 -1809.69

5969.22 4884.24 0
4884.24 -64.8733 0
0 0 1771.3

2136.12 3217.65 0
3217.65 -6055.76 0
0 0 -1175.89

6784.95 -2096.94 0
-2096.94 -2553 0
0 0 1269.59

-862.638 4723.83 0
4723.83 -6226.12 0
0 0 -2126.63

-2428.95 -4245.18 0
-4245.18 -1590.47 0
0 0 -1205.83

4569.61 -2251.81 0
-2251.81 -1716.52 0
0 0 855.927

5612.48 -3011.47 0
-3011.47 246.122 0
0 0 1757.58

154.488 4816.61 0
4816.61 2255.27 0
0 0 722.929

7126.08 2764.87 0
2764.87 -2835.67 0
0 0 1287.12

725.535 -3148.46 0
-3148.46 1826.03 0
0 0 765.47

-3691.44 -4340.38 0
-4340.38 -4253.05 0
0 0 -2383.34

3941.91 -1409.25 0
-1409.25 2217.57 0
0 0 1847.84

9136.99 -2672.95 0
-2672.95 -1803.28 0
0 0 2200.11

3315.33 5116.36 0
5116.36 1603.3 0
0 0 1475.59

3058.62 896.973 0
896.973 323.499 0
0 0 1014.63

-6868.91 -1778.74 0
-1778.74 -3868.8 0
0 0 -3221.31

4990.72 1740.15 0
1740.15 -321.447 0
0 0 1400.78

6855.57 4145.22 0
4145.22 -7731.22 0
0 0 -262.698

8617.37 4303.26 0
4303.26 -8980.86 0
0 0 -109.048

3260.4 -4905.25 0
-4905.25 603.69 0
0 0 1159.23

-2853.26 3335.32 0
3335.32 -6437.52 0
0 0 -2787.23

-50.5651 1527.67 0
1527.67 5177.06 0
0 0 1537.95

415.543 1445.32 0
1445.32 -5446.63 0
0 0 -1509.33

7184.47 1570.4 0
1570.4 2001.85 0
0 0 2755.9

5788.53 6423.89 0
6423.89 -6250.42 0
0 0 -138.568

11396.6 -3547.06 0
-3547.06 6115.55 0
0 0 5253.66

-1376.17 1632.19 0
1632.19 -2909.9 0
0 0 -1285.82

5890.12 2759.5 0
2759.5 -1817.9 0
0 0 1221.66

-104.767 -92.349 0
-92.349 -5892.22 0
0 0 -1799.09

95.3053 2991.32 0
2991.32 -3378.17 0
0 0 -984.859

1106.01 2658.93 0
2658.93 1656.87 0
0 0 828.863

4392.27 3922.28 0
3922.28 -1393.62 0
0 0 899.594

-3847.38 2273.15 0
2273.15 -2528.45 0
0 0 -1912.75

2607.29 2191.07 0
2191.07 369.745 0
0 0 893.11

352.049 6326.99 0
6326.99 -2392.91 0
0 0 -612.258

4344.49 -3509.07 0
-3509.07 2222.79 0
0 0 1970.19

3186.5 4022.51 0
4022.51 -1411.16 0
0 0 532.603

-1229.99 1930.48 0
1930.48 -4234.21 0
0 0 -1639.26

-2792.8 -1559.54 0
-1559.54 -9220.79 0
0 0 -3604.08

1423.68 2422.07 0
2422.07 -3585.77 0
0 0 -648.627

7065.45 6593.77 0
6593.77 565.723 0
0 0 2289.35

-2219.72 3661.24 0
3661.24 -1128.38 0
0 0 -1004.43

3639.86 -1658.86 0
-1658.86 3084.53 0
0 0 2017.32

TENSORS velocity_gradient double
13.0944 0.372209 0
-15.1802 -5.12272 0
0 0 0

4.96754 1.02169 0
-10.5078 -4.09514 0
0 0 0

3.08434 -4.1855 0
-5.52727 -4.12027 0
0 0 0

-1.78581 -4.98632 0
-4.03362 -3.87467 0
0 0 0

-4.80141 5.09807 0
-3.84272 0.639505 0
0 0 0

-6.03016 4.82436 0
-4.38993 1.03374 0
0 0 0

-4.51218 3.70756 0
-3.72056 0.0521834 0
0 0 0

-5.7759 3.5983 0
-4.25433 0.0060348 0
0 0 0

-6.18169 2.71898 0
-5.66806 7.17947 0
0 0 0

-5.99213 2.74704 0
-7.17952 6.95567 0
0 0 0

-6.22277 2.93954 0
-5.34048 5.42079 0
0 0 0

-6.02992 2.95673 0
-6.87824 5.28368 0
0 0 0

-3.97954 -1.53469 0
-7.84088 2.79927 0
0 0 0

-1.14444 -2.43178 0
-7.95404 2.83507 0
0 0 0

-4.28745 2.26467 0
-7.82858 2.64761 0
0 0 0

-0.819814 1.64106 0
-7.967 2.6725 0
0 0 0

7.51053 -8.78751 0
0.958605 -2.12713 0
0 0 0

6.16371 -9.31745 0
7.39432 -1.73281 0
0 0 0

9.02969 -11.7831 0
3.29622 1.79285 0
0 0 0

6.17521 -12.2423 0
7.37788 2.44946 0
0 0 0

4.33015 2.78933 0
9.60848 -0.566626 0
0 0 0

4.07029 2.76599 0
8.89395 -0.630821 0
0 0 0

4.33869 2.49612 0
9.63197 -1.37289 0
0 0 0

4.07642 2.47342 0
8.91078 -1.43532 0
0 0 0

3.1011 1.506 0
7.3266 2.6677 0
0 0 0

0.568584 1.35966 0
3.91153 2.47037 0
0 0 0

3.19676 -1.1782 0
7.4556 -0.951901 0
0 0 0

0.650427 -1.29614 0
4.02189 -1.11094 0
0 0 0

-2.9877 0.192652 0
1.36296 2.6189 0
0 0 0

-8.21687 0.102412 0
1.40536 2.61963 0
0 0 0

-2.6349 -5.01239 0
1.3601 2.6611 0
0 0 0

-7.89272 -5.34348 0
1.40273 2.66379 0
0 0 0

5.56218 -14.0171 0
8.7418 4.3959 0
0 0 0

5.31785 -14.0264 0
6.39935 3.85414 0
0 0 0

4.24556 -14.2796 0
10.2075 -0.179627 0
0 0 0

5.27284 -13.3206 0
6.66542 -0.318177 0
0 0 0

5.86667 0.857701 0
3.98144 -0.517434 0
0 0 0

6.17496 2.53097 0
5.68129 -0.648248 0
0 0 0

5.84669 -0.137692 0
4.02274 0.744618 0
0 0 0

6.14088 2.85459 0
5.47214 1.33797 0
0 0 0

5.91639 -3.0444 0
7.53047 -1.02406 0
0 0 0

3.74622 -3.76296 0
9.26092 -1.10217 0
0 0 0

6.00568 -3.43014 0
7.3652 0.936894 0
0 0 0

3.9073 -6.07743 0
9.13696 0.678993 0
0 0 0

0.393541 -11.0614 0
10.4389 1.7127 0
0 0 0

-6.76631 -12.7576 0
9.74968 2.03887 0
0 0 0

0.561534 -16.4935 0
11.8322 1.20209 0
0 0 0

-4.32975 -20.2305 0
12.8063 1.28049 0
0 0 0

-3.28891 -11.5523 0
11.6031 -1.71251 0
0 0 0

0.270597 -11.0494 0
13.8674 -1.26356 0
0 0 0

-3.95841 -7.68634 0
10.9357 2.75576 0
0 0 0

-0.333179 -6.92284 0
13.5404 0.97148 0
0 0 0

3.21998 -1.54156 0
15.3868 0.626365 0
0 0 0

2.43941 2.12467 0
14.5458 1.1741 0
0 0 0

3.11666 -2.31311 0
15.3472 0.63147 0
0 0 0

2.82358 0.952212 0
13.5596 0.150423 0
0 0 0

1.38677 -4.85453 0
14.0879 2.40459 0
0 0 0

0.660902 -7.22942 0
16.0588 2.84571 0
0 0 0

2.70874 -4.13131 0
11.2625 2.99958 0
0 0 0

1.63718 -8.11665 0
12.8484 5.1661 0
0 0 0

0.00932832 -18.2464 0
17.863 1.80323 0
0 0 0

-0.472841 -21.8203 0
18.2191 1.36696 0
0 0 0

0.803389 -15.9858 0
11.757 3.49649 0
0 0 0

-0.60929 -22.5408 0
11.9922 1.96094 0
0 0 0

SCALARS active double 1
LOOKUP_TABLE default
1
1
1
1
1
1
1
1
1
1
1
1
1
1
1
1
1
1
1
1
1
1
1
1
1
1
1
1
1
1
1
1
1
1
1
1
1
1
1
1
1
1
1
1
1
1
1
1
1
1
1
1
1
1
1
1
1
1
1
1
1
1
1
1
SCALARS extent double 1
LOOKUP_TABLE default
0.0125
0.0125
0.0125
0.0125
0.0125
0.0125
0.0125
0.0125
0.0125
0.0125
0.0125
0.0125
0.0125
0.0125
0.0125
0.0125
0.0125
0.0125
0.0125
0.0125
0.0125
0.0125
0.0125
0.0125
0.0125
0.0125
0.0125
0.0125
0.0125
0.0125
0.0125
0.0125
0.0125
0.0125
0.0125
0.0125
0.0125
0.0125
0.0125
0.0125
0.0125
0.0125
0.0125
0.0125
0.0125
0.0125
0.0125
0.0125
0.0125
0.0125
0.0125
0.0125
0.0125
0.0125
0.0125
0.0125
0.0125
0.0125
0.0125
0.0125
0.0125
0.0125
0.0125
0.0125
SCALARS pressure double 1
LOOKUP_TABLE default
-1797.32
-3020.89
-7105.58
-2721.18
-3219.06
1126.18
1857.23
648.884
1370.73
3833.97
3818.07
8139.46
-835.209
9775.45
171.821
-12392.3
3432.02
3673.93
-3885.71
-1522.15
2614
-2558.55
1698.51
-1833.85
3071.79
1741.75
-1236.34
-2538.73
-1044.23
-1859.18
-1105.68
3442.61
-2669.11
-3177.94
-2131.41
-1465.58
4653.01
-2023.35
379.452
157.514
-1674.44
4026
-2221.48
2180.14
-3980.74
200.153
-7588.62
1857.3
-1764.63
2598.69
1422.57
-1197.25
-1299.41
2762.86
-1290.05
884.373
-2845.82
-769.315
2367.82
5205.89
936.906
-3306.84
1450.84
-2913.9
SCALARS density double 1
LOOKUP_TABLE default
978.663
964.399
918.267
967.873
962.108
1013.61
1022.54
1007.82
1016.58
1047.08
1046.88
1102.6
990.028
1124.46
1002.06
861.821
1042.04
1045.07
954.442
981.9
1031.87
969.764
1020.59
978.234
1037.55
1021.12
985.273
969.995
987.547
977.937
986.819
1042.18
968.478
962.583
974.747
982.567
1057.42
976.012
1004.56
1001.89
980.107
1049.5
973.694
1026.51
953.354
1002.4
912.96
1022.54
979.047
1031.68
1017.22
985.736
984.528
1033.71
984.639
1010.67
966.427
990.811
1028.82
1064.46
1011.31
961.095
1017.56
965.637
