# vtk DataFile Version 3.0
Frame: 50, Time: 0.834
ASCII
DATASET UNSTRUCTURED_GRID
POINTS 64 double
0.469238 0.333683 0 
0.490342 0.318938 0 
0.453557 0.312404 0 
0.474774 0.296363 0 
0.509644 0.302278 0 
0.530612 0.286831 0 
0.494184 0.28084 0 
0.515481 0.266034 0 
0.551928 0.272849 0 
0.571399 0.2562 0 
0.53638 0.251527 0 
0.555626 0.235824 0 
0.593489 0.243904 0 
0.615399 0.232354 0 
0.578177 0.222986 0 
0.599448 0.209478 0 
0.438967 0.292893 0 
0.459057 0.276023 0 
0.425138 0.273011 0 
0.446377 0.255612 0 
0.479817 0.260855 0 
0.500667 0.246627 0 
0.466857 0.239471 0 
0.486378 0.225374 0 
0.521106 0.231044 0 
0.540951 0.215362 0 
0.50703 0.209842 0 
0.527625 0.194441 0 
0.56303 0.201457 0 
0.585952 0.188087 0 
0.548749 0.18054 0 
0.570806 0.166289 0 
0.411862 0.252601 0 
0.431586 0.234287 0 
0.399753 0.232416 0 
0.41757 0.213693 0 
0.452225 0.219543 0 
0.472572 0.202711 0 
0.438516 0.198485 0 
0.457446 0.182722 0 
0.493302 0.187472 0 
0.51432 0.173104 0 
0.477975 0.166773 0 
0.498156 0.153244 0 
0.535086 0.157804 0 
0.55725 0.143985 0 
0.518797 0.137341 0 
0.542186 0.123409 0 
0.386839 0.21522 0 
0.404079 0.194631 0 
0.369943 0.199877 0 
0.386969 0.174962 0 
0.423696 0.179305 0 
0.444133 0.161026 0 
0.407588 0.157309 0 
0.428661 0.139444 0 
0.464045 0.1452 0 
0.484326 0.130345 0 
0.447766 0.124598 0 
0.469428 0.109186 0 
0.506429 0.115396 0 
0.529039 0.102092 0 
0.492094 0.0941604 0 
0.514612 0.0815831 0 
CELLS 64 128
1 0
1 1
1 2
1 3
1 4
1 5
1 6
1 7
1 8
1 9
1 10
1 11
1 12
1 13
1 14
1 15
1 16
1 17
1 18
1 19
1 20
1 21
1 22
1 23
1 24
1 25
1 26
1 27
1 28
1 29
1 30
1 31
1 32
1 33
1 34
1 35
1 36
1 37
1 38
1 39
1 40
1 41
1 42
1 43
1 44
1 45
1 46
1 47
1 48
1 49
1 50
1 51
1 52
1 53
1 54
1 55
1 56
1 57
1 58
1 59
1 60
1 61
1 62
1 63
CELL_TYPES 64
1
1
1
1
1
1
1
1
1
1
1
1
1
1
1
1
1
1
1
1
1
1
1
1
1
1
1
1
1
1
1
1
1
1
1
1
1
1
1
1
1
1
1
1
1
1
1
1
1
1
1
1
1
1
1
1
1
1
1
1
1
1
1
1
POINT_DATA 64
VECTORS displacement double
-0.0432616 -0.278817 0 
-0.022158 -0.318562 0 
-0.0839425 -0.300096 0 
-0.0627262 -0.341137 0 
-0.00285641 -0.360222 0 
0.0181118 -0.400669 0 
-0.043316 -0.38166 0 
-0.0220188 -0.421466 0 
0.0394279 -0.439651 0 
0.0588986 -0.4813 0 
-0.00111976 -0.460973 0 
0.0181258 -0.501676 0 
0.080989 -0.518596 0 
0.102899 -0.555146 0 
0.0406766 -0.539514 0 
0.0619477 -0.578022 0 
-0.123533 -0.319607 0 
-0.103443 -0.361477 0 
-0.162362 -0.339489 0 
-0.141123 -0.381888 0 
-0.0826827 -0.401645 0 
-0.0618328 -0.440873 0 
-0.120643 -0.423029 0 
-0.101122 -0.462126 0 
-0.0413944 -0.481456 0 
-0.0215488 -0.522138 0 
-0.0804696 -0.502658 0 
-0.0598754 -0.543059 0 
0.000530399 -0.561043 0 
0.0234519 -0.599413 0 
-0.0387511 -0.58196 0 
-0.0166936 -0.621211 0 
-0.200638 -0.359899 0 
-0.180914 -0.403213 0 
-0.237747 -0.380084 0 
-0.21993 -0.423807 0 
-0.160275 -0.442957 0 
-0.139928 -0.484789 0 
-0.198984 -0.464015 0 
-0.180054 -0.504778 0 
-0.119198 -0.525028 0 
-0.0981804 -0.564396 0 
-0.159525 -0.545727 0 
-0.139344 -0.584256 0 
-0.0774138 -0.604696 0 
-0.0552504 -0.643515 0 
-0.118703 -0.625159 0 
-0.0953143 -0.664091 0 
-0.275661 -0.39728 0 
-0.258421 -0.442869 0 
-0.317557 -0.412623 0 
-0.300531 -0.462538 0 
-0.238804 -0.483195 0 
-0.218367 -0.526474 0 
-0.279912 -0.505191 0 
-0.258839 -0.548056 0 
-0.198455 -0.5673 0 
-0.178174 -0.607155 0 
-0.239734 -0.587902 0 
-0.218072 -0.628314 0 
-0.156071 -0.647104 0 
-0.133461 -0.685408 0 
-0.195406 -0.66834 0 
-0.172888 -0.705917 0 
VECTORS velocity double
-1.10511 -1.78402 0 
-1.19664 -1.63055 0 
-1.25736 -1.93562 0 
-0.772406 -1.65685 0 
-0.940643 -1.67026 0 
-1.12436 -1.73128 0 
-1.18323 -1.66088 0 
-1.08676 -1.70678 0 
-1.0428 -1.3517 0 
-1.11593 -1.50149 0 
-0.97727 -1.56139 0 
-1.35646 -1.77891 0 
-1.3437 -1.21651 0 
-1.04384 -1.2436 0 
-0.745099 -1.54099 0 
-1.07274 -1.17871 0 
-1.13636 -1.48328 0 
-0.97004 -1.96233 0 
-1.11654 -1.99359 0 
-0.994107 -1.44916 0 
-1.07637 -1.83795 0 
-0.861119 -1.88457 0 
-1.16989 -1.78753 0 
-1.34063 -1.78571 0 
-0.911688 -1.45943 0 
-1.18427 -1.4956 0 
-1.16961 -1.93982 0 
-1.06001 -1.66779 0 
-1.36675 -1.55496 0 
-0.967315 -1.45283 0 
-1.11946 -1.48111 0 
-1.22933 -1.30048 0 
-0.839867 -1.85793 0 
-0.478066 -1.79689 0 
-0.737824 -1.92315 0 
-0.773725 -1.83106 0 
-0.652009 -2.2076 0 
-1.00037 -2.02849 0 
-1.21873 -2.18984 0 
-1.01374 -1.63501 0 
-0.780756 -1.90015 0 
-1.15969 -1.84582 0 
-0.976633 -2.13515 0 
-1.49313 -1.57515 0 
-0.892816 -1.8822 0 
-0.819249 -1.46577 0 
-0.955502 -1.59678 0 
-1.46028 -1.32615 0 
-0.528362 -2.09825 0 
-0.631104 -2.22543 0 
-1.12654 -0.706943 0 
-0.967035 -1.74248 0 
-1.05843 -2.00442 0 
-0.856734 -1.75598 0 
-1.07369 -1.85176 0 
-1.27625 -1.95092 0 
-0.886011 -2.20171 0 
-1.2382 -1.94251 0 
-1.14316 -2.05133 0 
-0.902768 -1.92717 0 
-0.796991 -1.74149 0 
-1.0009 -1.719 0 
-1.30954 -2.29923 0 
-0.848739 -1.69835 0 
SCALARS mass double 1
LOOKUP_TABLE default
0.625
0.625
0.625
0.625
0.625
0.625
0.625
0.625
0.625
0.625
0.625
0.625
0.625
0.625
0.625
0.625
0.625
0.625
0.625
0.625
0.625
0.625
0.625
0.625
0.625
0.625
0.625
0.625
0.625
0.625
0.625
0.625
0.625
0.625
0.625
0.625
0.625
0.625
0.625
0.625
0.625
0.625
0.625
0.625
0.625
0.625
0.625
0.625
0.625
0.625
0.625
0.625
0.625
0.625
0.625
0.625
0.625
0.625
0.625
0.625
0.625
0.625
0.625
0.625
SCALARS volume double 1
LOOKUP_TABLE default
0.000621829
0.000625062
0.000621315
0.000622896
0.000624598
0.0006244
0.00061747
0.000610917
0.000628048
0.000622589
0.000625995
0.000608641
0.000626562
0.000627461
0.000621728
0.000621973
0.000614599
0.000618712
0.000611166
0.000616044
0.000609498
0.000621546
0.000605286
0.000608904
0.000633882
0.000623962
0.000631258
0.000619871
0.0006356
0.000624674
0.000622356
0.000613156
0.000600357
0.000611923
0.000580464
0.000581556
0.000626452
0.000631346
0.000610159
0.000603286
0.000631707
0.000605493
0.000615767
0.000618291
0.00061077
0.000630173
0.000651866
0.000616988
0.000587281
0.000605368
0.000526669
0.000607259
0.000610705
0.000634592
0.000631535
0.000632556
0.000626229
0.000637607
0.000615076
0.000625328
0.00063676
0.000614348
0.000629532
0.000625986
VECTORS momentum double
-0.690693 -1.11501 0 
-0.747899 -1.01909 0 
-0.785853 -1.20976 0 
-0.482753 -1.03553 0 
-0.587902 -1.04391 0 
-0.702726 -1.08205 0 
-0.73952 -1.03805 0 
-0.679225 -1.06674 0 
-0.651749 -0.844809 0 
-0.697454 -0.938433 0 
-0.610794 -0.97587 0 
-0.847785 -1.11182 0 
-0.839813 -0.76032 0 
-0.6524 -0.777248 0 
-0.465687 -0.96312 0 
-0.670465 -0.736697 0 
-0.710225 -0.927047 0 
-0.606275 -1.22646 0 
-0.697839 -1.246 0 
-0.621317 -0.905722 0 
-0.672728 -1.14872 0 
-0.5382 -1.17786 0 
-0.731182 -1.1172 0 
-0.837893 -1.11607 0 
-0.569805 -0.912143 0 
-0.740168 -0.934749 0 
-0.731004 -1.21239 0 
-0.662506 -1.04237 0 
-0.854216 -0.971852 0 
-0.604572 -0.908016 0 
-0.699665 -0.925696 0 
-0.768333 -0.812797 0 
-0.524917 -1.1612 0 
-0.298791 -1.12306 0 
-0.46114 -1.20197 0 
-0.483578 -1.14441 0 
-0.407506 -1.37975 0 
-0.625232 -1.26781 0 
-0.761706 -1.36865 0 
-0.633585 -1.02188 0 
-0.487973 -1.18759 0 
-0.724805 -1.15364 0 
-0.610396 -1.33447 0 
-0.933209 -0.984467 0 
-0.55801 -1.17637 0 
-0.512031 -0.916105 0 
-0.597188 -0.99799 0 
-0.912674 -0.828843 0 
-0.330226 -1.31141 0 
-0.39444 -1.3909 0 
-0.704089 -0.44184 0 
-0.604397 -1.08905 0 
-0.66152 -1.25276 0 
-0.535459 -1.09749 0 
-0.671059 -1.15735 0 
-0.797655 -1.21932 0 
-0.553757 -1.37607 0 
-0.773876 -1.21407 0 
-0.714474 -1.28208 0 
-0.56423 -1.20448 0 
-0.498119 -1.08843 0 
-0.625565 -1.07437 0 
-0.818465 -1.43702 0 
-0.530462 -1.06147 0 
VECTORS body_force double
0 -9.81 0 
0 -9.81 0 
0 -9.81 0 
0 -9.81 0 
0 -9.81 0 
0 -9.81 0 
0 -9.81 0 
0 -9.81 0 
0 -9.81 0 
0 -9.81 0 
0 -9.81 0 
0 -9.81 0 
0 -9.81 0 
0 -9.81 0 
0 -9.81 0 
0 -9.81 0 
0 -9.81 0 
0 -9.81 0 
0 -9.81 0 
0 -9.81 0 
0 -9.81 0 
0 -9.81 0 
0 -9.81 0 
0 -9.81 0 
0 -9.81 0 
0 -9.81 0 
0 -9.81 0 
0 -9.81 0 
0 -9.81 0 
0 -9.81 0 
0 -9.81 0 
0 -9.81 0 
0 -9.81 0 
0 -9.81 0 
0 -9.81 0 
0 -9.81 0 
0 -9.81 0 
0 -9.81 0 
0 -9.81 0 
0 -9.81 0 
0 -9.81 0 
0 -9.81 0 
0 -9.81 0 
0 -9.81 0 
0 -9.81 0 
0 -9.81 0 
0 -9.81 0 
0 -9.81 0 
0 -9.81 0 
0 -9.81 0 
0 -9.81 0 
0 -9.81 0 
0 -9.81 0 
0 -9.81 0 
0 -9.81 0 
0 -9.81 0 
0 -9.81 0 
0 -9.81 0 
0 -9.81 0 
0 -9.81 0 
0 -9.81 0 
0 -9.81 0 
0 -9.81 0 
0 -9.81 0 
TENSORS cauchy_stress double
-332.698 454.694 0
454.694 -645.427 0
0 0 -293.437

129.904 59.8378 0
59.8378 -110.826 0
0 0 5.72347

297.598 -767.142 0
-767.142 -1434.9 0
0 0 -341.189

-2850.74 -610.608 0
-610.608 2202.14 0
0 0 -194.581

-484.517 -1056.02 0
-1056.02 360.812 0
0 0 -37.1117

-500.494 210.534 0
210.534 315.781 0
0 0 -55.414

-1454.34 -815.098 0
-815.098 -876.656 0
0 0 -699.299

-4079.97 -2088.12 0
-2088.12 -302.797 0
0 0 -1314.83

174.154 36.4073 0
36.4073 761.459 0
0 0 280.684

-908.117 -476.002 0
-476.002 164.839 0
0 0 -222.983

-1028.51 1224.41 0
1224.41 1334.27 0
0 0 91.7286

-4021.98 -582.967 0
-582.967 -1078.51 0
0 0 -1530.15

924.69 533.045 0
533.045 -444.807 0
0 0 143.965

-37.6693 -294.984 0
-294.984 793.298 0
0 0 226.689

-1365.57 1406.69 0
1406.69 356.073 0
0 0 -302.85

-236.608 623.821 0
623.821 -697.176 0
0 0 -280.135

-1133.28 -1385.46 0
-1385.46 -2094.03 0
0 0 -968.194

-734.817 -238.884 0
-238.884 -1209.9 0
0 0 -583.415

-3243.8 -2797.71 0
-2797.71 -1060.55 0
0 0 -1291.3

-2516 -2032.17 0
-2032.17 -259.744 0
0 0 -832.724

-4695.93 -1175.23 0
-1175.23 -134.071 0
0 0 -1449

-1360.55 402.522 0
402.522 294.71 0
0 0 -319.751

-5711.81 -2718.62 0
-2718.62 -451.613 0
0 0 -1849.03

-2725.08 1543.89 0
1543.89 -2292.32 0
0 0 -1505.22

-1287.28 -653.534 0
-653.534 4001.09 0
0 0 814.142

772.499 -1270.04 0
-1270.04 -1092.01 0
0 0 -95.854

1247.88 -746.473 0
-746.473 668.102 0
0 0 574.795

-1324.29 -417.156 0
-417.156 -260.408 0
0 0 -475.41

3476.33 -887.032 0
-887.032 -241.993 0
0 0 970.302

-1097.36 -1040.02 0
-1040.02 997.004 0
0 0 -30.1074

-36.8804 800.062 0
800.062 -778.343 0
0 0 -244.567

-2536.16 -479.583 0
-479.583 -1143.2 0
0 0 -1103.81

-4113.07 -3988.75 0
-3988.75 -3622.91 0
0 0 -2320.79

-5643.42 -861.786 0
-861.786 1577.03 0
0 0 -1219.92

-6831.69 -5518.3 0
-5518.3 -7384.35 0
0 0 -4264.81

-10028.1 -2763.44 0
-2763.44 -3826.67 0
0 0 -4156.44

-1268.25 -2442.27 0
-2442.27 1714.58 0
0 0 133.899

-2432.33 -2780.61 0
-2780.61 4375.23 0
0 0 582.868

-3867.96 -1419.9 0
-1419.9 -753.699 0
0 0 -1386.5

-3456.34 4286.17 0
4286.17 -3343.56 0
0 0 -2039.97

1980.13 -483.604 0
-483.604 72.6037 0
0 0 615.82

-7174.43 -1162.9 0
-1162.9 1076.48 0
0 0 -1829.39

-2467.31 -1202.14 0
-1202.14 -394.724 0
0 0 -858.611

-4136.43 1489.96 0
1489.96 2060.91 0
0 0 -622.656

-4820.72 -1386.45 0
-1386.45 391.67 0
0 0 -1328.72

322.88 -264.179 0
-264.179 1262.18 0
0 0 475.518

11549.5 175.214 0
175.214 -3455.91 0
0 0 2428.09

-1527.71 -364.587 0
-364.587 -953.448 0
0 0 -744.348

-10429.1 -7929.34 0
-7929.34 -1541.8 0
0 0 -3591.27

-6318.41 207.102 0
207.102 180.831 0
0 0 -1841.27

-25790.3 -13267.6 0
-13267.6 -7128.72 0
0 0 -9875.71

-8111.44 -9707.75 0
-9707.75 2573.77 0
0 0 -1661.3

-5437.71 -1839.51 0
-1839.51 988.14 0
0 0 -1334.87

760.757 -2614.23 0
-2614.23 2168.15 0
0 0 878.672

518.327 -75.7433 0
-75.7433 1481.92 0
0 0 600.075

300.119 -726.47 0
-726.47 2010.93 0
0 0 693.315

1159.68 261.566 0
261.566 -781.978 0
0 0 113.311

-952.116 -724.69 0
-724.69 4792.53 0
0 0 1152.13

-2437.44 348.38 0
348.38 -640.61 0
0 0 -923.414

741.774 356.786 0
356.786 -640.828 0
0 0 30.2839

2524.88 -453.918 0
-453.918 1059.91 0
0 0 1075.44

-5209.01 -1072.04 0
-1072.04 1903.14 0
0 0 -991.76

970.292 756.97 0
756.97 419.174 0
0 0 416.84

1532.49 -205.434 0
-205.434 -1229.28 0
0 0 90.9618

TENSORS velocity_gradient double
0.798166 -1.6977 0
1.17741 -0.804734 0
0 0 0

0.743257 -1.61945 0
1.05164 -0.625501 0
0 0 0

0.603072 -1.74967 0
0.964444 -0.911044 0
0 0 0

0.439086 -1.513 0
0.904458 0.596795 0
0 0 0

0.607599 0.101144 0
2.23844 -0.319844 0
0 0 0

-0.405391 0.629004 0
2.63946 0.0826718 0
0 0 0

-0.362142 -0.333385 0
1.14826 1.24378 0
0 0 0

-0.837467 0.313853 0
3.40898 0.643951 0
0 0 0

-0.790823 0.971237 0
3.58389 -0.659129 0
0 0 0

-0.802173 0.982436 0
4.17275 -1.19006 0
0 0 0

-1.11691 0.691625 0
3.9437 0.0413902 0
0 0 0

-0.193306 0.262711 0
4.28428 0.198246 0
0 0 0

-0.401593 -1.20977 0
4.15555 0.18943 0
0 0 0

1.15227 -1.19955 0
2.19886 0.168814 0
0 0 0

0.4194 -0.805649 0
4.19186 0.359402 0
0 0 0

0.670657 -1.531 0
3.32145 0.417486 0
0 0 0

-0.474107 -3.37601 0
1.09998 1.22937 0
0 0 0

-0.61558 -2.33497 0
0.93103 1.35665 0
0 0 0

-1.61479 -4.32494 0
1.11164 1.38164 0
0 0 0

-2.39753 -3.07658 0
1.07446 1.37723 0
0 0 0

-1.49105 -1.13698 0
0.968704 1.30509 0
0 0 0

-1.51529 0.17821 0
3.00972 1.49861 0
0 0 0

-2.2627 0.160051 0
1.18525 2.49156 0
0 0 0

-2.33263 0.257177 0
1.48478 2.0756 0
0 0 0

-1.29709 0.43609 0
4.63866 1.0723 0
0 0 0

-1.37981 0.54038 0
5.1614 0.413216 0
0 0 0

-1.4078 0.362196 0
5.33833 1.5393 0
0 0 0

-1.25407 -0.361251 0
5.64523 -0.176569 0
0 0 0

1.31107 -0.334013 0
4.03625 0.150055 0
0 0 0

1.27347 -0.362455 0
3.92815 0.0607001 0
0 0 0

0.142461 -1.21297 0
4.74575 -0.252584 0
0 0 0

0.644822 -0.800341 0
3.74357 -0.0678767 0
0 0 0

-2.76003 -4.35499 0
1.06636 1.32624 0
0 0 0

-3.04647 0.110565 0
0.415757 1.98985 0
0 0 0

-2.35332 0.879391 0
-2.64053 0.0124256 0
0 0 0

-3.00072 0.14184 0
-0.61705 1.28383 0
0 0 0

-2.52222 0.0983501 0
1.13103 2.69306 0
0 0 0

-2.41487 0.355329 0
1.95992 2.02583 0
0 0 0

-2.72097 1.50204 0
-1.27039 1.23638 0
0 0 0

-1.98633 1.93097 0
2.2943 -0.014723 0
0 0 0

-2.07929 0.800854 0
2.38956 -0.549763 0
0 0 0

-0.433004 -0.00770647 0
5.5287 -0.52226 0
0 0 0

-1.48425 1.28492 0
2.53571 -0.325362 0
0 0 0

-0.447061 0.495476 0
3.89803 -0.364738 0
0 0 0

0.202222 -0.862994 0
5.40898 -0.361064 0
0 0 0

0.546008 -0.0941188 0
3.93 -0.369627 0
0 0 0

0.244282 -0.267054 0
5.68513 1.073 0
0 0 0

-0.201471 0.474509 0
6.13447 0.32548 0
0 0 0

2.72943 3.22703 0
-9.29454 -1.87695 0
0 0 0

-1.7427 4.61107 0
-2.59487 -0.304278 0
0 0 0

5.18582 3.36937 0
-11.9375 -4.43124 0
0 0 0

-0.684466 2.58472 0
-14.8813 -1.83962 0
0 0 0

-1.33987 4.39169 0
-1.6445 -0.217861 0
0 0 0

0.0667209 2.65403 0
-1.37677 0.0296394 0
0 0 0

0.567947 5.77739 0
-1.93149 -0.426308 0
0 0 0

1.49228 0.578541 0
-2.24957 0.536299 0
0 0 0

-0.844623 0.408005 0
2.72732 0.856047 0
0 0 0

-0.481694 -0.554179 0
2.56629 1.50182 0
0 0 0

0.875678 0.27248 0
-0.528566 0.952478 0
0 0 0

0.013517 -0.204147 0
2.26839 1.29125 0
0 0 0

-0.448196 -0.659533 0
6.38318 1.46864 0
0 0 0

-0.82493 -0.434023 0
6.70043 0.934761 0
0 0 0

0.47619 -1.665 0
2.39849 0.535974 0
0 0 0

-0.855918 -2.3168 0
5.95134 0.848563 0
0 0 0

SCALARS active double 1
LOOKUP_TABLE default
1
1
1
1
1
1
1
1
1
1
1
1
1
1
1
1
1
1
1
1
1
1
1
1
1
1
1
1
1
1
1
1
1
1
1
1
1
1
1
1
1
1
1
1
1
1
1
1
1
1
1
1
1
1
1
1
1
1
1
1
1
1
1
1
SCALARS extent double 1
LOOKUP_TABLE default
0.0125
0.0125
0.0125
0.0125
0.0125
0.0125
0.0125
0.0125
0.0125
0.0125
0.0125
0.0125
0.0125
0.0125
0.0125
0.0125
0.0125
0.0125
0.0125
0.0125
0.0125
0.0125
0.0125
0.0125
0.0125
0.0125
0.0125
0.0125
0.0125
0.0125
0.0125
0.0125
0.0125
0.0125
0.0125
0.0125
0.0125
0.0125
0.0125
0.0125
0.0125
0.0125
0.0125
0.0125
0.0125
0.0125
0.0125
0.0125
0.0125
0.0125
0.0125
0.0125
0.0125
0.0125
0.0125
0.0125
0.0125
0.0125
0.0125
0.0125
0.0125
0.0125
0.0125
0.0125
SCALARS pressure double 1
LOOKUP_TABLE default
423.854
-8.26723
492.829
281.061
53.6058
80.0425
1010.1
1899.2
-405.432
322.087
-132.497
2210.21
-207.949
-327.439
437.451
404.64
1398.5
842.711
1865.22
1202.82
2093
461.862
2670.82
2174.21
-1175.98
138.456
-830.26
686.703
-1401.55
43.4884
353.264
1594.39
3352.26
1762.1
6160.28
6003.74
-193.409
-841.92
2002.72
2946.63
-889.518
2642.45
1240.22
899.392
1919.26
-686.859
-3507.24
1075.17
5187.39
2659.62
14264.9
2399.66
1928.15
-1269.19
-866.774
-1001.46
-163.671
-1664.18
1333.82
-43.7434
-1553.41
1432.54
-602.102
-131.389
SCALARS density double 1
LOOKUP_TABLE default
1005.1
999.901
1005.93
1003.38
1000.64
1000.96
1012.19
1023.05
995.147
1003.87
998.411
1026.88
997.508
996.078
1005.26
1004.87
1016.92
1010.16
1022.63
1014.54
1025.43
1005.56
1032.57
1026.43
985.987
1001.66
990.086
1008.27
983.322
1000.52
1004.25
1019.32
1041.05
1021.37
1076.72
1074.7
997.682
989.948
1024.32
1035.99
989.383
1032.22
1014.99
1010.85
1023.3
991.792
958.786
1012.99
1064.23
1032.43
1186.7
1029.21
1023.41
984.885
989.653
988.054
998.038
980.228
1016.13
999.475
981.532
1017.34
992.801
998.425
