# vtk DataFile Version 3.0
Frame: 49, Time: 0.817
ASCII
DATASET UNSTRUCTURED_GRID
POINTS 64 double
0.355039 0.130587 0 
0.331331 0.122378 0 
0.345394 0.153842 0 
0.321216 0.144689 0 
0.307356 0.113069 0 
0.282231 0.106546 0 
0.299397 0.136698 0 
0.27514 0.130655 0 
0.260522 0.0981617 0 
0.237561 0.0855849 0 
0.252542 0.122238 0 
0.230558 0.109806 0 
0.211393 0.08025 0 
0.189728 0.0720876 0 
0.204377 0.103238 0 
0.182631 0.0951875 0 
0.336064 0.176777 0 
0.312402 0.167374 0 
0.331675 0.200238 0 
0.307735 0.191446 0 
0.290908 0.160919 0 
0.26724 0.155129 0 
0.285441 0.185696 0 
0.261691 0.17853 0 
0.244354 0.144127 0 
0.223367 0.131934 0 
0.237868 0.16752 0 
0.214806 0.157801 0 
0.198363 0.127281 0 
0.173281 0.122049 0 
0.190821 0.15222 0 
0.16737 0.146484 0 
0.325909 0.22478 0 
0.302762 0.215232 0 
0.320409 0.249524 0 
0.296385 0.240093 0 
0.280181 0.208982 0 
0.25603 0.201915 0 
0.274522 0.23353 0 
0.250311 0.227142 0 
0.232528 0.191868 0 
0.210258 0.183815 0 
0.226553 0.216174 0 
0.204361 0.210354 0 
0.186371 0.176414 0 
0.162392 0.170559 0 
0.179801 0.20302 0 
0.154574 0.19618 0 
0.314671 0.273429 0 
0.289972 0.263468 0 
0.304403 0.295901 0 
0.28135 0.287537 0 
0.266913 0.258619 0 
0.243239 0.250552 0 
0.257818 0.283572 0 
0.234678 0.274571 0 
0.219556 0.24039 0 
0.196777 0.235601 0 
0.211841 0.266339 0 
0.188958 0.260256 0 
0.173981 0.227184 0 
0.149359 0.219813 0 
0.167173 0.250531 0 
0.143485 0.244502 0 
CELLS 64 128
1 0
1 1
1 2
1 3
1 4
1 5
1 6
1 7
1 8
1 9
1 10
1 11
1 12
1 13
1 14
1 15
1 16
1 17
1 18
1 19
1 20
1 21
1 22
1 23
1 24
1 25
1 26
1 27
1 28
1 29
1 30
1 31
1 32
1 33
1 34
1 35
1 36
1 37
1 38
1 39
1 40
1 41
1 42
1 43
1 44
1 45
1 46
1 47
1 48
1 49
1 50
1 51
1 52
1 53
1 54
1 55
1 56
1 57
1 58
1 59
1 60
1 61
1 62
1 63
CELL_TYPES 64
1
1
1
1
1
1
1
1
1
1
1
1
1
1
1
1
1
1
1
1
1
1
1
1
1
1
1
1
1
1
1
1
1
1
1
1
1
1
1
1
1
1
1
1
1
1
1
1
1
1
1
1
1
1
1
1
1
1
1
1
1
1
1
1
POINT_DATA 64
VECTORS displacement double
-0.0574611 -0.281913 0 
-0.0811692 -0.315122 0 
-0.0921055 -0.258658 0 
-0.116284 -0.292811 0 
-0.105144 -0.349431 0 
-0.130269 -0.380954 0 
-0.138103 -0.325802 0 
-0.16236 -0.356845 0 
-0.151978 -0.414338 0 
-0.174939 -0.451915 0 
-0.184958 -0.390262 0 
-0.206942 -0.427694 0 
-0.201107 -0.48225 0 
-0.222772 -0.515412 0 
-0.233123 -0.459262 0 
-0.254869 -0.492312 0 
-0.126436 -0.235723 0 
-0.150098 -0.270126 0 
-0.155825 -0.212262 0 
-0.179765 -0.246054 0 
-0.171592 -0.301581 0 
-0.19526 -0.332371 0 
-0.202059 -0.276804 0 
-0.225809 -0.30897 0 
-0.218146 -0.368373 0 
-0.239133 -0.405566 0 
-0.249632 -0.34498 0 
-0.272694 -0.379699 0 
-0.264137 -0.435219 0 
-0.289219 -0.465451 0 
-0.296679 -0.41028 0 
-0.32013 -0.441016 0 
-0.186591 -0.18772 0 
-0.209738 -0.222268 0 
-0.217091 -0.162976 0 
-0.241115 -0.197407 0 
-0.232319 -0.253518 0 
-0.25647 -0.285585 0 
-0.262978 -0.22897 0 
-0.287189 -0.260358 0 
-0.279972 -0.320632 0 
-0.302242 -0.353685 0 
-0.310947 -0.296326 0 
-0.333139 -0.327146 0 
-0.326129 -0.386086 0 
-0.350108 -0.416941 0 
-0.357699 -0.35948 0 
-0.382926 -0.39132 0 
-0.247829 -0.139071 0 
-0.272528 -0.174032 0 
-0.283097 -0.116599 0 
-0.30615 -0.149963 0 
-0.295587 -0.203881 0 
-0.319261 -0.236948 0 
-0.329682 -0.178928 0 
-0.352822 -0.212929 0 
-0.342944 -0.27211 0 
-0.365723 -0.301899 0 
-0.375659 -0.246161 0 
-0.398542 -0.277244 0 
-0.388519 -0.335316 0 
-0.413141 -0.367687 0 
-0.420327 -0.311969 0 
-0.444015 -0.342998 0 
VECTORS velocity double
-0.527744 -0.103712 0 
-0.675312 -0.0969579 0 
-0.81784 -0.254772 0 
-0.524827 -0.210199 0 
-0.057995 -0.71431 0 
-0.930232 -0.298816 0 
-0.487016 -0.847538 0 
-1.0414 -0.255744 0 
-0.157435 -0.468513 0 
-0.692758 -0.428472 0 
-0.052778 -0.399955 0 
-0.95104 -0.501395 0 
-0.332498 -0.248807 0 
-0.565862 -0.37468 0 
-0.799783 -0.245701 0 
-0.730583 -0.516552 0 
-0.365602 -0.31981 0 
-0.469976 -0.42876 0 
-0.665763 -0.0905163 0 
-0.575482 -0.585162 0 
-0.332795 -0.349708 0 
-0.559947 -0.212629 0 
-0.396226 -0.384004 0 
-0.845207 -0.39328 0 
-0.259475 -0.801922 0 
-0.562903 -1.13549 0 
-0.746284 -0.540321 0 
-0.835276 -0.391807 0 
-0.503619 -0.595203 0 
-0.343749 -0.472316 0 
-0.461501 0.168053 0 
-0.562632 -0.221989 0 
-0.889684 -0.278969 0 
-0.719869 -0.659705 0 
-0.885157 -0.510655 0 
-0.905461 -0.526708 0 
-0.477625 -0.610457 0 
-0.465541 -0.778146 0 
-1.16914 -0.693097 0 
-1.07944 -0.701484 0 
-0.208471 -0.699188 0 
-0.312414 -0.464264 0 
-0.6765 -0.513393 0 
-0.920427 -0.481286 0 
-0.593913 -0.784154 0 
-0.749855 -0.830483 0 
-0.819455 -0.341457 0 
-0.58329 -0.287979 0 
-0.949418 -0.328525 0 
-0.820446 -0.589867 0 
-1.03219 -0.506064 0 
-0.810183 -0.61213 0 
-0.747059 -0.827902 0 
-0.402889 -0.246221 0 
-0.970766 -0.457074 0 
-0.886518 -0.207191 0 
-0.285499 -0.300861 0 
-0.697962 -0.709539 0 
-0.953412 -0.644907 0 
-0.661018 -0.374808 0 
-0.226933 -0.602692 0 
-0.794499 -0.690225 0 
-0.73641 -0.6266 0 
-0.67219 -0.574895 0 
SCALARS mass double 1
LOOKUP_TABLE default
0.625
0.625
0.625
0.625
0.625
0.625
0.625
0.625
0.625
0.625
0.625
0.625
0.625
0.625
0.625
0.625
0.625
0.625
0.625
0.625
0.625
0.625
0.625
0.625
0.625
0.625
0.625
0.625
0.625
0.625
0.625
0.625
0.625
0.625
0.625
0.625
0.625
0.625
0.625
0.625
0.625
0.625
0.625
0.625
0.625
0.625
0.625
0.625
0.625
0.625
0.625
0.625
0.625
0.625
0.625
0.625
0.625
0.625
0.625
0.625
0.625
0.625
0.625
0.625
SCALARS volume double 1
LOOKUP_TABLE default
0.000623114
0.000600927
0.000599637
0.000627968
0.000628249
0.000646959
0.000607866
0.000627681
0.00060672
0.000627029
0.000588714
0.000613375
0.000616325
0.000619907
0.000608997
0.000631446
0.000612318
0.000613755
0.000602438
0.000651731
0.00060571
0.000639333
0.000594817
0.000598682
0.000628875
0.000620996
0.000594014
0.000627457
0.000653676
0.000628705
0.000595917
0.000636186
0.000599101
0.000608509
0.000638622
0.000605818
0.000634483
0.000638043
0.000600667
0.000599947
0.000629663
0.000641246
0.000630124
0.000613991
0.000620478
0.00063674
0.000656286
0.000620869
0.000626289
0.000653392
0.000626726
0.000603556
0.000618871
0.000616302
0.000611279
0.000624157
0.000631638
0.000608816
0.000600396
0.000622657
0.000599166
0.000613077
0.000613699
0.000626252
VECTORS momentum double
-0.32984 -0.0648203 0 
-0.42207 -0.0605987 0 
-0.51115 -0.159232 0 
-0.328017 -0.131375 0 
-0.0362469 -0.446444 0 
-0.581395 -0.18676 0 
-0.304385 -0.529711 0 
-0.650876 -0.15984 0 
-0.0983966 -0.292821 0 
-0.432974 -0.267795 0 
-0.0329862 -0.249972 0 
-0.5944 -0.313372 0 
-0.207811 -0.155504 0 
-0.353664 -0.234175 0 
-0.499864 -0.153563 0 
-0.456614 -0.322845 0 
-0.228501 -0.199881 0 
-0.293735 -0.267975 0 
-0.416102 -0.0565727 0 
-0.359676 -0.365726 0 
-0.207997 -0.218568 0 
-0.349967 -0.132893 0 
-0.247642 -0.240002 0 
-0.528254 -0.2458 0 
-0.162172 -0.501201 0 
-0.351814 -0.709684 0 
-0.466427 -0.337701 0 
-0.522047 -0.244879 0 
-0.314762 -0.372002 0 
-0.214843 -0.295197 0 
-0.288438 0.105033 0 
-0.351645 -0.138743 0 
-0.556053 -0.174356 0 
-0.449918 -0.412316 0 
-0.553223 -0.319159 0 
-0.565913 -0.329193 0 
-0.298516 -0.381535 0 
-0.290963 -0.486341 0 
-0.730711 -0.433186 0 
-0.674649 -0.438428 0 
-0.130294 -0.436993 0 
-0.195259 -0.290165 0 
-0.422813 -0.320871 0 
-0.575267 -0.300804 0 
-0.371196 -0.490096 0 
-0.468659 -0.519052 0 
-0.512159 -0.213411 0 
-0.364556 -0.179987 0 
-0.593386 -0.205328 0 
-0.512779 -0.368667 0 
-0.645118 -0.31629 0 
-0.506364 -0.382581 0 
-0.466912 -0.517438 0 
-0.251805 -0.153888 0 
-0.606729 -0.285671 0 
-0.554074 -0.129495 0 
-0.178437 -0.188038 0 
-0.436226 -0.443462 0 
-0.595882 -0.403067 0 
-0.413137 -0.234255 0 
-0.141833 -0.376683 0 
-0.496562 -0.431391 0 
-0.460256 -0.391625 0 
-0.420119 -0.359309 0 
VECTORS body_force double
0 -9.81 0 
0 -9.81 0 
0 -9.81 0 
0 -9.81 0 
0 -9.81 0 
0 -9.81 0 
0 -9.81 0 
0 -9.81 0 
0 -9.81 0 
0 -9.81 0 
0 -9.81 0 
0 -9.81 0 
0 -9.81 0 
0 -9.81 0 
0 -9.81 0 
0 -9.81 0 
0 -9.81 0 
0 -9.81 0 
0 -9.81 0 
0 -9.81 0 
0 -9.81 0 
0 -9.81 0 
0 -9.81 0 
0 -9.81 0 
0 -9.81 0 
0 -9.81 0 
0 -9.81 0 
0 -9.81 0 
0 -9.81 0 
0 -9.81 0 
0 -9.81 0 
0 -9.81 0 
0 -9.81 0 
0 -9.81 0 
0 -9.81 0 
0 -9.81 0 
0 -9.81 0 
0 -9.81 0 
0 -9.81 0 
0 -9.81 0 
0 -9.81 0 
0 -9.81 0 
0 -9.81 0 
0 -9.81 0 
0 -9.81 0 
0 -9.81 0 
0 -9.81 0 
0 -9.81 0 
0 -9.81 0 
0 -9.81 0 
0 -9.81 0 
0 -9.81 0 
0 -9.81 0 
0 -9.81 0 
0 -9.81 0 
0 -9.81 0 
0 -9.81 0 
0 -9.81 0 
0 -9.81 0 
0 -9.81 0 
0 -9.81 0 
0 -9.81 0 
0 -9.81 0 
0 -9.81 0 
TENSORS cauchy_stress double
-730.893 -4.87496 0
-4.87496 149.628 0
0 0 -174.38

-3269.84 -313.315 0
-313.315 -4283.62 0
0 0 -2266.04

-5546.52 -1820.44 0
-1820.44 -2420.32 0
0 0 -2390.05

-1093.88 1334.35 0
1334.35 2005.06 0
0 0 273.353

815.576 -1653.17 0
-1653.17 181.386 0
0 0 299.089

5461.1 -914.31 0
-914.31 1179.4 0
0 0 1992.15

-7473.61 1193.34 0
1193.34 2128.05 0
0 0 -1603.67

1023.55 -6355.6 0
-6355.6 -200.386 0
0 0 246.95

-6728.23 541.711 0
541.711 1019.82 0
0 0 -1712.52

605.928 1249.03 0
1249.03 17.41 0
0 0 187.001

-10496.4 4846.06 0
4846.06 -1005.91 0
0 0 -3450.69

-1720.18 1242.42 0
1242.42 -1890.51 0
0 0 -1083.21

780.619 -1152.98 0
-1152.98 -3468.42 0
0 0 -806.34

-473.32 -1307.46 0
-1307.46 -1100.14 0
0 0 -472.038

-2069.82 466.673 0
466.673 -2918.31 0
0 0 -1496.44

-1724.54 287.378 0
287.378 3697.86 0
0 0 591.996

-6779.73 -325.173 0
-325.173 2837.4 0
0 0 -1182.7

425.272 -1228.66 0
-1228.66 -3916.87 0
0 0 -1047.48

-4359.59 -1655.19 0
-1655.19 -2710.82 0
0 0 -2121.12

5293.1 -118.114 0
-118.114 2760.89 0
0 0 2416.2

-7173.89 340.01 0
340.01 1145.03 0
0 0 -1808.66

1258.91 -3250.17 0
-3250.17 3101.49 0
0 0 1308.12

-7667.62 2056.6 0
2056.6 -1851.22 0
0 0 -2855.65

-2951.88 4858.17 0
4858.17 -5321.47 0
0 0 -2482.01

1366.35 -1475.27 0
-1475.27 -177.682 0
0 0 356.6

-4151.12 -4575.65 0
-4575.65 2915.2 0
0 0 -370.776

-9316.46 7418.21 0
7418.21 -462.2 0
0 0 -2933.6

-1025.52 571.81 0
571.81 1779.89 0
0 0 226.31

4534.77 -1237.16 0
-1237.16 4092.08 0
0 0 2588.05

-470.412 -1517.71 0
-1517.71 1607.09 0
0 0 341.003

-5669.85 770.191 0
770.191 -3493.51 0
0 0 -2749.01

751.963 -688.511 0
-688.511 2659.4 0
0 0 1023.41

-9178.99 -2157.23 0
-2157.23 1040.31 0
0 0 -2441.6

-4798.39 440.229 0
440.229 -343.874 0
0 0 -1542.68

2251.45 -2757.58 0
-2757.58 1895.01 0
0 0 1243.94

-4681.84 64.8778 0
64.8778 -1312.67 0
0 0 -1798.35

1154.41 -593.064 0
-593.064 1741.56 0
0 0 868.79

2675.11 -2340.78 0
-2340.78 1296.77 0
0 0 1191.56

-4804.73 -356.797 0
-356.797 -2832.01 0
0 0 -2291.02

-5356.23 5523.92 0
5523.92 -2511.01 0
0 0 -2360.17

2894.58 998.594 0
998.594 -1465.09 0
0 0 428.848

990.657 -5780.36 0
-5780.36 3944.35 0
0 0 1480.5

-2397.14 6698.7 0
6698.7 3967.39 0
0 0 471.075

-7168.17 1682.04 0
1682.04 3750.56 0
0 0 -1025.28

-1116.78 -242.473 0
-242.473 -279.547 0
0 0 -418.9

206.391 961.59 0
961.59 3372.3 0
0 0 1073.61

4942.91 6267.68 0
6267.68 4450.32 0
0 0 2817.97

-851.125 -1929.83 0
-1929.83 -424.065 0
0 0 -382.557

95.2932 -1868.83 0
-1868.83 300.822 0
0 0 118.834

4254.16 2702.91 0
2702.91 4289.34 0
0 0 2563.05

-526.291 311.296 0
311.296 1056.75 0
0 0 159.138

-3166.66 442.818 0
442.818 -3547.43 0
0 0 -2014.23

-1608.12 -449.855 0
-449.855 -286.913 0
0 0 -568.51

-2541.39 -3237.09 0
-3237.09 -153.645 0
0 0 -808.509

-4387.98 -915.999 0
-915.999 119.215 0
0 0 -1280.63

-883.556 1311.03 0
1311.03 624.032 0
0 0 -77.8572

603.459 -1280.98 0
-1280.98 1428.17 0
0 0 609.49

-4260.89 -2620.7 0
-2620.7 -784.435 0
0 0 -1513.6

-6976.1 -1112.53 0
-1112.53 -747.499 0
0 0 -2317.08

-1668.18 319.861 0
319.861 945.9 0
0 0 -216.684

-2071.96 -2399.1 0
-2399.1 -6045.91 0
0 0 -2435.36

-690.824 -2488.22 0
-2488.22 -3013.19 0
0 0 -1111.2

-3413.21 -2652.13 0
-2652.13 -95.6953 0
0 0 -1052.67

89.1647 74.4057 0
74.4057 295.564 0
0 0 115.419

TENSORS velocity_gradient double
-2.89075 -1.75662 0
-0.264148 -0.631931 0
0 0 0

-0.608653 -0.5918 0
4.58752 0.254764 0
0 0 0

-2.00067 -1.3685 0
2.41342 -1.9183 0
0 0 0

-1.24184 -0.450919 0
4.1832 0.234735 0
0 0 0

-0.334274 0.124187 0
4.75842 0.700715 0
0 0 0

0.525276 0.413028 0
0.387669 0.0334742 0
0 0 0

-0.29359 0.277217 0
3.04572 0.640253 0
0 0 0

0.450043 0.435169 0
1.52597 -0.301528 0
0 0 0

2.09845 -3.33093 0
0.231509 -1.19294 0
0 0 0

1.21545 -1.56344 0
-0.966635 -1.01047 0
0 0 0

0.669388 0.524636 0
0.467756 -1.2681 0
0 0 0

1.426 0.800511 0
-1.28734 -1.22242 0
0 0 0

1.07512 -2.24751 0
-0.90412 -0.705718 0
0 0 0

1.30659 -1.65553 0
0.659475 -0.768395 0
0 0 0

1.22336 0.436296 0
-0.961902 -0.778133 0
0 0 0

-0.735464 -0.733782 0
1.09646 -0.822231 0
0 0 0

-0.791624 -1.52257 0
4.05059 -1.61615 0
0 0 0

-1.0093 -2.07605 0
4.06054 -1.59083 0
0 0 0

-0.367936 -3.61629 0
4.00866 -1.47819 0
0 0 0

-0.445818 -2.18392 0
4.03477 -1.5859 0
0 0 0

0.224435 -2.25327 0
2.27241 -1.46845 0
0 0 0

0.305045 -1.78944 0
2.32675 -1.14384 0
0 0 0

-0.139452 -2.17394 0
1.95761 -1.39982 0
0 0 0

-0.0349848 -1.82555 0
2.04798 -1.09842 0
0 0 0

0.86168 0.44249 0
-1.44877 -1.36804 0
0 0 0

1.09125 0.909366 0
-1.62783 -1.1117 0
0 0 0

0.608374 -1.50681 0
-1.81917 -0.99369 0
0 0 0

0.72574 -1.22984 0
-1.86204 -1.09487 0
0 0 0

0.23399 1.12224 0
-0.366857 -0.684737 0
0 0 0

-0.584372 0.486531 0
0.622237 -0.0345944 0
0 0 0

0.221073 -0.501548 0
-0.00827767 -1.06829 0
0 0 0

0.113453 -0.0963785 0
0.0262294 -0.32472 0
0 0 0

-0.590644 -5.18169 0
3.8756 -1.33469 0
0 0 0

-0.571403 -4.8394 0
3.25086 -1.12426 0
0 0 0

-0.802844 -2.84047 0
3.72758 -0.534954 0
0 0 0

-1.58892 -4.67845 0
0.642869 -0.925513 0
0 0 0

-0.704614 -4.09738 0
1.23563 -0.0737635 0
0 0 0

-0.480641 -2.74342 0
1.5555 0.610112 0
0 0 0

-1.64081 -3.88508 0
-0.175574 0.246247 0
0 0 0

-1.1836 -2.9541 0
-0.16896 1.39443 0
0 0 0

0.315746 -1.44314 0
-1.71227 -1.01695 0
0 0 0

0.413036 -1.17562 0
-1.74781 -1.11467 0
0 0 0

-0.447258 -2.00437 0
-1.06788 0.864762 0
0 0 0

-0.141407 -1.12939 0
-1.07146 0.0656678 0
0 0 0

0.442511 -1.14265 0
0.282193 -1.35922 0
0 0 0

0.398719 -1.32186 0
0.193647 -1.72158 0
0 0 0

0.548969 -0.795963 0
0.687647 -0.658697 0
0 0 0

0.885294 -1.09943 0
1.13793 -1.61175 0
0 0 0

-0.344912 -0.705547 0
3.58492 0.267428 0
0 0 0

-1.85045 -1.33981 0
-1.29184 0.491224 0
0 0 0

0.123631 -1.58206 0
2.96596 -0.275303 0
0 0 0

-1.16713 -1.5842 0
-1.63546 0.614123 0
0 0 0

-1.989 -1.99663 0
-1.22217 0.821519 0
0 0 0

-1.5951 -2.66605 0
0.0388405 1.23361 0
0 0 0

-1.2808 -2.25403 0
-1.5783 0.950956 0
0 0 0

-1.13391 -2.87849 0
0.174495 1.06048 0
0 0 0

-1.42024 -1.72453 0
-0.18297 0.610251 0
0 0 0

-0.21949 -0.934051 0
0.739885 -0.131879 0
0 0 0

-1.34794 -3.47452 0
0.16639 1.03791 0
0 0 0

-1.08455 -2.71969 0
1.5757 0.871893 0
0 0 0

0.297427 -0.619751 0
1.06626 -0.528019 0
0 0 0

1.36904 -0.0991382 0
3.04309 -0.442856 0
0 0 0

-0.311846 -0.48117 0
1.42972 0.0592086 0
0 0 0

0.251239 0.311791 0
1.86735 -0.046953 0
0 0 0

SCALARS active double 1
LOOKUP_TABLE default
1
1
1
1
1
1
1
1
1
1
1
1
1
1
1
1
1
1
1
1
1
1
1
1
1
1
1
1
1
1
1
1
1
1
1
1
1
1
1
1
1
1
1
1
1
1
1
1
1
1
1
1
1
1
1
1
1
1
1
1
1
1
1
1
SCALARS extent double 1
LOOKUP_TABLE default
0.0125
0.0125
0.0125
0.0125
0.0125
0.0125
0.0125
0.0125
0.0125
0.0125
0.0125
0.0125
0.0125
0.0125
0.0125
0.0125
0.0125
0.0125
0.0125
0.0125
0.0125
0.0125
0.0125
0.0125
0.0125
0.0125
0.0125
0.0125
0.0125
0.0125
0.0125
0.0125
0.0125
0.0125
0.0125
0.0125
0.0125
0.0125
0.0125
0.0125
0.0125
0.0125
0.0125
0.0125
0.0125
0.0125
0.0125
0.0125
0.0125
0.0125
0.0125
0.0125
0.0125
0.0125
0.0125
0.0125
0.0125
0.0125
0.0125
0.0125
0.0125
0.0125
0.0125
0.0125
SCALARS pressure double 1
LOOKUP_TABLE default
251.882
3273.16
3452.3
-394.843
-432.017
-2877.55
2316.41
-356.705
2473.65
-270.113
4984.33
1564.63
1164.71
681.833
2161.52
-855.105
1708.34
1513.02
3063.84
-3490.06
2612.51
-1889.51
4124.83
3585.12
-515.089
535.565
4237.42
-326.893
-3738.3
-492.56
3970.79
-1478.26
3526.76
2228.31
-1796.8
2597.62
-1254.92
-1721.15
3309.26
3409.14
-619.447
-2138.5
-680.442
1480.96
605.077
-1550.76
-4070.4
552.582
-171.65
-3702.18
-229.866
2909.44
821.181
1167.85
1849.8
112.46
-880.374
2186.31
3346.89
312.989
3517.75
1605.07
1520.53
-166.716
SCALARS density double 1
LOOKUP_TABLE default
1003.03
1040.06
1042.3
995.273
994.829
966.059
1028.19
995.729
1030.13
996.764
1061.64
1018.95
1014.07
1008.22
1026.28
989.791
1020.71
1018.32
1037.45
958.984
1031.85
977.581
1050.74
1043.96
993.838
1006.45
1052.16
996.085
956.132
994.107
1048.8
982.417
1043.23
1027.1
978.669
1031.66
985.054
979.558
1040.51
1041.76
992.594
974.664
991.868
1017.93
1007.29
981.563
952.329
1006.65
997.942
956.546
997.245
1035.53
1009.9
1014.11
1022.45
1001.35
989.491
1026.58
1040.98
1003.76
1043.12
1019.45
1018.41
998.001
