# vtk DataFile Version 3.0
Frame: 40, Time: 0.667
ASCII
DATASET UNSTRUCTURED_GRID
POINTS 64 double
0.42711 0.0530607 0 
0.402689 0.0530452 0 
0.424117 0.0800407 0 
0.399144 0.0796287 0 
0.378533 0.0519141 0 
0.353278 0.051011 0 
0.376763 0.0771664 0 
0.351825 0.0759424 0 
0.329313 0.0511021 0 
0.305455 0.0472882 0 
0.325874 0.0766591 0 
0.301222 0.0724787 0 
0.278516 0.0475295 0 
0.254343 0.045447 0 
0.274618 0.0717783 0 
0.250766 0.0687102 0 
0.419719 0.106537 0 
0.394771 0.104529 0 
0.420736 0.130935 0 
0.394593 0.128436 0 
0.372347 0.102198 0 
0.348644 0.101445 0 
0.370902 0.12764 0 
0.347194 0.126969 0 
0.322821 0.100023 0 
0.298433 0.0954776 0 
0.321949 0.124953 0 
0.296368 0.121819 0 
0.273108 0.0961656 0 
0.246862 0.0957228 0 
0.270951 0.121402 0 
0.246221 0.120312 0 
0.419261 0.15683 0 
0.394086 0.152346 0 
0.41764 0.181723 0 
0.392697 0.17814 0 
0.369768 0.151435 0 
0.345198 0.152203 0 
0.369535 0.177319 0 
0.344368 0.178776 0 
0.320559 0.150404 0 
0.296202 0.14749 0 
0.318223 0.175438 0 
0.294622 0.174039 0 
0.270546 0.145937 0 
0.245385 0.14462 0 
0.268948 0.173008 0 
0.242493 0.170694 0 
0.417602 0.205899 0 
0.392114 0.202587 0 
0.412797 0.230532 0 
0.38852 0.228992 0 
0.368735 0.203888 0 
0.343265 0.202916 0 
0.364768 0.230483 0 
0.340056 0.228185 0 
0.317377 0.199523 0 
0.293388 0.199807 0 
0.315478 0.226557 0 
0.291632 0.22641 0 
0.268864 0.197788 0 
0.242355 0.195444 0 
0.267591 0.222685 0 
0.242533 0.221327 0 
CELLS 64 128
1 0
1 1
1 2
1 3
1 4
1 5
1 6
1 7
1 8
1 9
1 10
1 11
1 12
1 13
1 14
1 15
1 16
1 17
1 18
1 19
1 20
1 21
1 22
1 23
1 24
1 25
1 26
1 27
1 28
1 29
1 30
1 31
1 32
1 33
1 34
1 35
1 36
1 37
1 38
1 39
1 40
1 41
1 42
1 43
1 44
1 45
1 46
1 47
1 48
1 49
1 50
1 51
1 52
1 53
1 54
1 55
1 56
1 57
1 58
1 59
1 60
1 61
1 62
1 63
CELL_TYPES 64
1
1
1
1
1
1
1
1
1
1
1
1
1
1
1
1
1
1
1
1
1
1
1
1
1
1
1
1
1
1
1
1
1
1
1
1
1
1
1
1
1
1
1
1
1
1
1
1
1
1
1
1
1
1
1
1
1
1
1
1
1
1
1
1
POINT_DATA 64
VECTORS displacement double
0.0146104 -0.359439 0 
-0.00981118 -0.384455 0 
-0.0133826 -0.332459 0 
-0.0383565 -0.357871 0 
-0.0339671 -0.410586 0 
-0.0592223 -0.436489 0 
-0.0607372 -0.385334 0 
-0.0856747 -0.411558 0 
-0.0831872 -0.461398 0 
-0.107045 -0.490212 0 
-0.111626 -0.435841 0 
-0.136278 -0.465021 0 
-0.133984 -0.514971 0 
-0.158157 -0.542053 0 
-0.162882 -0.490722 0 
-0.186734 -0.51879 0 
-0.0427805 -0.305963 0 
-0.0677287 -0.332971 0 
-0.0667644 -0.281565 0 
-0.0929074 -0.309064 0 
-0.0901532 -0.360302 0 
-0.113856 -0.386055 0 
-0.116598 -0.33486 0 
-0.140306 -0.360531 0 
-0.139679 -0.412477 0 
-0.164067 -0.442022 0 
-0.165551 -0.387547 0 
-0.191132 -0.415681 0 
-0.189392 -0.466334 0 
-0.215638 -0.491777 0 
-0.216549 -0.441098 0 
-0.241279 -0.467188 0 
-0.093239 -0.25567 0 
-0.118414 -0.285154 0 
-0.11986 -0.230777 0 
-0.144803 -0.25936 0 
-0.142732 -0.311065 0 
-0.167302 -0.335297 0 
-0.167965 -0.285181 0 
-0.193132 -0.308724 0 
-0.191941 -0.362096 0 
-0.216298 -0.39001 0 
-0.219277 -0.337062 0 
-0.242878 -0.363461 0 
-0.241954 -0.416563 0 
-0.267115 -0.44288 0 
-0.268552 -0.389492 0 
-0.295007 -0.416806 0 
-0.144898 -0.206601 0 
-0.170386 -0.234913 0 
-0.174703 -0.181968 0 
-0.19898 -0.208508 0 
-0.193765 -0.258612 0 
-0.219235 -0.284584 0 
-0.222732 -0.232017 0 
-0.247444 -0.259315 0 
-0.245123 -0.312977 0 
-0.269112 -0.337693 0 
-0.272022 -0.285943 0 
-0.295868 -0.31109 0 
-0.293636 -0.364712 0 
-0.320145 -0.392056 0 
-0.319909 -0.339815 0 
-0.344967 -0.366173 0 
VECTORS velocity double
-0.677733 1.06701 0 
-0.754741 1.07075 0 
-0.675406 0.890649 0 
-0.80241 0.975851 0 
0.162223 0.597876 0 
-1.44083 0.451029 0 
0.130288 0.497335 0 
-0.325395 1.03932 0 
-0.405133 0.225862 0 
-0.269685 0.464903 0 
0.17197 1.28545 0 
-0.468903 1.20237 0 
-0.305151 0.672897 0 
0.114759 0.59455 0 
-0.371102 1.00965 0 
-0.468913 0.834318 0 
-0.110717 0.833238 0 
-0.737303 0.866487 0 
-0.538395 0.984855 0 
-0.932307 0.649238 0 
-0.184372 0.984351 0 
-0.181193 1.21497 0 
-0.711088 1.24498 0 
-1.01024 1.30696 0 
-0.421383 0.983362 0 
-0.85852 0.69887 0 
-0.933603 0.967017 0 
-0.916841 1.10806 0 
-0.429622 0.927508 0 
-0.519611 0.808599 0 
-0.24532 1.79406 0 
-0.811113 0.988755 0 
-0.932794 1.11327 0 
-0.774132 0.951258 0 
-0.969581 0.852722 0 
-0.635888 1.48126 0 
-0.381224 1.44339 0 
-0.460067 1.33879 0 
-0.803389 1.46154 0 
-1.11512 1.4629 0 
-0.125974 1.03505 0 
-0.194039 1.12018 0 
-0.855366 1.52039 0 
-1.27715 1.423 0 
-0.430187 1.10456 0 
-0.641209 0.554519 0 
-1.16676 1.72472 0 
-0.716654 1.05803 0 
-0.35001 1.16531 0 
-0.473048 1.14423 0 
-0.223444 1.20077 0 
-0.37827 1.05216 0 
-0.514516 1.05884 0 
-0.490793 1.60562 0 
-0.419783 1.54173 0 
-0.54126 1.59039 0 
-0.513465 1.56185 0 
-0.78613 0.984705 0 
-0.974341 1.16821 0 
-0.916779 1.2564 0 
-0.440595 1.23048 0 
-1.40739 0.609708 0 
-1.19354 1.02673 0 
-1.4373 0.644881 0 
SCALARS mass double 1
LOOKUP_TABLE default
0.625
0.625
0.625
0.625
0.625
0.625
0.625
0.625
0.625
0.625
0.625
0.625
0.625
0.625
0.625
0.625
0.625
0.625
0.625
0.625
0.625
0.625
0.625
0.625
0.625
0.625
0.625
0.625
0.625
0.625
0.625
0.625
0.625
0.625
0.625
0.625
0.625
0.625
0.625
0.625
0.625
0.625
0.625
0.625
0.625
0.625
0.625
0.625
0.625
0.625
0.625
0.625
0.625
0.625
0.625
0.625
0.625
0.625
0.625
0.625
0.625
0.625
0.625
0.625
SCALARS volume double 1
LOOKUP_TABLE default
0.000671534
0.000611683
0.000658645
0.000627906
0.000635367
0.000660792
0.000587647
0.000636921
0.000603149
0.000597356
0.000608852
0.000609767
0.000625449
0.000585576
0.000623148
0.000628655
0.000637857
0.000611597
0.00067278
0.000660909
0.00060941
0.00068032
0.00058484
0.000597898
0.000663851
0.000608175
0.000620285
0.000641679
0.000633963
0.000618949
0.000603659
0.000633309
0.000632506
0.000637336
0.000626536
0.000609248
0.00064335
0.000627362
0.000647224
0.000610736
0.000650092
0.00066087
0.000623784
0.000619519
0.000626415
0.000630366
0.000647152
0.00063097
0.000630788
0.000634204
0.000626343
0.000620056
0.000623064
0.000622676
0.000619099
0.000615657
0.000630346
0.000624199
0.00062763
0.000604937
0.000628025
0.000634489
0.000634915
0.000623663
VECTORS momentum double
-0.423583 0.666883 0 
-0.471713 0.669219 0 
-0.422129 0.556656 0 
-0.501506 0.609907 0 
0.101389 0.373673 0 
-0.900519 0.281893 0 
0.0814303 0.310834 0 
-0.203372 0.649575 0 
-0.253208 0.141164 0 
-0.168553 0.290564 0 
0.107481 0.803406 0 
-0.293064 0.751482 0 
-0.190719 0.420561 0 
0.0717242 0.371594 0 
-0.231939 0.631029 0 
-0.293071 0.521449 0 
-0.0691979 0.520774 0 
-0.460814 0.541554 0 
-0.336497 0.615535 0 
-0.582692 0.405773 0 
-0.115233 0.615219 0 
-0.113246 0.759359 0 
-0.44443 0.778115 0 
-0.6314 0.81685 0 
-0.263364 0.614601 0 
-0.536575 0.436794 0 
-0.583502 0.604386 0 
-0.573026 0.692536 0 
-0.268513 0.579692 0 
-0.324757 0.505374 0 
-0.153325 1.12129 0 
-0.506945 0.617972 0 
-0.582996 0.695797 0 
-0.483832 0.594536 0 
-0.605988 0.532952 0 
-0.39743 0.925789 0 
-0.238265 0.902119 0 
-0.287542 0.836746 0 
-0.502118 0.91346 0 
-0.696948 0.914312 0 
-0.078734 0.646908 0 
-0.121274 0.700111 0 
-0.534603 0.950241 0 
-0.798218 0.889373 0 
-0.268867 0.69035 0 
-0.400756 0.346575 0 
-0.729224 1.07795 0 
-0.447909 0.661272 0 
-0.218756 0.728319 0 
-0.295655 0.715144 0 
-0.139653 0.750482 0 
-0.236419 0.657602 0 
-0.321573 0.661777 0 
-0.306746 1.00351 0 
-0.262364 0.963584 0 
-0.338287 0.993997 0 
-0.320916 0.976159 0 
-0.491331 0.615441 0 
-0.608963 0.730132 0 
-0.572987 0.785251 0 
-0.275372 0.76905 0 
-0.879617 0.381068 0 
-0.745963 0.641708 0 
-0.898311 0.403051 0 
VECTORS body_force double
0 -9.81 0 
0 -9.81 0 
0 -9.81 0 
0 -9.81 0 
0 -9.81 0 
0 -9.81 0 
0 -9.81 0 
0 -9.81 0 
0 -9.81 0 
0 -9.81 0 
0 -9.81 0 
0 -9.81 0 
0 -9.81 0 
0 -9.81 0 
0 -9.81 0 
0 -9.81 0 
0 -9.81 0 
0 -9.81 0 
0 -9.81 0 
0 -9.81 0 
0 -9.81 0 
0 -9.81 0 
0 -9.81 0 
0 -9.81 0 
0 -9.81 0 
0 -9.81 0 
0 -9.81 0 
0 -9.81 0 
0 -9.81 0 
0 -9.81 0 
0 -9.81 0 
0 -9.81 0 
0 -9.81 0 
0 -9.81 0 
0 -9.81 0 
0 -9.81 0 
0 -9.81 0 
0 -9.81 0 
0 -9.81 0 
0 -9.81 0 
0 -9.81 0 
0 -9.81 0 
0 -9.81 0 
0 -9.81 0 
0 -9.81 0 
0 -9.81 0 
0 -9.81 0 
0 -9.81 0 
0 -9.81 0 
0 -9.81 0 
0 -9.81 0 
0 -9.81 0 
0 -9.81 0 
0 -9.81 0 
0 -9.81 0 
0 -9.81 0 
0 -9.81 0 
0 -9.81 0 
0 -9.81 0 
0 -9.81 0 
0 -9.81 0 
0 -9.81 0 
0 -9.81 0 
0 -9.81 0 
TENSORS cauchy_stress double
4758.83 3268.39 0
3268.39 9051.42 0
0 0 4143.08

-8220.96 -5908.1 0
-5908.1 4079.26 0
0 0 -1242.51

-1190.48 -2895.14 0
-2895.14 11273.7 0
0 0 3024.95

-3951.64 -394.45 0
-394.45 4843.84 0
0 0 267.659

-1597.39 -1036.13 0
-1036.13 4761.09 0
0 0 949.111

6319.71 -5378.16 0
-5378.16 4389.43 0
0 0 3212.74

-9534.98 3435.36 0
3435.36 -2315.87 0
0 0 -3555.25

3559.21 -10088.8 0
-10088.8 74.3061 0
0 0 1090.06

-7485.64 -6146.68 0
-6146.68 642.068 0
0 0 -2053.07

-2139.1 -4574.49 0
-4574.49 -6560.44 0
0 0 -2609.86

-724.583 -1339.88 0
-1339.88 -4309.37 0
0 0 -1510.19

-2257.69 -2289.04 0
-2289.04 -2487.47 0
0 0 -1423.55

3716.07 -3704.61 0
-3704.61 -3578.01 0
0 0 41.4171

-3003.5 -5449.27 0
-5449.27 -9526.41 0
0 0 -3758.97

373.164 -1859.54 0
-1859.54 -943.917 0
0 0 -171.226

684.989 955.986 0
955.986 436.324 0
0 0 336.394

-4031.25 -691.55 0
-691.55 7947.05 0
0 0 1174.74

-108.056 -3049.08 0
-3049.08 -4060.66 0
0 0 -1250.61

5383.8 -1366.87 0
-1366.87 8782.97 0
0 0 4250.03

9608.75 -3295.46 0
-3295.46 1134.36 0
0 0 3222.93

-7046.77 539.957 0
539.957 2189.14 0
0 0 -1457.29

3933.6 -10354.7 0
-10354.7 12376.4 0
0 0 4892.99

-7994.69 277.397 0
277.397 -4777.2 0
0 0 -3831.57

-4555.14 -4455.6 0
-4455.6 -3970.01 0
0 0 -2557.55

6603.4 -7290.54 0
-7290.54 4993.98 0
0 0 3479.21

-7030.06 -282.64 0
-282.64 1782.17 0
0 0 -1574.37

-1371.49 4346.56 0
4346.56 -84.6353 0
0 0 -436.836

4458.57 2632.39 0
2632.39 606.031 0
0 0 1519.38

2815.08 -545.762 0
-545.762 -76.6971 0
0 0 821.516

86.6957 898.117 0
898.117 -1957.75 0
0 0 -561.316

-2833.85 1610.05 0
1610.05 -3847.35 0
0 0 -2004.36

1650.23 385.654 0
385.654 889.571 0
0 0 761.939

-2072.5 -1989.58 0
-1989.58 4368.42 0
0 0 688.775

1846.38 -2048.2 0
-2048.2 1912.46 0
0 0 1127.65

-2089.38 -204.419 0
-204.419 2561.33 0
0 0 141.584

-4969.83 431.844 0
431.844 61.0091 0
0 0 -1472.65

2654.13 -3139.54 0
-3139.54 2910.6 0
0 0 1669.42

-3091.96 -8694.96 0
-8694.96 3817.25 0
0 0 217.588

1670.21 534.604 0
534.604 5049.05 0
0 0 2015.78

-424.936 3910.26 0
3910.26 -4014.85 0
0 0 -1331.94

6626.69 -4750.76 0
-4750.76 942.934 0
0 0 2270.89

6110.75 -8213.05 0
-8213.05 4621.17 0
0 0 3219.58

1710.34 7350.71 0
7350.71 -2084.77 0
0 0 -112.33

-3012.33 2280.16 0
2280.16 1318.44 0
0 0 -508.167

677.155 -2417.4 0
-2417.4 -242.183 0
0 0 130.492

942.979 1329.17 0
1329.17 701.107 0
0 0 493.226

6147.81 5416.23 0
5416.23 550.321 0
0 0 2009.44

811.504 -922.798 0
-922.798 1016.57 0
0 0 548.423

35.4911 677.664 0
677.664 1737.32 0
0 0 531.844

1164.79 -678.569 0
-678.569 1646.41 0
0 0 843.36

-1020.54 515.807 0
515.807 1433.26 0
0 0 123.817

-2717.46 -2254.02 0
-2254.02 1190.16 0
0 0 -458.192

-455.411 -2475.11 0
-2475.11 -141.187 0
0 0 -178.979

-994.459 -5026.49 0
-5026.49 277.9 0
0 0 -214.968

-3545.98 -2796.37 0
-2796.37 1721.6 0
0 0 -547.316

-2598.69 -1880.14 0
-1880.14 -297.727 0
0 0 -868.926

1263.76 -11.0726 0
-11.0726 374.194 0
0 0 491.385

-3613.38 -5063.49 0
-5063.49 3366.87 0
0 0 -73.9549

-1586.99 2368.28 0
2368.28 2394.38 0
0 0 242.216

-4272.34 -808.188 0
-808.188 -2002.1 0
0 0 -1882.33

1599.49 -656.117 0
-656.117 -670.932 0
0 0 278.567

1340.23 -1093.05 0
-1093.05 1557.4 0
0 0 869.287

-533.448 1359.53 0
1359.53 3560.24 0
0 0 908.037

-1145.07 -208.465 0
-208.465 733.187 0
0 0 -123.564

TENSORS velocity_gradient double
-3.03621 -2.05654 0
3.99937 4.49509 0
0 0 0

-2.1742 -3.18392 0
4.01408 5.10921 0
0 0 0

-0.250849 2.54427 0
2.06941 -3.37231 0
0 0 0

-0.50192 0.150051 0
0.812727 -0.911537 0
0 0 0

0.487533 -3.79224 0
4.10281 8.15332 0
0 0 0

-0.144814 -4.06539 0
3.07054 10.2235 0
0 0 0

-0.568791 0.742441 0
0.122267 2.98638 0
0 0 0

-0.546144 1.64311 0
0.178376 7.19496 0
0 0 0

-2.74708 -4.38199 0
-1.22851 10.1827 0
0 0 0

-2.83368 -6.55291 0
-1.23074 12.4897 0
0 0 0

-0.548677 -0.459367 0
-0.156869 6.87847 0
0 0 0

-1.32028 -3.01834 0
-0.254306 5.7094 0
0 0 0

-3.08909 -5.60219 0
-0.158266 12.4159 0
0 0 0

-2.22083 -4.44282 0
-0.00401581 14.0118 0
0 0 0

-1.93998 -5.17533 0
-0.0566518 5.36593 0
0 0 0

-0.289722 -6.61251 0
0.199213 5.31208 0
0 0 0

1.73942 -5.41656 0
-0.00513167 3.64897 0
0 0 0

-1.28486 -3.40457 0
-3.51739 3.87944 0
0 0 0

0.0209686 -5.87006 0
-1.34337 3.91561 0
0 0 0

-1.75341 -4.30229 0
-3.73122 4.99278 0
0 0 0

-1.63398 -2.01539 0
-3.81854 4.4216 0
0 0 0

0.213343 -1.21407 0
-1.05678 5.92817 0
0 0 0

-2.00372 -3.99832 0
-4.07474 4.81577 0
0 0 0

0.00671694 -3.60651 0
-0.480577 4.61409 0
0 0 0

1.53266 -1.5622 0
0.916354 5.78916 0
0 0 0

0.483823 -3.18199 0
0.392431 5.5442 0
0 0 0

1.02525 -2.6048 0
1.1922 4.49787 0
0 0 0

0.840306 -1.82441 0
1.37453 4.11368 0
0 0 0

-0.124193 -4.93022 0
0.133703 5.05454 0
0 0 0

0.242796 -6.29651 0
-0.0770543 5.00509 0
0 0 0

0.724344 -2.27352 0
1.41708 2.59135 0
0 0 0

-0.0737402 -2.63355 0
1.2897 0.916496 0
0 0 0

-1.17117 4.07363 0
-2.53064 1.53904 0
0 0 0

-1.80802 0.130268 0
-3.80111 3.12298 0
0 0 0

-0.151048 4.39432 0
-2.97212 1.47107 0
0 0 0

0.337955 2.98205 0
-4.23546 1.88338 0
0 0 0

-1.91442 -1.51959 0
-3.92774 3.45978 0
0 0 0

-0.091777 -2.33363 0
0.46733 3.34744 0
0 0 0

0.249597 0.751799 0
-4.22246 2.21143 0
0 0 0

1.54226 -1.48897 0
1.04852 2.41696 0
0 0 0

0.243419 -2.75908 0
1.3215 3.47071 0
0 0 0

1.07901 -2.40171 0
2.64041 3.58907 0
0 0 0

1.46379 -3.17892 0
1.60869 2.10228 0
0 0 0

2.95607 -4.77207 0
4.4803 1.48966 0
0 0 0

1.28614 -2.6578 0
2.97872 2.33605 0
0 0 0

-0.350341 -2.63589 0
3.25613 0.859102 0
0 0 0

3.11543 -6.80407 0
4.84109 -0.261049 0
0 0 0

0.0826241 -8.68195 0
5.36098 -2.1468 0
0 0 0

0.590433 5.01346 0
-3.16748 0.778392 0
0 0 0

2.40963 4.23204 0
-4.48764 0.851636 0
0 0 0

0.429853 5.13741 0
-2.62154 0.569242 0
0 0 0

3.19697 4.98878 0
-4.27312 0.145486 0
0 0 0

2.48094 3.39577 0
-4.48988 0.614775 0
0 0 0

3.3576 1.5462 0
1.96285 0.600163 0
0 0 0

3.22902 4.44252 0
-4.25866 -0.100964 0
0 0 0

5.92134 3.11488 0
3.0196 -0.636337 0
0 0 0

3.09087 -1.81705 0
1.97548 0.803638 0
0 0 0

5.10624 -3.54985 0
6.41333 -0.0250567 0
0 0 0

5.75841 0.558698 0
2.95671 -1.62288 0
0 0 0

6.76739 -1.55709 0
7.32906 -2.43117 0
0 0 0

5.0603 -5.86815 0
6.50819 -0.873143 0
0 0 0

1.21649 -8.42747 0
7.16927 -2.18579 0
0 0 0

6.56868 -2.89031 0
7.25633 -2.91914 0
0 0 0

3.22275 -4.47478 0
6.34023 -2.9039 0
0 0 0

SCALARS active double 1
LOOKUP_TABLE default
1
1
1
1
1
1
1
1
1
1
1
1
1
1
1
1
1
1
1
1
1
1
1
1
1
1
1
1
1
1
1
1
1
1
1
1
1
1
1
1
1
1
1
1
1
1
1
1
1
1
1
1
1
1
1
1
1
1
1
1
1
1
1
1
SCALARS extent double 1
LOOKUP_TABLE default
0.0125
0.0125
0.0125
0.0125
0.0125
0.0125
0.0125
0.0125
0.0125
0.0125
0.0125
0.0125
0.0125
0.0125
0.0125
0.0125
0.0125
0.0125
0.0125
0.0125
0.0125
0.0125
0.0125
0.0125
0.0125
0.0125
0.0125
0.0125
0.0125
0.0125
0.0125
0.0125
0.0125
0.0125
0.0125
0.0125
0.0125
0.0125
0.0125
0.0125
0.0125
0.0125
0.0125
0.0125
0.0125
0.0125
0.0125
0.0125
0.0125
0.0125
0.0125
0.0125
0.0125
0.0125
0.0125
0.0125
0.0125
0.0125
0.0125
0.0125
0.0125
0.0125
0.0125
0.0125
SCALARS pressure double 1
LOOKUP_TABLE default
-5984.44
1794.73
-4369.38
-386.618
-1370.94
-4640.63
5135.37
-1574.53
2965.55
3769.8
2181.38
2056.24
-59.8247
5429.63
247.326
-485.902
-1696.85
1806.44
-6138.94
-4655.35
2104.97
-7067.65
5534.48
3694.24
-5025.53
2274.09
630.986
-2194.66
-1186.63
810.789
2895.18
-1100.58
-994.897
-1628.83
-204.51
2127.15
-2411.38
-314.294
-2911.68
1923.91
-3280.17
-4650.5
162.254
734.019
-188.488
-712.437
-2902.52
-792.167
-768.219
-1218.19
-178.847
661.833
258.526
310.509
790.568
1255.12
-709.778
106.824
-349.868
2718.92
-402.374
-1255.64
-1311.61
178.481
SCALARS density double 1
LOOKUP_TABLE default
930.705
1021.77
948.918
995.371
983.683
945.835
1063.56
981.283
1036.23
1046.28
1026.52
1024.98
999.282
1067.33
1002.97
994.186
979.844
1021.91
928.981
945.668
1025.58
918.685
1068.67
1045.33
941.476
1027.66
1007.6
974.008
985.861
1009.78
1035.35
986.88
988.132
980.644
997.549
1025.85
971.478
996.236
965.663
1023.36
961.403
945.723
1001.95
1008.85
997.741
991.487
965.769
990.539
990.824
985.488
997.856
1007.97
1003.11
1003.73
1009.53
1015.18
991.519
1001.28
995.81
1033.17
995.183
985.045
984.384
1002.14
