# vtk DataFile Version 3.0
Frame: 6, Time: 0.1
ASCII
DATASET UNSTRUCTURED_GRID
POINTS 64 double
0.5125 0.561969 0 
0.5125 0.586969 0 
0.5375 0.561969 0 
0.5375 0.586969 0 
0.5125 0.611969 0 
0.5125 0.636969 0 
0.5375 0.611969 0 
0.5375 0.636969 0 
0.5125 0.661969 0 
0.5125 0.686969 0 
0.5375 0.661969 0 
0.5375 0.686969 0 
0.5125 0.711969 0 
0.5125 0.736969 0 
0.5375 0.711969 0 
0.5375 0.736969 0 
0.5625 0.561969 0 
0.5625 0.586969 0 
0.5875 0.561969 0 
0.5875 0.586969 0 
0.5625 0.611969 0 
0.5625 0.636969 0 
0.5875 0.611969 0 
0.5875 0.636969 0 
0.5625 0.661969 0 
0.5625 0.686969 0 
0.5875 0.661969 0 
0.5875 0.686969 0 
0.5625 0.711969 0 
0.5625 0.736969 0 
0.5875 0.711969 0 
0.5875 0.736969 0 
0.6125 0.561969 0 
0.6125 0.586969 0 
0.6375 0.561969 0 
0.6375 0.586969 0 
0.6125 0.611969 0 
0.6125 0.636969 0 
0.6375 0.611969 0 
0.6375 0.636969 0 
0.6125 0.661969 0 
0.6125 0.686969 0 
0.6375 0.661969 0 
0.6375 0.686969 0 
0.6125 0.711969 0 
0.6125 0.736969 0 
0.6375 0.711969 0 
0.6375 0.736969 0 
0.6625 0.561969 0 
0.6625 0.586969 0 
0.6875 0.561969 0 
0.6875 0.586969 0 
0.6625 0.611969 0 
0.6625 0.636969 0 
0.6875 0.611969 0 
0.6875 0.636969 0 
0.6625 0.661969 0 
0.6625 0.686969 0 
0.6875 0.661969 0 
0.6875 0.686969 0 
0.6625 0.711969 0 
0.6625 0.736969 0 
0.6875 0.711969 0 
0.6875 0.736969 0 
CELLS 64 128
1 0
1 1
1 2
1 3
1 4
1 5
1 6
1 7
1 8
1 9
1 10
1 11
1 12
1 13
1 14
1 15
1 16
1 17
1 18
1 19
1 20
1 21
1 22
1 23
1 24
1 25
1 26
1 27
1 28
1 29
1 30
1 31
1 32
1 33
1 34
1 35
1 36
1 37
1 38
1 39
1 40
1 41
1 42
1 43
1 44
1 45
1 46
1 47
1 48
1 49
1 50
1 51
1 52
1 53
1 54
1 55
1 56
1 57
1 58
1 59
1 60
1 61
1 62
1 63
CELL_TYPES 64
1
1
1
1
1
1
1
1
1
1
1
1
1
1
1
1
1
1
1
1
1
1
1
1
1
1
1
1
1
1
1
1
1
1
1
1
1
1
1
1
1
1
1
1
1
1
1
1
1
1
1
1
1
1
1
1
1
1
1
1
1
1
1
1
POINT_DATA 64
VECTORS displacement double
-1.54523e-17 -0.0505313 0 
-2.5129e-17 -0.0505313 0 
-1.83009e-17 -0.0505313 0 
-1.22123e-17 -0.0505313 0 
1.92529e-17 -0.0505313 0 
4.46054e-17 -0.0505313 0 
1.41031e-17 -0.0505313 0 
2.94324e-17 -0.0505313 0 
2.64528e-17 -0.0505313 0 
2.4471e-17 -0.0505313 0 
2.56471e-17 -0.0505313 0 
2.88206e-17 -0.0505313 0 
4.87373e-17 -0.0505313 0 
6.0968e-17 -0.0505313 0 
4.58184e-17 -0.0505313 0 
6.0328e-17 -0.0505313 0 
-1.7339e-17 -0.0505313 0 
-5.41382e-18 -0.0505313 0 
-1.25667e-17 -0.0505313 0 
-4.73356e-18 -0.0505313 0 
9.66057e-18 -0.0505313 0 
1.93705e-17 -0.0505313 0 
5.92535e-18 -0.0505313 0 
1.44198e-17 -0.0505313 0 
2.41317e-17 -0.0505313 0 
3.08723e-17 -0.0505313 0 
2.19068e-17 -0.0505313 0 
3.06259e-17 -0.0505313 0 
4.36848e-17 -0.0505313 0 
5.80224e-17 -0.0505313 0 
4.23365e-17 -0.0505313 0 
5.40511e-17 -0.0505313 0 
-9.3232e-18 -0.0505313 0 
-4.15143e-18 -0.0505313 0 
-7.60866e-18 -0.0505313 0 
-3.66746e-18 -0.0505313 0 
2.42224e-18 -0.0505313 0 
9.65473e-18 -0.0505313 0 
-8.48759e-19 -0.0505313 0 
5.07535e-18 -0.0505313 0 
1.98712e-17 -0.0505313 0 
3.05346e-17 -0.0505313 0 
1.8025e-17 -0.0505313 0 
3.05984e-17 -0.0505313 0 
4.07016e-17 -0.0505313 0 
4.98372e-17 -0.0505313 0 
3.87802e-17 -0.0505313 0 
4.53805e-17 -0.0505313 0 
-9.87953e-18 -0.0505313 0 
2.96182e-18 -0.0505313 0 
-1.61358e-17 -0.0505313 0 
1.57364e-17 -0.0505313 0 
-4.98141e-18 -0.0505313 0 
-4.85474e-18 -0.0505313 0 
-9.97572e-18 -0.0505313 0 
-2.01355e-17 -0.0505313 0 
1.68067e-17 -0.0505313 0 
3.29688e-17 -0.0505313 0 
1.62162e-17 -0.0505313 0 
3.76459e-17 -0.0505313 0 
3.60725e-17 -0.0505313 0 
4.22671e-17 -0.0505313 0 
3.25787e-17 -0.0505313 0 
4.04969e-17 -0.0505313 0 
VECTORS velocity double
1.18041e-14 -0.99081 0 
-1.12949e-14 -0.99081 0 
2.34056e-15 -0.99081 0 
-3.57724e-15 -0.99081 0 
-3.28996e-15 -0.99081 0 
7.00755e-15 -0.99081 0 
-1.38683e-15 -0.99081 0 
2.4333e-15 -0.99081 0 
3.07287e-15 -0.99081 0 
-1.10447e-15 -0.99081 0 
1.91757e-15 -0.99081 0 
-3.16815e-16 -0.99081 0 
-2.30749e-15 -0.99081 0 
-2.15469e-15 -0.99081 0 
-1.8133e-15 -0.99081 0 
-2.4861e-16 -0.99081 0 
-2.15524e-15 -0.99081 0 
-3.80815e-17 -0.99081 0 
-1.68335e-15 -0.99081 0 
-6.774e-16 -0.99081 0 
-3.49134e-16 -0.99081 0 
2.69172e-16 -0.99081 0 
-1.76869e-16 -0.99081 0 
5.15172e-16 -0.99081 0 
1.28682e-15 -0.99081 0 
4.26634e-16 -0.99081 0 
1.18061e-15 -0.99081 0 
1.12588e-15 -0.99081 0 
-8.8513e-16 -0.99081 0 
7.78017e-16 -0.99081 0 
4.77008e-16 -0.99081 0 
9.25189e-16 -0.99081 0 
-8.68777e-16 -0.99081 0 
-8.79841e-16 -0.99081 0 
2.88464e-16 -0.99081 0 
-6.45405e-16 -0.99081 0 
1.28124e-16 -0.99081 0 
6.70394e-16 -0.99081 0 
5.65844e-16 -0.99081 0 
7.34837e-16 -0.99081 0 
9.64553e-16 -0.99081 0 
1.66645e-15 -0.99081 0 
6.38646e-16 -0.99081 0 
2.04833e-15 -0.99081 0 
1.76896e-15 -0.99081 0 
1.25929e-15 -0.99081 0 
2.99073e-15 -0.99081 0 
1.78032e-15 -0.99081 0 
-3.45944e-15 -0.99081 0 
3.77827e-15 -0.99081 0 
-1.21125e-14 -0.99081 0 
1.23912e-14 -0.99081 0 
1.81721e-15 -0.99081 0 
-1.65024e-15 -0.99081 0 
3.88222e-15 -0.99081 0 
-6.48485e-15 -0.99081 0 
-2.95453e-16 -0.99081 0 
2.32361e-15 -0.99081 0 
-1.83774e-15 -0.99081 0 
2.49228e-15 -0.99081 0 
3.57431e-15 -0.99081 0 
2.91764e-15 -0.99081 0 
3.51971e-15 -0.99081 0 
4.67124e-15 -0.99081 0 
SCALARS mass double 1
LOOKUP_TABLE default
0.625
0.625
0.625
0.625
0.625
0.625
0.625
0.625
0.625
0.625
0.625
0.625
0.625
0.625
0.625
0.625
0.625
0.625
0.625
0.625
0.625
0.625
0.625
0.625
0.625
0.625
0.625
0.625
0.625
0.625
0.625
0.625
0.625
0.625
0.625
0.625
0.625
0.625
0.625
0.625
0.625
0.625
0.625
0.625
0.625
0.625
0.625
0.625
0.625
0.625
0.625
0.625
0.625
0.625
0.625
0.625
0.625
0.625
0.625
0.625
0.625
0.625
0.625
0.625
SCALARS volume double 1
LOOKUP_TABLE default
0.000625
0.000625
0.000625
0.000625
0.000625
0.000625
0.000625
0.000625
0.000625
0.000625
0.000625
0.000625
0.000625
0.000625
0.000625
0.000625
0.000625
0.000625
0.000625
0.000625
0.000625
0.000625
0.000625
0.000625
0.000625
0.000625
0.000625
0.000625
0.000625
0.000625
0.000625
0.000625
0.000625
0.000625
0.000625
0.000625
0.000625
0.000625
0.000625
0.000625
0.000625
0.000625
0.000625
0.000625
0.000625
0.000625
0.000625
0.000625
0.000625
0.000625
0.000625
0.000625
0.000625
0.000625
0.000625
0.000625
0.000625
0.000625
0.000625
0.000625
0.000625
0.000625
0.000625
0.000625
VECTORS momentum double
7.37754e-15 -0.619256 0 
-7.0593e-15 -0.619256 0 
1.46285e-15 -0.619256 0 
-2.23578e-15 -0.619256 0 
-2.05623e-15 -0.619256 0 
4.37972e-15 -0.619256 0 
-8.6677e-16 -0.619256 0 
1.52081e-15 -0.619256 0 
1.92055e-15 -0.619256 0 
-6.90292e-16 -0.619256 0 
1.19848e-15 -0.619256 0 
-1.98009e-16 -0.619256 0 
-1.44218e-15 -0.619256 0 
-1.34668e-15 -0.619256 0 
-1.13331e-15 -0.619256 0 
-1.55381e-16 -0.619256 0 
-1.34703e-15 -0.619256 0 
-2.38009e-17 -0.619256 0 
-1.05209e-15 -0.619256 0 
-4.23375e-16 -0.619256 0 
-2.18209e-16 -0.619256 0 
1.68232e-16 -0.619256 0 
-1.10543e-16 -0.619256 0 
3.21983e-16 -0.619256 0 
8.04262e-16 -0.619256 0 
2.66646e-16 -0.619256 0 
7.37882e-16 -0.619256 0 
7.03674e-16 -0.619256 0 
-5.53207e-16 -0.619256 0 
4.86261e-16 -0.619256 0 
2.9813e-16 -0.619256 0 
5.78243e-16 -0.619256 0 
-5.42986e-16 -0.619256 0 
-5.49901e-16 -0.619256 0 
1.8029e-16 -0.619256 0 
-4.03378e-16 -0.619256 0 
8.00773e-17 -0.619256 0 
4.18996e-16 -0.619256 0 
3.53652e-16 -0.619256 0 
4.59273e-16 -0.619256 0 
6.02846e-16 -0.619256 0 
1.04153e-15 -0.619256 0 
3.99154e-16 -0.619256 0 
1.28021e-15 -0.619256 0 
1.1056e-15 -0.619256 0 
7.87056e-16 -0.619256 0 
1.8692e-15 -0.619256 0 
1.1127e-15 -0.619256 0 
-2.16215e-15 -0.619256 0 
2.36142e-15 -0.619256 0 
-7.57031e-15 -0.619256 0 
7.74449e-15 -0.619256 0 
1.13576e-15 -0.619256 0 
-1.0314e-15 -0.619256 0 
2.42639e-15 -0.619256 0 
-4.05303e-15 -0.619256 0 
-1.84658e-16 -0.619256 0 
1.45226e-15 -0.619256 0 
-1.14859e-15 -0.619256 0 
1.55768e-15 -0.619256 0 
2.23394e-15 -0.619256 0 
1.82352e-15 -0.619256 0 
2.19982e-15 -0.619256 0 
2.91952e-15 -0.619256 0 
VECTORS body_force double
0 -9.81 0 
0 -9.81 0 
0 -9.81 0 
0 -9.81 0 
0 -9.81 0 
0 -9.81 0 
0 -9.81 0 
0 -9.81 0 
0 -9.81 0 
0 -9.81 0 
0 -9.81 0 
0 -9.81 0 
0 -9.81 0 
0 -9.81 0 
0 -9.81 0 
0 -9.81 0 
0 -9.81 0 
0 -9.81 0 
0 -9.81 0 
0 -9.81 0 
0 -9.81 0 
0 -9.81 0 
0 -9.81 0 
0 -9.81 0 
0 -9.81 0 
0 -9.81 0 
0 -9.81 0 
0 -9.81 0 
0 -9.81 0 
0 -9.81 0 
0 -9.81 0 
0 -9.81 0 
0 -9.81 0 
0 -9.81 0 
0 -9.81 0 
0 -9.81 0 
0 -9.81 0 
0 -9.81 0 
0 -9.81 0 
0 -9.81 0 
0 -9.81 0 
0 -9.81 0 
0 -9.81 0 
0 -9.81 0 
0 -9.81 0 
0 -9.81 0 
0 -9.81 0 
0 -9.81 0 
0 -9.81 0 
0 -9.81 0 
0 -9.81 0 
0 -9.81 0 
0 -9.81 0 
0 -9.81 0 
0 -9.81 0 
0 -9.81 0 
0 -9.81 0 
0 -9.81 0 
0 -9.81 0 
0 -9.81 0 
0 -9.81 0 
0 -9.81 0 
0 -9.81 0 
0 -9.81 0 
TENSORS cauchy_stress double
1.39873e-10 -6.47559e-11 0
-6.47559e-11 3.55587e-10 0
0 0 1.48638e-10

-4.17297e-11 -1.74196e-11 0
-1.74196e-11 -2.29848e-10 0
0 0 -8.14734e-11

1.19984e-10 -1.95743e-11 0
-1.95743e-11 3.0918e-10 0
0 0 1.28749e-10

-4.61925e-11 -9.96196e-12 0
-9.96196e-12 -2.40261e-10 0
0 0 -8.59362e-11

-1.65961e-10 7.05024e-11 0
7.05024e-11 -3.34424e-10 0
0 0 -1.50115e-10

-2.33021e-11 1.04924e-11 0
1.04924e-11 1.01249e-10 0
0 0 2.33841e-11

-1.60423e-10 3.49413e-11 0
3.49413e-11 -3.21502e-10 0
0 0 -1.44578e-10

-2.96208e-11 5.71845e-12 0
5.71845e-12 8.65056e-11 0
0 0 1.70655e-11

1.29725e-10 -5.45274e-11 0
-5.45274e-11 3.10955e-10 0
0 0 1.32204e-10

1.73665e-12 -6.09251e-12 0
-6.09251e-12 -4.05597e-11 0
0 0 -1.16469e-11

1.2614e-10 -2.70164e-11 0
-2.70164e-11 3.0259e-10 0
0 0 1.28619e-10

-5.13605e-12 -1.03592e-11 0
-1.03592e-11 -5.6596e-11 0
0 0 -1.85196e-11

-4.1652e-11 1.12897e-11 0
1.12897e-11 -6.72504e-11 0
0 0 -3.26707e-11

-8.01934e-12 -9.84907e-12 0
-9.84907e-12 -1.21478e-11 0
0 0 -6.05015e-12

-4.15515e-11 4.95915e-12 0
4.95915e-12 -6.7016e-11 0
0 0 -3.25703e-11

-1.04885e-11 9.64183e-13 0
9.64183e-13 -1.79093e-11 0
0 0 -8.51933e-12

1.54601e-10 7.36703e-12 0
7.36703e-12 3.11788e-10 0
0 0 1.39916e-10

-1.12153e-10 5.41369e-12 0
5.41369e-12 -2.68668e-10 0
0 0 -1.14246e-10

1.78352e-10 2.02604e-12 0
2.02604e-12 3.67207e-10 0
0 0 1.63668e-10

-1.1236e-10 3.50101e-12 0
3.50101e-12 -2.69149e-10 0
0 0 -1.14453e-10

-1.55856e-10 1.00298e-11 0
1.00298e-11 -3.25353e-10 0
0 0 -1.44363e-10

2.36771e-11 -4.38352e-12 0
-4.38352e-12 1.06023e-10 0
0 0 3.891e-11

-1.62134e-10 -2.39835e-13 0
-2.39835e-13 -3.40002e-10 0
0 0 -1.50641e-10

2.33504e-11 -8.51697e-12 0
-8.51697e-12 1.05261e-10 0
0 0 3.85834e-11

1.1466e-10 -1.20911e-11 0
-1.20911e-11 2.9036e-10 0
0 0 1.21506e-10

-2.5061e-11 -9.62638e-13 0
-9.62638e-13 -5.59485e-11 0
0 0 -2.43028e-11

1.27057e-10 -4.26997e-12 0
-4.26997e-12 3.19287e-10 0
0 0 1.33903e-10

-2.45165e-11 2.61919e-12 0
2.61919e-12 -5.46781e-11 0
0 0 -2.37584e-11

-3.80794e-11 1.10935e-11 0
1.10935e-11 -7.50228e-11 0
0 0 -3.39307e-11

-2.82339e-11 8.20845e-12 0
8.20845e-12 -2.51484e-11 0
0 0 -1.60147e-11

-4.03404e-11 8.59292e-12 0
8.59292e-12 -8.02985e-11 0
0 0 -3.61917e-11

-3.13019e-11 5.76254e-12 0
5.76254e-12 -3.23072e-11 0
0 0 -1.90827e-11

1.63633e-10 -1.70072e-12 0
-1.70072e-12 3.64225e-10 0
0 0 1.58357e-10

-1.13711e-10 1.05326e-12 0
1.05326e-12 -2.7029e-10 0
0 0 -1.152e-10

1.55136e-10 -1.91999e-12 0
-1.91999e-12 3.444e-10 0
0 0 1.49861e-10

-1.15684e-10 -4.79587e-12 0
-4.79587e-12 -2.74893e-10 0
0 0 -1.17173e-10

-1.54739e-10 1.59962e-12 0
1.59962e-12 -3.27508e-10 0
0 0 -1.44674e-10

1.91481e-11 4.09515e-12 0
4.09515e-12 9.16469e-11 0
0 0 3.32385e-11

-1.5367e-10 -4.77962e-12 0
-4.77962e-12 -3.25015e-10 0
0 0 -1.43605e-10

2.6048e-11 3.31561e-12 0
3.31561e-12 1.07747e-10 0
0 0 4.01384e-11

1.25784e-10 6.77565e-12 0
6.77565e-12 3.12431e-10 0
0 0 1.31464e-10

-2.3349e-11 6.7608e-12 0
6.7608e-12 -5.51355e-11 0
0 0 -2.35453e-11

1.18679e-10 1.62689e-11 0
1.62689e-11 2.95853e-10 0
0 0 1.24359e-10

-2.65644e-11 1.07448e-11 0
1.07448e-11 -6.2638e-11 0
0 0 -2.67607e-11

-3.55719e-11 2.37755e-12 0
2.37755e-12 -6.32943e-11 0
0 0 -2.96598e-11

-3.23528e-11 2.73722e-12 0
2.73722e-12 -2.97807e-11 0
0 0 -1.86401e-11

-4.09185e-11 -1.00979e-12 0
-1.00979e-12 -7.57698e-11 0
0 0 -3.50065e-11

-2.91566e-11 -7.28737e-13 0
-7.28737e-13 -2.2323e-11 0
0 0 -1.54439e-11

1.04574e-10 1.39962e-11 0
1.39962e-11 3.08174e-10 0
0 0 1.23824e-10

-5.41204e-11 8.34502e-12 0
8.34502e-12 -2.57302e-10 0
0 0 -9.34267e-11

1.26726e-10 5.90784e-11 0
5.90784e-11 3.5986e-10 0
0 0 1.45976e-10

-4.34927e-11 2.01151e-11 0
2.01151e-11 -2.32504e-10 0
0 0 -8.2799e-11

-1.55983e-10 -3.33584e-11 0
-3.33584e-11 -3.12737e-10 0
0 0 -1.40616e-10

-3.36582e-11 -9.19404e-12 0
-9.19404e-12 7.81902e-11 0
0 0 1.33596e-11

-1.67956e-10 -7.38253e-11 0
-7.38253e-11 -3.40673e-10 0
0 0 -1.52589e-10

-2.48815e-11 -1.28007e-11 0
-1.28007e-11 9.86691e-11 0
0 0 2.21363e-11

1.26245e-10 3.22395e-11 0
3.22395e-11 3.00627e-10 0
0 0 1.28061e-10

4.39651e-12 1.56563e-11 0
1.56563e-11 -3.77117e-11 0
0 0 -9.99456e-12

1.30556e-10 5.72163e-11 0
5.72163e-11 3.10686e-10 0
0 0 1.32373e-10

8.94735e-12 1.15289e-11 0
1.15289e-11 -2.70931e-11 0
0 0 -5.44371e-12

-4.56326e-11 -1.43331e-13 0
-1.43331e-13 -7.06416e-11 0
0 0 -3.48822e-11

-8.89449e-12 3.7748e-12 0
3.7748e-12 -2.598e-12 0
0 0 -3.44775e-12

-4.33215e-11 -8.90434e-12 0
-8.90434e-12 -6.52491e-11 0
0 0 -3.25712e-11

-1.19593e-11 1.15892e-11 0
1.15892e-11 -9.74933e-12 0
0 0 -6.5126e-12

TENSORS velocity_gradient double
-8.53647e-14 -1.6203e-13 0
1.15463e-14 -2.66454e-15 0
0 0 0

1.09591e-14 -1.6203e-13 0
1.42109e-14 1.42109e-14 0
0 0 0

-8.53647e-14 -6.57058e-14 0
2.30926e-14 1.77636e-15 0
0 0 0

1.09591e-14 -6.57058e-14 0
-7.10543e-15 -2.84217e-14 0
0 0 0

3.46502e-14 1.06168e-13 0
-1.42109e-14 2.84217e-14 0
0 0 0

-9.14073e-15 1.06168e-13 0
-8.88178e-15 1.95399e-14 0
0 0 0

3.46502e-14 6.23773e-14 0
-1.24345e-14 8.88178e-15 0
0 0 0

-9.14073e-15 6.23773e-14 0
-2.84217e-14 -1.42109e-14 0
0 0 0

-2.0293e-14 -5.32789e-14 0
-2.93099e-14 -5.77316e-14 0
0 0 0

-1.12109e-15 -5.32789e-14 0
-2.4869e-14 -4.61853e-14 0
0 0 0

-2.0293e-14 -3.41071e-14 0
-1.59872e-14 -3.01981e-14 0
0 0 0

-1.12109e-15 -3.41071e-14 0
-3.19744e-14 -4.61853e-14 0
0 0 0

1.57041e-14 -3.10519e-14 0
-2.04281e-14 1.5099e-14 0
0 0 0

3.03492e-14 -3.10519e-14 0
-5.32907e-15 -5.32907e-15 0
0 0 0

1.57041e-14 -1.64069e-14 0
-2.66454e-14 3.01981e-14 0
0 0 0

3.03492e-14 -1.64069e-14 0
-3.55271e-15 1.06581e-14 0
0 0 0

-1.37296e-14 -9.41301e-15 0
6.21725e-15 -2.22045e-14 0
0 0 0

2.53212e-15 -9.41301e-15 0
-1.42109e-14 -2.84217e-14 0
0 0 0

-1.37296e-14 6.84867e-15 0
3.55271e-15 -4.61853e-14 0
0 0 0

2.53212e-15 6.84867e-15 0
-3.55271e-15 -3.19744e-14 0
0 0 0

5.96171e-15 3.62355e-14 0
-1.77636e-14 3.55271e-15 0
0 0 0

-2.53082e-15 3.62355e-14 0
3.55271e-15 3.55271e-15 0
0 0 0

5.96171e-15 2.7743e-14 0
-1.95399e-14 -5.32907e-15 0
0 0 0

-2.53082e-15 2.7743e-14 0
-3.55271e-15 -3.55271e-15 0
0 0 0

1.93288e-15 -1.62705e-14 0
0 -1.42109e-14 0
0 0 0

1.84341e-14 -1.62705e-14 0
1.59872e-14 -1.24345e-14 0
0 0 0

1.93288e-15 2.30667e-16 0
-1.77636e-15 -1.59872e-14 0
0 0 0

1.84341e-14 2.30667e-16 0
1.06581e-14 -3.19744e-14 0
0 0 0

2.75291e-14 -7.97735e-15 0
2.66454e-15 9.76996e-15 0
0 0 0

2.97432e-14 -7.97735e-15 0
0 -7.10543e-15 0
0 0 0

2.75291e-14 -5.76324e-15 0
7.10543e-15 7.10543e-15 0
0 0 0

2.97432e-14 -5.76324e-15 0
-1.06581e-14 -1.06581e-14 0
0 0 0

3.05272e-15 2.14374e-14 0
7.99361e-15 -4.88498e-14 0
0 0 0

1.59686e-14 2.14374e-14 0
1.24345e-14 -3.01981e-14 0
0 0 0

3.05272e-15 3.43533e-14 0
1.06581e-14 -4.61853e-14 0
0 0 0

1.59686e-14 3.43533e-14 0
0 -3.55271e-14 0
0 0 0

1.30638e-14 1.4695e-14 0
8.88178e-16 2.22045e-14 0
0 0 0

-4.53962e-15 1.4695e-14 0
-1.77636e-14 -1.77636e-14 0
0 0 0

1.30638e-14 -2.90845e-15 0
-8.88178e-15 -2.30926e-14 0
0 0 0

-4.53962e-15 -2.90845e-15 0
-1.06581e-14 -1.77636e-14 0
0 0 0

-4.62531e-15 1.65762e-14 0
-2.04281e-14 -1.33227e-14 0
0 0 0

1.15645e-14 1.65762e-14 0
-1.24345e-14 -1.24345e-14 0
0 0 0

-4.62531e-15 3.2766e-14 0
-3.19744e-14 -1.77636e-14 0
0 0 0

1.15645e-14 3.2766e-14 0
-1.42109e-14 0 0
0 0 0

2.35741e-14 -5.93329e-16 0
-1.86517e-14 2.66454e-15 0
0 0 0

3.16998e-14 -5.93329e-16 0
0 2.13163e-14 0
0 0 0

2.35741e-14 7.53238e-15 0
-1.77636e-14 3.55271e-15 0
0 0 0

3.16998e-14 7.53238e-15 0
-7.10543e-15 7.10543e-15 0
0 0 0

-6.04525e-14 8.52803e-14 0
-6.30607e-14 -3.4639e-14 0
0 0 0

2.84856e-14 8.52803e-14 0
-3.55271e-14 -3.55271e-14 0
0 0 0

-6.04525e-14 1.74218e-13 0
-5.50671e-14 8.88178e-15 0
0 0 0

2.84856e-14 1.74218e-13 0
-2.4869e-14 -3.55271e-15 0
0 0 0

4.34825e-14 -3.85607e-14 0
-2.22045e-14 -3.64153e-14 0
0 0 0

-1.02185e-14 -3.85607e-14 0
1.77636e-15 -1.24345e-14 0
0 0 0

4.34825e-14 -9.22617e-14 0
-1.95399e-14 8.88178e-15 0
0 0 0

-1.02185e-14 -9.22617e-14 0
0 1.42109e-14 0
0 0 0

-2.80619e-14 4.85967e-14 0
3.55271e-15 -2.4869e-14 0
0 0 0

-1.25903e-14 4.85967e-14 0
-2.30926e-14 -1.59872e-14 0
0 0 0

-2.80619e-14 6.40683e-14 0
-1.77636e-15 -2.30926e-14 0
0 0 0

-1.25903e-14 6.40683e-14 0
-1.06581e-14 -2.4869e-14 0
0 0 0

6.07678e-15 2.24132e-14 0
-2.30926e-14 -1.77636e-15 0
0 0 0

2.77128e-14 2.24132e-14 0
8.88178e-15 8.88178e-15 0
0 0 0

6.07678e-15 4.40493e-14 0
-2.13163e-14 3.55271e-14 0
0 0 0

2.77128e-14 4.40493e-14 0
-1.06581e-14 2.4869e-14 0
0 0 0

SCALARS active double 1
LOOKUP_TABLE default
1
1
1
1
1
1
1
1
1
1
1
1
1
1
1
1
1
1
1
1
1
1
1
1
1
1
1
1
1
1
1
1
1
1
1
1
1
1
1
1
1
1
1
1
1
1
1
1
1
1
1
1
1
1
1
1
1
1
1
1
1
1
1
1
SCALARS extent double 1
LOOKUP_TABLE default
0.0125
0.0125
0.0125
0.0125
0.0125
0.0125
0.0125
0.0125
0.0125
0.0125
0.0125
0.0125
0.0125
0.0125
0.0125
0.0125
0.0125
0.0125
0.0125
0.0125
0.0125
0.0125
0.0125
0.0125
0.0125
0.0125
0.0125
0.0125
0.0125
0.0125
0.0125
0.0125
0.0125
0.0125
0.0125
0.0125
0.0125
0.0125
0.0125
0.0125
0.0125
0.0125
0.0125
0.0125
0.0125
0.0125
0.0125
0.0125
0.0125
0.0125
0.0125
0.0125
0.0125
0.0125
0.0125
0.0125
0.0125
0.0125
0.0125
0.0125
0.0125
0.0125
0.0125
0.0125
SCALARS pressure double 1
LOOKUP_TABLE default
-2.14699e-10
1.17684e-10
-1.85971e-10
1.2413e-10
2.16833e-10
-3.37771e-11
2.08834e-10
-2.46501e-11
-1.90961e-10
1.68233e-11
-1.85783e-10
2.67506e-11
4.71911e-11
8.73911e-12
4.70459e-11
1.23057e-11
-2.02102e-10
1.65022e-10
-2.36409e-10
1.65321e-10
2.08524e-10
-5.62034e-11
2.17592e-10
-5.57315e-11
-1.75508e-10
3.51041e-11
-1.93416e-10
3.43177e-11
4.90109e-11
2.31323e-11
5.22768e-11
2.7564e-11
-2.28738e-10
1.664e-10
-2.16466e-10
1.6925e-10
2.08973e-10
-4.80112e-11
2.0743e-10
-5.79777e-11
-1.89893e-10
3.40099e-11
-1.7963e-10
3.86544e-11
4.2842e-11
2.69245e-11
5.0565e-11
2.23079e-11
-1.78857e-10
1.3495e-10
-2.10854e-10
1.19599e-10
2.03112e-10
-1.92972e-11
2.20406e-10
-3.19746e-11
-1.84978e-10
1.44366e-11
-1.91205e-10
7.86314e-12
5.03854e-11
4.98008e-12
4.70473e-11
9.40709e-12
SCALARS density double 1
LOOKUP_TABLE default
1000
1000
1000
1000
1000
1000
1000
1000
1000
1000
1000
1000
1000
1000
1000
1000
1000
1000
1000
1000
1000
1000
1000
1000
1000
1000
1000
1000
1000
1000
1000
1000
1000
1000
1000
1000
1000
1000
1000
1000
1000
1000
1000
1000
1000
1000
1000
1000
1000
1000
1000
1000
1000
1000
1000
1000
1000
1000
1000
1000
1000
1000
1000
1000
