# vtk DataFile Version 3.0
Frame: 9, Time: 0.15
ASCII
DATASET UNSTRUCTURED_GRID
POINTS 64 double
0.4125 0.29992 0 
0.4125 0.32492 0 
0.4375 0.29992 0 
0.4375 0.32492 0 
0.4125 0.34992 0 
0.4125 0.37492 0 
0.4375 0.34992 0 
0.4375 0.37492 0 
0.4125 0.39992 0 
0.4125 0.42492 0 
0.4375 0.39992 0 
0.4375 0.42492 0 
0.4125 0.44992 0 
0.4125 0.47492 0 
0.4375 0.44992 0 
0.4375 0.47492 0 
0.4625 0.29992 0 
0.4625 0.32492 0 
0.4875 0.29992 0 
0.4875 0.32492 0 
0.4625 0.34992 0 
0.4625 0.37492 0 
0.4875 0.34992 0 
0.4875 0.37492 0 
0.4625 0.39992 0 
0.4625 0.42492 0 
0.4875 0.39992 0 
0.4875 0.42492 0 
0.4625 0.44992 0 
0.4625 0.47492 0 
0.4875 0.44992 0 
0.4875 0.47492 0 
0.5125 0.29992 0 
0.5125 0.32492 0 
0.5375 0.29992 0 
0.5375 0.32492 0 
0.5125 0.34992 0 
0.5125 0.37492 0 
0.5375 0.34992 0 
0.5375 0.37492 0 
0.5125 0.39992 0 
0.5125 0.42492 0 
0.5375 0.39992 0 
0.5375 0.42492 0 
0.5125 0.44992 0 
0.5125 0.47492 0 
0.5375 0.44992 0 
0.5375 0.47492 0 
0.5625 0.29992 0 
0.5625 0.32492 0 
0.5875 0.29992 0 
0.5875 0.32492 0 
0.5625 0.34992 0 
0.5625 0.37492 0 
0.5875 0.34992 0 
0.5875 0.37492 0 
0.5625 0.39992 0 
0.5625 0.42492 0 
0.5875 0.39992 0 
0.5875 0.42492 0 
0.5625 0.44992 0 
0.5625 0.47492 0 
0.5875 0.44992 0 
0.5875 0.47492 0 
CELLS 64 128
1 0
1 1
1 2
1 3
1 4
1 5
1 6
1 7
1 8
1 9
1 10
1 11
1 12
1 13
1 14
1 15
1 16
1 17
1 18
1 19
1 20
1 21
1 22
1 23
1 24
1 25
1 26
1 27
1 28
1 29
1 30
1 31
1 32
1 33
1 34
1 35
1 36
1 37
1 38
1 39
1 40
1 41
1 42
1 43
1 44
1 45
1 46
1 47
1 48
1 49
1 50
1 51
1 52
1 53
1 54
1 55
1 56
1 57
1 58
1 59
1 60
1 61
1 62
1 63
CELL_TYPES 64
1
1
1
1
1
1
1
1
1
1
1
1
1
1
1
1
1
1
1
1
1
1
1
1
1
1
1
1
1
1
1
1
1
1
1
1
1
1
1
1
1
1
1
1
1
1
1
1
1
1
1
1
1
1
1
1
1
1
1
1
1
1
1
1
POINT_DATA 64
VECTORS displacement double
-5.86698e-17 -0.11258 0 
-4.89229e-17 -0.11258 0 
-5.74656e-17 -0.11258 0 
-4.95028e-17 -0.11258 0 
-4.21714e-17 -0.11258 0 
-3.89806e-17 -0.11258 0 
-4.3278e-17 -0.11258 0 
-4.01509e-17 -0.11258 0 
-3.67135e-17 -0.11258 0 
-3.82275e-17 -0.11258 0 
-3.77998e-17 -0.11258 0 
-3.66228e-17 -0.11258 0 
-3.03165e-17 -0.11258 0 
-2.33408e-17 -0.11258 0 
-3.03667e-17 -0.11258 0 
-2.37039e-17 -0.11258 0 
-5.56228e-17 -0.11258 0 
-4.92988e-17 -0.11258 0 
-5.31413e-17 -0.11258 0 
-4.83109e-17 -0.11258 0 
-4.41603e-17 -0.11258 0 
-4.13785e-17 -0.11258 0 
-4.48184e-17 -0.11258 0 
-4.26633e-17 -0.11258 0 
-3.90545e-17 -0.11258 0 
-3.63877e-17 -0.11258 0 
-4.04775e-17 -0.11258 0 
-3.7522e-17 -0.11258 0 
-3.17902e-17 -0.11258 0 
-2.52127e-17 -0.11258 0 
-3.45871e-17 -0.11258 0 
-2.78672e-17 -0.11258 0 
-4.99298e-17 -0.11258 0 
-4.72316e-17 -0.11258 0 
-4.59883e-17 -0.11258 0 
-4.60611e-17 -0.11258 0 
-4.52834e-17 -0.11258 0 
-4.37743e-17 -0.11258 0 
-4.55553e-17 -0.11258 0 
-4.47113e-17 -0.11258 0 
-4.14013e-17 -0.11258 0 
-3.80058e-17 -0.11258 0 
-4.18258e-17 -0.11258 0 
-3.78392e-17 -0.11258 0 
-3.64507e-17 -0.11258 0 
-3.1158e-17 -0.11258 0 
-3.73809e-17 -0.11258 0 
-3.50851e-17 -0.11258 0 
-4.42482e-17 -0.11258 0 
-4.63426e-17 -0.11258 0 
-4.47095e-17 -0.11258 0 
-4.8076e-17 -0.11258 0 
-4.62555e-17 -0.11258 0 
-4.52798e-17 -0.11258 0 
-4.73839e-17 -0.11258 0 
-4.54799e-17 -0.11258 0 
-4.19709e-17 -0.11258 0 
-3.65721e-17 -0.11258 0 
-4.18365e-17 -0.11258 0 
-3.42047e-17 -0.11258 0 
-3.73079e-17 -0.11258 0 
-3.75125e-17 -0.11258 0 
-3.62318e-17 -0.11258 0 
-3.84403e-17 -0.11258 0 
VECTORS velocity double
1.19488e-15 -1.48131 0 
-2.53425e-15 -1.48131 0 
7.89532e-17 -1.48131 0 
-1.43974e-15 -1.48131 0 
-5.62177e-16 -1.48131 0 
2.01257e-15 -1.48131 0 
-4.65986e-16 -1.48131 0 
3.69622e-16 -1.48131 0 
1.1856e-15 -1.48131 0 
-2.25452e-15 -1.48131 0 
2.02557e-17 -1.48131 0 
-1.02012e-15 -1.48131 0 
-3.04605e-15 -1.48131 0 
-4.69179e-15 -1.48131 0 
-2.14623e-15 -1.48131 0 
-2.93726e-15 -1.48131 0 
-7.4858e-16 -1.48131 0 
-7.22568e-16 -1.48131 0 
-1.28772e-15 -1.48131 0 
-3.82729e-16 -1.48131 0 
-4.15879e-16 -1.48131 0 
-5.4836e-16 -1.48131 0 
-4.11854e-16 -1.48131 0 
-7.41375e-16 -1.48131 0 
-5.26827e-16 -1.48131 0 
-3.10594e-16 -1.48131 0 
-4.55646e-16 -1.48131 0 
-1.25943e-16 -1.48131 0 
-1.43375e-15 -1.48131 0 
-1.63278e-15 -1.48131 0 
-9.08598e-16 -1.48131 0 
-7.78362e-16 -1.48131 0 
-1.46424e-15 -1.48131 0 
-3.60687e-16 -1.48131 0 
-1.27815e-15 -1.48131 0 
-6.56441e-16 -1.48131 0 
-5.33175e-16 -1.48131 0 
-7.83473e-16 -1.48131 0 
-7.79842e-16 -1.48131 0 
-6.74653e-16 -1.48131 0 
-2.9229e-16 -1.48131 0 
-5.79081e-17 -1.48131 0 
-3.67599e-17 -1.48131 0 
-1.06489e-16 -1.48131 0 
-2.56791e-16 -1.48131 0 
2.40989e-17 -1.48131 0 
5.21675e-16 -1.48131 0 
7.74598e-16 -1.48131 0 
-1.61894e-15 -1.48131 0 
-4.74981e-16 -1.48131 0 
-2.48661e-15 -1.48131 0 
1.83696e-16 -1.48131 0 
-1.00054e-15 -1.48131 0 
-1.38901e-15 -1.48131 0 
-1.19526e-15 -1.48131 0 
-2.92655e-15 -1.48131 0 
-4.25686e-16 -1.48131 0 
7.67864e-16 -1.48131 0 
-1.45907e-15 -1.48131 0 
2.56515e-15 -1.48131 0 
1.66197e-15 -1.48131 0 
2.12009e-15 -1.48131 0 
3.16409e-15 -1.48131 0 
4.06056e-15 -1.48131 0 
SCALARS mass double 1
LOOKUP_TABLE default
0.625
0.625
0.625
0.625
0.625
0.625
0.625
0.625
0.625
0.625
0.625
0.625
0.625
0.625
0.625
0.625
0.625
0.625
0.625
0.625
0.625
0.625
0.625
0.625
0.625
0.625
0.625
0.625
0.625
0.625
0.625
0.625
0.625
0.625
0.625
0.625
0.625
0.625
0.625
0.625
0.625
0.625
0.625
0.625
0.625
0.625
0.625
0.625
0.625
0.625
0.625
0.625
0.625
0.625
0.625
0.625
0.625
0.625
0.625
0.625
0.625
0.625
0.625
0.625
SCALARS volume double 1
LOOKUP_TABLE default
0.000625
0.000625
0.000625
0.000625
0.000625
0.000625
0.000625
0.000625
0.000625
0.000625
0.000625
0.000625
0.000625
0.000625
0.000625
0.000625
0.000625
0.000625
0.000625
0.000625
0.000625
0.000625
0.000625
0.000625
0.000625
0.000625
0.000625
0.000625
0.000625
0.000625
0.000625
0.000625
0.000625
0.000625
0.000625
0.000625
0.000625
0.000625
0.000625
0.000625
0.000625
0.000625
0.000625
0.000625
0.000625
0.000625
0.000625
0.000625
0.000625
0.000625
0.000625
0.000625
0.000625
0.000625
0.000625
0.000625
0.000625
0.000625
0.000625
0.000625
0.000625
0.000625
0.000625
0.000625
VECTORS momentum double
7.46799e-16 -0.925819 0 
-1.58391e-15 -0.925819 0 
4.93457e-17 -0.925819 0 
-8.9984e-16 -0.925819 0 
-3.51361e-16 -0.925819 0 
1.25786e-15 -0.925819 0 
-2.91241e-16 -0.925819 0 
2.31014e-16 -0.925819 0 
7.41002e-16 -0.925819 0 
-1.40907e-15 -0.925819 0 
1.26598e-17 -0.925819 0 
-6.37574e-16 -0.925819 0 
-1.90378e-15 -0.925819 0 
-2.93237e-15 -0.925819 0 
-1.3414e-15 -0.925819 0 
-1.83579e-15 -0.925819 0 
-4.67862e-16 -0.925819 0 
-4.51605e-16 -0.925819 0 
-8.04825e-16 -0.925819 0 
-2.39206e-16 -0.925819 0 
-2.59924e-16 -0.925819 0 
-3.42725e-16 -0.925819 0 
-2.57409e-16 -0.925819 0 
-4.63359e-16 -0.925819 0 
-3.29267e-16 -0.925819 0 
-1.94121e-16 -0.925819 0 
-2.84779e-16 -0.925819 0 
-7.87145e-17 -0.925819 0 
-8.96093e-16 -0.925819 0 
-1.02049e-15 -0.925819 0 
-5.67874e-16 -0.925819 0 
-4.86476e-16 -0.925819 0 
-9.15153e-16 -0.925819 0 
-2.25429e-16 -0.925819 0 
-7.98846e-16 -0.925819 0 
-4.10276e-16 -0.925819 0 
-3.33235e-16 -0.925819 0 
-4.89671e-16 -0.925819 0 
-4.87401e-16 -0.925819 0 
-4.21658e-16 -0.925819 0 
-1.82681e-16 -0.925819 0 
-3.61925e-17 -0.925819 0 
-2.2975e-17 -0.925819 0 
-6.65558e-17 -0.925819 0 
-1.60494e-16 -0.925819 0 
1.50618e-17 -0.925819 0 
3.26047e-16 -0.925819 0 
4.84124e-16 -0.925819 0 
-1.01184e-15 -0.925819 0 
-2.96863e-16 -0.925819 0 
-1.55413e-15 -0.925819 0 
1.1481e-16 -0.925819 0 
-6.25335e-16 -0.925819 0 
-8.68132e-16 -0.925819 0 
-7.47035e-16 -0.925819 0 
-1.82909e-15 -0.925819 0 
-2.66054e-16 -0.925819 0 
4.79915e-16 -0.925819 0 
-9.11918e-16 -0.925819 0 
1.60322e-15 -0.925819 0 
1.03873e-15 -0.925819 0 
1.32505e-15 -0.925819 0 
1.97756e-15 -0.925819 0 
2.53785e-15 -0.925819 0 
VECTORS body_force double
0 -9.81 0 
0 -9.81 0 
0 -9.81 0 
0 -9.81 0 
0 -9.81 0 
0 -9.81 0 
0 -9.81 0 
0 -9.81 0 
0 -9.81 0 
0 -9.81 0 
0 -9.81 0 
0 -9.81 0 
0 -9.81 0 
0 -9.81 0 
0 -9.81 0 
0 -9.81 0 
0 -9.81 0 
0 -9.81 0 
0 -9.81 0 
0 -9.81 0 
0 -9.81 0 
0 -9.81 0 
0 -9.81 0 
0 -9.81 0 
0 -9.81 0 
0 -9.81 0 
0 -9.81 0 
0 -9.81 0 
0 -9.81 0 
0 -9.81 0 
0 -9.81 0 
0 -9.81 0 
0 -9.81 0 
0 -9.81 0 
0 -9.81 0 
0 -9.81 0 
0 -9.81 0 
0 -9.81 0 
0 -9.81 0 
0 -9.81 0 
0 -9.81 0 
0 -9.81 0 
0 -9.81 0 
0 -9.81 0 
0 -9.81 0 
0 -9.81 0 
0 -9.81 0 
0 -9.81 0 
0 -9.81 0 
0 -9.81 0 
0 -9.81 0 
0 -9.81 0 
0 -9.81 0 
0 -9.81 0 
0 -9.81 0 
0 -9.81 0 
0 -9.81 0 
0 -9.81 0 
0 -9.81 0 
0 -9.81 0 
0 -9.81 0 
0 -9.81 0 
0 -9.81 0 
0 -9.81 0 
TENSORS cauchy_stress double
-1.32364e-11 3.18039e-12 0
3.18039e-12 -4.32358e-11 0
0 0 -1.69417e-11

-7.92827e-12 7.15717e-12 0
7.15717e-12 -1.25511e-11 0
0 0 -6.1438e-12

-1.50194e-11 3.45592e-12 0
3.45592e-12 -4.73962e-11 0
0 0 -1.87247e-11

-8.45829e-12 3.53337e-12 0
3.53337e-12 -1.37878e-11 0
0 0 -6.67383e-12

1.08649e-11 2.29952e-12 0
2.29952e-12 3.67011e-11 0
0 0 1.42698e-11

-5.36807e-12 -7.14377e-12 0
-7.14377e-12 -5.22415e-13 0
0 0 -1.76715e-12

1.40806e-11 -6.16001e-13 0
-6.16001e-13 4.42046e-11 0
0 0 1.74856e-11

-1.01127e-11 -2.23281e-12 0
-2.23281e-12 -1.15932e-11 0
0 0 -6.51175e-12

1.09092e-11 -5.40465e-12 0
-5.40465e-12 3.65966e-11 0
0 0 1.42517e-11

4.80052e-12 -9.96323e-12 0
-9.96323e-12 -5.25669e-12 0
0 0 -1.36851e-13

1.53167e-12 -3.98191e-12 0
-3.98191e-12 1.47157e-11 0
0 0 4.87421e-12

2.12317e-12 -8.56733e-12 0
-8.56733e-12 -1.15038e-11 0
0 0 -2.8142e-12

-8.44125e-12 -6.05437e-13 0
-6.05437e-13 -1.91814e-11 0
0 0 -8.28679e-12

5.29408e-12 -1.48383e-12 0
-1.48383e-12 1.60765e-11 0
0 0 6.41118e-12

-1.29308e-11 -5.21503e-12 0
-5.21503e-12 -2.96571e-11 0
0 0 -1.27764e-11

4.59112e-12 -1.08329e-14 0
-1.08329e-14 1.44363e-11 0
0 0 5.70822e-12

-4.66273e-12 2.06232e-12 0
2.06232e-12 -3.63306e-11 0
0 0 -1.2298e-11

8.48224e-12 5.96891e-12 0
5.96891e-12 9.65912e-12 0
0 0 5.44241e-12

3.6123e-12 -1.35616e-12 0
-1.35616e-12 -1.70222e-11 0
0 0 -4.02296e-12

6.39897e-12 3.24198e-12 0
3.24198e-12 4.79816e-12 0
0 0 3.35914e-12

2.1584e-11 1.13693e-12 0
1.13693e-12 5.71119e-11 0
0 0 2.36087e-11

-9.92426e-12 -5.24259e-12 0
-5.24259e-12 -9.97822e-12 0
0 0 -5.97075e-12

1.19498e-11 3.73097e-12 0
3.73097e-12 3.46323e-11 0
0 0 1.39746e-11

-6.50873e-12 1.10582e-12 0
1.10582e-12 -2.00864e-12 0
0 0 -2.55521e-12

-4.06529e-12 -2.67494e-12 0
-2.67494e-12 5.1097e-12 0
0 0 3.13322e-13

-1.17524e-11 7.35116e-12 0
7.35116e-12 -1.57882e-11 0
0 0 -8.26217e-12

-6.23503e-12 -6.04553e-12 0
-6.04553e-12 4.69748e-14 0
0 0 -1.85642e-12

-1.40648e-12 4.35637e-12 0
4.35637e-12 8.35221e-12 0
0 0 2.08372e-12

-2.91595e-11 6.26289e-12 0
6.26289e-12 -3.93527e-11 0
0 0 -2.05537e-11

-6.41214e-12 7.2134e-12 0
7.2134e-12 1.22643e-11 0
0 0 1.75566e-12

-2.42299e-11 9.35188e-12 0
9.35188e-12 -2.78504e-11 0
0 0 -1.56241e-11

-7.56186e-12 1.05886e-11 0
1.05886e-11 9.58167e-12 0
0 0 6.05941e-13

-3.27203e-12 1.10079e-12 0
1.10079e-12 -4.80606e-11 0
0 0 -1.53998e-11

3.23004e-12 -5.38424e-12 0
-5.38424e-12 -4.46877e-12 0
0 0 -3.71617e-13

6.11629e-12 -8.82553e-13 0
-8.82553e-13 -2.61546e-11 0
0 0 -6.01148e-12

4.70162e-12 -3.23931e-12 0
-3.23931e-12 -1.03508e-12 0
0 0 1.09996e-12

1.8909e-11 1.14195e-12 0
1.14195e-12 4.69098e-11 0
0 0 1.97456e-11

3.2909e-12 -7.65663e-13 0
-7.65663e-13 1.7289e-11 0
0 0 6.17397e-12

1.37761e-11 9.11473e-12 0
9.11473e-12 3.4933e-11 0
0 0 1.46127e-11

-1.10886e-11 -2.40545e-12 0
-2.40545e-12 -1.62632e-11 0
0 0 -8.20555e-12

2.52262e-12 2.312e-13 0
2.312e-13 1.02397e-11 0
0 0 3.8287e-12

-5.76248e-12 -1.61807e-12 0
-1.61807e-12 -1.51548e-11 0
0 0 -6.2752e-12

-2.71798e-12 -9.70199e-13 0
-9.70199e-13 -1.98836e-12 0
0 0 -1.4119e-12

-1.25167e-12 -1.65214e-14 0
-1.65214e-14 -4.62961e-12 0
0 0 -1.76438e-12

-1.97675e-11 -5.37586e-12 0
-5.37586e-12 -3.65835e-11 0
0 0 -1.69053e-11

-9.16477e-12 -2.02372e-12 0
-2.02372e-12 1.88928e-11 0
0 0 2.91841e-12

-2.39512e-11 -5.36705e-12 0
-5.36705e-12 -4.63455e-11 0
0 0 -2.1089e-11

-6.65396e-12 -2.79125e-12 0
-2.79125e-12 2.47514e-11 0
0 0 5.42922e-12

-1.30949e-11 7.99278e-12 0
7.99278e-12 -2.58233e-11 0
0 0 -1.16755e-11

-1.28345e-11 -8.29051e-13 0
-8.29051e-13 -1.21679e-11 0
0 0 -7.50072e-12

-1.54288e-11 4.54182e-12 0
4.54182e-12 -3.1269e-11 0
0 0 -1.40093e-11

-1.49322e-11 -1.09904e-11 0
-1.09904e-11 -1.70625e-11 0
0 0 -9.59841e-12

1.97051e-11 -7.89069e-13 0
-7.89069e-13 5.75526e-11 0
0 0 2.31773e-11

-1.05121e-11 -6.97759e-14 0
-6.97759e-14 -2.24761e-11 0
0 0 -9.89647e-12

1.48613e-11 1.07639e-11 0
1.07639e-11 4.62502e-11 0
0 0 1.83334e-11

-4.36955e-12 1.94779e-12 0
1.94779e-12 -8.14359e-12 0
0 0 -3.75394e-12

3.24093e-12 6.17332e-12 0
6.17332e-12 6.18443e-12 0
0 0 2.82761e-12

4.68532e-12 2.33246e-12 0
2.33246e-12 -1.33491e-11 0
0 0 -2.59913e-12

1.9512e-11 5.93074e-12 0
5.93074e-12 4.41502e-11 0
0 0 1.90986e-11

1.13034e-11 1.03181e-11 0
1.03181e-11 2.09317e-12 0
0 0 4.01898e-12

-1.54071e-11 1.73288e-12 0
1.73288e-12 -4.69874e-11 0
0 0 -1.87184e-11

4.55723e-12 -2.358e-12 0
-2.358e-12 2.01498e-11 0
0 0 7.4121e-12

-5.99876e-12 -6.11962e-12 0
-6.11962e-12 -2.50346e-11 0
0 0 -9.31001e-12

3.93593e-12 -6.60387e-12 0
-6.60387e-12 1.87001e-11 0
0 0 6.7908e-12

TENSORS velocity_gradient double
7.91434e-16 -7.81059e-15 0
6.30607e-14 -7.90479e-14 0
0 0 0

-4.13972e-17 -2.67721e-16 0
4.44089e-14 -1.24345e-14 0
0 0 0

7.91434e-16 -5.8334e-15 0
6.03961e-14 -9.59233e-14 0
0 0 0

-4.13972e-17 -2.03723e-15 0
3.55271e-14 -7.10543e-15 0
0 0 0

-2.50909e-15 7.80713e-15 0
3.01981e-14 -1.95399e-14 0
0 0 0

-8.39846e-15 1.29235e-14 0
1.95399e-14 -3.73035e-14 0
0 0 0

-2.50909e-15 3.2449e-15 0
4.17444e-14 -4.35207e-14 0
0 0 0

-8.39846e-15 6.59172e-15 0
2.13163e-14 -4.9738e-14 0
0 0 0

-1.09656e-14 -2.81812e-14 0
8.88178e-15 8.88178e-15 0
0 0 0

4.91707e-15 -5.42257e-14 0
-4.08562e-14 1.59872e-14 0
0 0 0

-1.09656e-14 -1.94545e-14 0
-4.44089e-15 9.76996e-15 0
0 0 0

4.91707e-15 -3.59577e-14 0
-2.13163e-14 7.10543e-15 0
0 0 0

2.08803e-14 -3.51265e-14 0
-3.28626e-14 5.24025e-14 0
0 0 0

2.55484e-14 -2.3025e-14 0
-3.73035e-14 4.79616e-14 0
0 0 0

2.08803e-14 -2.60775e-14 0
-3.28626e-14 1.68754e-14 0
0 0 0

2.55484e-14 -1.98172e-14 0
-2.84217e-14 4.26326e-14 0
0 0 0

-1.18173e-14 -2.06757e-15 0
1.06581e-14 -9.59233e-14 0
0 0 0

-6.50792e-15 -3.08156e-16 0
8.88178e-15 -1.95399e-14 0
0 0 0

-1.18173e-14 3.48689e-15 0
5.32907e-15 -9.41469e-14 0
0 0 0

-6.50792e-15 4.9195e-15 0
0 0 0
0 0 0

-2.01779e-15 2.10254e-15 0
-6.21725e-15 -4.17444e-14 0
0 0 0

-1.1422e-15 3.62999e-15 0
-1.95399e-14 -4.79616e-14 0
0 0 0

-2.01779e-15 4.38006e-15 0
3.55271e-15 -4.61853e-14 0
0 0 0

-1.1422e-15 4.03827e-15 0
-7.10543e-15 -7.81597e-14 0
0 0 0

1.32651e-15 -1.07661e-14 0
-6.21725e-15 -2.75335e-14 0
0 0 0

1.38931e-14 -1.98877e-14 0
1.06581e-14 -3.55271e-15 0
0 0 0

1.32651e-15 -2.11613e-15 0
-2.30926e-14 -2.30926e-14 0
0 0 0

1.38931e-14 -6.01564e-15 0
-7.10543e-15 -7.10543e-15 0
0 0 0

2.67099e-14 -1.67274e-14 0
-1.28786e-14 2.9754e-14 0
0 0 0

3.4355e-14 -1.47251e-14 0
1.59872e-14 5.86198e-14 0
0 0 0

2.67099e-14 -7.0764e-15 0
1.95399e-14 3.37508e-14 0
0 0 0

3.4355e-14 -7.74851e-15 0
7.10543e-15 6.39488e-14 0
0 0 0

-8.52565e-15 5.66825e-15 0
-3.90799e-14 -1.24345e-13 0
0 0 0

-7.84985e-15 8.18248e-15 0
-2.66454e-14 1.77636e-15 0
0 0 0

-8.52565e-15 4.47653e-15 0
-2.4869e-14 -1.38556e-13 0
0 0 0

-7.84985e-15 9.4808e-15 0
-2.84217e-14 -1.42109e-14 0
0 0 0

-6.13222e-15 7.0066e-15 0
-1.68754e-14 -3.10862e-14 0
0 0 0

-2.35963e-15 6.26155e-15 0
-8.88178e-15 -4.44089e-14 0
0 0 0

-6.13222e-15 9.98216e-15 0
-9.76996e-15 -2.39808e-14 0
0 0 0

-2.35963e-15 1.02998e-14 0
-7.10543e-15 -3.55271e-14 0
0 0 0

3.08131e-15 7.03333e-15 0
9.76996e-15 -4.44089e-15 0
0 0 0

1.53965e-14 7.52234e-15 0
7.10543e-15 -7.10543e-15 0
0 0 0

3.08131e-15 1.66823e-14 0
1.33227e-14 -1.5099e-14 0
0 0 0

1.53965e-14 2.07262e-14 0
2.84217e-14 0 0
0 0 0

2.79914e-14 3.13318e-15 0
1.90958e-14 4.75175e-14 0
0 0 0

3.7602e-14 3.52143e-16 0
5.32907e-15 5.50671e-14 0
0 0 0

2.79914e-14 1.39013e-14 0
2.66454e-14 3.37508e-14 0
0 0 0

3.7602e-14 9.5769e-15 0
7.10543e-15 4.9738e-14 0
0 0 0

3.76476e-15 2.37616e-15 0
-3.24185e-14 -1.17684e-13 0
0 0 0

-8.69745e-16 7.54179e-15 0
-2.13163e-14 -7.10543e-15 0
0 0 0

3.76476e-15 -6.32843e-16 0
-4.08562e-14 -9.76996e-14 0
0 0 0

-8.69745e-16 2.36546e-15 0
-2.13163e-14 7.10543e-15 0
0 0 0

-5.65234e-15 9.66924e-15 0
-1.19904e-14 2.22045e-15 0
0 0 0

-8.5053e-15 1.10172e-14 0
-1.59872e-14 -1.77636e-15 0
0 0 0

-5.65234e-15 6.06785e-15 0
-1.24345e-14 -1.24345e-14 0
0 0 0

-8.5053e-15 8.41373e-15 0
-1.42109e-14 -2.84217e-14 0
0 0 0

-7.59234e-15 2.72379e-14 0
0 1.42109e-14 0
0 0 0

1.05542e-14 3.75155e-14 0
0 1.42109e-14 0
0 0 0

-7.59234e-15 3.87002e-14 0
1.77636e-15 1.77636e-15 0
0 0 0

1.05542e-14 5.789e-14 0
1.42109e-14 2.84217e-14 0
0 0 0

2.85082e-14 2.46315e-14 0
2.44249e-14 3.10862e-15 0
0 0 0

3.45994e-14 1.6468e-14 0
2.30926e-14 3.73035e-14 0
0 0 0

2.85082e-14 3.53238e-14 0
4.44089e-15 6.12843e-14 0
0 0 0

3.45994e-14 2.10255e-14 0
2.13163e-14 4.9738e-14 0
0 0 0

SCALARS active double 1
LOOKUP_TABLE default
1
1
1
1
1
1
1
1
1
1
1
1
1
1
1
1
1
1
1
1
1
1
1
1
1
1
1
1
1
1
1
1
1
1
1
1
1
1
1
1
1
1
1
1
1
1
1
1
1
1
1
1
1
1
1
1
1
1
1
1
1
1
1
1
SCALARS extent double 1
LOOKUP_TABLE default
0.0125
0.0125
0.0125
0.0125
0.0125
0.0125
0.0125
0.0125
0.0125
0.0125
0.0125
0.0125
0.0125
0.0125
0.0125
0.0125
0.0125
0.0125
0.0125
0.0125
0.0125
0.0125
0.0125
0.0125
0.0125
0.0125
0.0125
0.0125
0.0125
0.0125
0.0125
0.0125
0.0125
0.0125
0.0125
0.0125
0.0125
0.0125
0.0125
0.0125
0.0125
0.0125
0.0125
0.0125
0.0125
0.0125
0.0125
0.0125
0.0125
0.0125
0.0125
0.0125
0.0125
0.0125
0.0125
0.0125
0.0125
0.0125
0.0125
0.0125
0.0125
0.0125
0.0125
0.0125
SCALARS pressure double 1
LOOKUP_TABLE default
2.44713e-11
8.87438e-12
2.70468e-11
9.63997e-12
-2.06119e-11
2.55254e-12
-2.52569e-11
9.40586e-12
-2.05858e-11
1.97674e-13
-7.04052e-12
4.06495e-12
1.19698e-11
-9.2606e-12
1.84548e-11
-8.24521e-12
1.77638e-11
-7.86126e-12
5.81095e-12
-4.85209e-12
-3.41015e-11
8.62441e-12
-2.01856e-11
3.69086e-12
-4.52576e-13
1.19342e-11
2.68149e-12
-3.00982e-12
2.96886e-11
-2.53596e-12
2.25682e-11
-8.75248e-13
2.22442e-11
5.3678e-13
8.68325e-12
-1.58883e-12
-2.85215e-11
-8.91796e-12
-2.11073e-11
1.18525e-11
-5.53034e-12
9.06418e-12
2.03941e-12
2.54855e-12
2.44187e-11
-4.21548e-12
3.04619e-11
-7.84221e-12
1.68646e-11
1.08344e-11
2.02357e-11
1.38644e-11
-3.34784e-11
1.42949e-11
-2.64816e-11
5.42236e-12
-4.08432e-12
3.7543e-12
-2.75869e-11
-5.80519e-12
2.70376e-11
-1.07064e-11
1.34478e-11
-9.80894e-12
SCALARS density double 1
LOOKUP_TABLE default
1000
1000
1000
1000
1000
1000
1000
1000
1000
1000
1000
1000
1000
1000
1000
1000
1000
1000
1000
1000
1000
1000
1000
1000
1000
1000
1000
1000
1000
1000
1000
1000
1000
1000
1000
1000
1000
1000
1000
1000
1000
1000
1000
1000
1000
1000
1000
1000
1000
1000
1000
1000
1000
1000
1000
1000
1000
1000
1000
1000
1000
1000
1000
1000
