# vtk DataFile Version 3.0
Frame: 36, Time: 0.6
ASCII
DATASET UNSTRUCTURED_GRID
POINTS 64 double
0.860403 0.485629 0 
0.864044 0.460247 0 
0.834793 0.481938 0 
0.837577 0.455211 0 
0.867673 0.436531 0 
0.872822 0.412535 0 
0.842034 0.430566 0 
0.846518 0.40628 0 
0.87833 0.388666 0 
0.880882 0.363825 0 
0.850874 0.383486 0 
0.854389 0.360421 0 
0.886657 0.338861 0 
0.892745 0.315941 0 
0.860321 0.336161 0 
0.864105 0.311935 0 
0.81029 0.477441 0 
0.812943 0.45191 0 
0.786173 0.473765 0 
0.789169 0.446856 0 
0.81758 0.426707 0 
0.821296 0.402242 0 
0.79237 0.42212 0 
0.795341 0.398105 0 
0.824242 0.37831 0 
0.82843 0.355277 0 
0.798453 0.373604 0 
0.80232 0.349844 0 
0.83409 0.331095 0 
0.838942 0.305895 0 
0.807516 0.32658 0 
0.813122 0.300804 0 
0.760967 0.47173 0 
0.762291 0.445905 0 
0.734757 0.468321 0 
0.735503 0.442858 0 
0.767663 0.42144 0 
0.767842 0.396419 0 
0.741947 0.418533 0 
0.741255 0.395363 0 
0.770811 0.370648 0 
0.775601 0.346041 0 
0.744422 0.370314 0 
0.749828 0.345827 0 
0.779054 0.321751 0 
0.784252 0.296366 0 
0.751377 0.320523 0 
0.757435 0.294357 0 
0.709731 0.463973 0 
0.710747 0.439343 0 
0.68247 0.463525 0 
0.683383 0.438756 0 
0.715458 0.415502 0 
0.715251 0.390213 0 
0.687411 0.413499 0 
0.688065 0.387815 0 
0.718622 0.366331 0 
0.723724 0.341825 0 
0.691549 0.364733 0 
0.696781 0.339096 0 
0.72528 0.316293 0 
0.731234 0.291378 0 
0.700025 0.313477 0 
0.706483 0.288276 0 
CELLS 64 128
1 0
1 1
1 2
1 3
1 4
1 5
1 6
1 7
1 8
1 9
1 10
1 11
1 12
1 13
1 14
1 15
1 16
1 17
1 18
1 19
1 20
1 21
1 22
1 23
1 24
1 25
1 26
1 27
1 28
1 29
1 30
1 31
1 32
1 33
1 34
1 35
1 36
1 37
1 38
1 39
1 40
1 41
1 42
1 43
1 44
1 45
1 46
1 47
1 48
1 49
1 50
1 51
1 52
1 53
1 54
1 55
1 56
1 57
1 58
1 59
1 60
1 61
1 62
1 63
CELL_TYPES 64
1
1
1
1
1
1
1
1
1
1
1
1
1
1
1
1
1
1
1
1
1
1
1
1
1
1
1
1
1
1
1
1
1
1
1
1
1
1
1
1
1
1
1
1
1
1
1
1
1
1
1
1
1
1
1
1
1
1
1
1
1
1
1
1
POINT_DATA 64
VECTORS displacement double
0.347903 -0.126871 0 
0.351544 -0.177253 0 
0.297293 -0.130562 0 
0.300077 -0.182289 0 
0.355173 -0.225969 0 
0.360322 -0.274965 0 
0.304534 -0.231934 0 
0.309018 -0.28122 0 
0.36583 -0.323834 0 
0.368382 -0.373675 0 
0.313374 -0.329014 0 
0.316889 -0.377079 0 
0.374157 -0.423639 0 
0.380245 -0.471559 0 
0.322821 -0.426339 0 
0.326605 -0.475565 0 
0.24779 -0.135059 0 
0.250443 -0.18559 0 
0.198673 -0.138735 0 
0.201669 -0.190644 0 
0.25508 -0.235793 0 
0.258796 -0.285258 0 
0.20487 -0.24038 0 
0.207841 -0.289395 0 
0.261742 -0.33419 0 
0.26593 -0.382223 0 
0.210953 -0.338896 0 
0.21482 -0.387656 0 
0.27159 -0.431405 0 
0.276442 -0.481605 0 
0.220016 -0.43592 0 
0.225622 -0.486696 0 
0.148467 -0.14077 0 
0.149791 -0.191595 0 
0.0972568 -0.144179 0 
0.0980028 -0.194642 0 
0.155163 -0.24106 0 
0.155342 -0.291081 0 
0.104447 -0.243967 0 
0.103755 -0.292137 0 
0.158311 -0.341852 0 
0.163101 -0.391459 0 
0.106922 -0.342186 0 
0.112328 -0.391673 0 
0.166554 -0.440749 0 
0.171752 -0.491134 0 
0.113877 -0.441977 0 
0.119935 -0.493143 0 
0.0472309 -0.148527 0 
0.048247 -0.198157 0 
-0.00502992 -0.148975 0 
-0.00411684 -0.198744 0 
0.0529579 -0.246998 0 
0.0527513 -0.297287 0 
-8.87327e-05 -0.249001 0 
0.000564745 -0.299685 0 
0.0561222 -0.346169 0 
0.0612243 -0.395675 0 
0.00404885 -0.347767 0 
0.00928071 -0.398404 0 
0.0627803 -0.446207 0 
0.0687342 -0.496122 0 
0.012525 -0.449023 0 
0.0189826 -0.499224 0 
VECTORS velocity double
-2.19154 1.02858 0 
-1.23187 0.791034 0 
-2.17231 0.579535 0 
-1.15837 0.857889 0 
-1.62583 0.763296 0 
-1.85437 0.397037 0 
-1.66177 0.858523 0 
-1.7424 0.487786 0 
-1.77138 0.930192 0 
-1.7415 1.1388 0 
-1.78287 1.00488 0 
-1.91931 0.796609 0 
-0.593971 1.32869 0 
-0.593213 0.824544 0 
-0.563945 1.11618 0 
-1.60997 2.12253 0 
-1.38555 -0.162164 0 
-1.04241 -0.259435 0 
-1.70233 0.615 0 
-1.52089 0.77759 0 
-0.998896 0.272849 0 
-0.777143 -0.265004 0 
-1.74651 1.1956 0 
-1.21054 0.836028 0 
-1.15875 -0.068497 0 
-1.78125 -0.145165 0 
-0.980916 0.234217 0 
-1.81719 0.209822 0 
-0.945968 -0.227706 0 
-0.334718 -0.234202 0 
-1.09309 0.124197 0 
-0.188174 0.127327 0 
-1.36897 -0.0177713 0 
-0.920701 0.410302 0 
-1.99824 -0.510462 0 
-1.47535 0.0788136 0 
-1.22743 0.806882 0 
-0.817169 1.10139 0 
-1.54764 -0.291491 0 
-1.20146 0.00668657 0 
0.178609 0.876524 0 
-1.19616 0.611027 0 
-0.447129 -0.0459286 0 
-1.2192 0.362034 0 
-0.966116 0.27658 0 
-0.988555 0.752863 0 
-0.637411 0.0316697 0 
-1.27457 0.213991 0 
-2.28839 0.143026 0 
-1.96796 0.101211 0 
-1.97955 0.0697102 0 
-1.41436 0.0313863 0 
-1.62971 -0.109512 0 
-1.33046 0.0102913 0 
-1.49039 0.122123 0 
-1.36632 -0.236004 0 
-1.28044 0.24561 0 
-1.50022 0.404668 0 
-1.08816 -0.262772 0 
-0.986401 -0.125121 0 
-0.123014 0.119825 0 
-0.954425 -0.0612061 0 
-0.900727 0.417611 0 
-1.08248 0.270605 0 
SCALARS mass double 1
LOOKUP_TABLE default
0.625
0.625
0.625
0.625
0.625
0.625
0.625
0.625
0.625
0.625
0.625
0.625
0.625
0.625
0.625
0.625
0.625
0.625
0.625
0.625
0.625
0.625
0.625
0.625
0.625
0.625
0.625
0.625
0.625
0.625
0.625
0.625
0.625
0.625
0.625
0.625
0.625
0.625
0.625
0.625
0.625
0.625
0.625
0.625
0.625
0.625
0.625
0.625
0.625
0.625
0.625
0.625
0.625
0.625
0.625
0.625
0.625
0.625
0.625
0.625
0.625
0.625
0.625
0.625
SCALARS volume double 1
LOOKUP_TABLE default
0.000623904
0.000595543
0.000620947
0.000613455
0.000610376
0.000612001
0.000603486
0.000595604
0.000615133
0.000643358
0.000619309
0.00060664
0.000661239
0.000634807
0.000605206
0.000613403
0.00059218
0.0006054
0.000635711
0.000619364
0.000624008
0.000618594
0.000600849
0.000623008
0.000612208
0.000612587
0.000637422
0.000630647
0.000622124
0.000614751
0.000671803
0.000689289
0.000621375
0.000639423
0.000641894
0.000635737
0.000597102
0.000654206
0.000618706
0.000602646
0.000657623
0.000584286
0.000620021
0.000592022
0.000669041
0.000632468
0.000676262
0.000627837
0.000619475
0.000593772
0.000613316
0.000596537
0.000639368
0.000596204
0.000632807
0.000600146
0.00064657
0.000649711
0.000615065
0.000629451
0.000597912
0.000639496
0.000607954
0.000624958
VECTORS momentum double
-1.36971 0.642862 0 
-0.769917 0.494396 0 
-1.3577 0.362209 0 
-0.72398 0.536181 0 
-1.01615 0.47706 0 
-1.15898 0.248148 0 
-1.0386 0.536577 0 
-1.089 0.304867 0 
-1.10712 0.58137 0 
-1.08844 0.711749 0 
-1.11429 0.628053 0 
-1.19957 0.497881 0 
-0.371232 0.830433 0 
-0.370758 0.51534 0 
-0.352466 0.697615 0 
-1.00623 1.32658 0 
-0.86597 -0.101352 0 
-0.651509 -0.162147 0 
-1.06396 0.384375 0 
-0.950553 0.485994 0 
-0.62431 0.17053 0 
-0.485714 -0.165627 0 
-1.09157 0.74725 0 
-0.756589 0.522517 0 
-0.724219 -0.0428106 0 
-1.11328 -0.090728 0 
-0.613073 0.146386 0 
-1.13575 0.131139 0 
-0.59123 -0.142316 0 
-0.209199 -0.146376 0 
-0.683179 0.0776233 0 
-0.117609 0.0795792 0 
-0.855608 -0.011107 0 
-0.575438 0.256438 0 
-1.2489 -0.319039 0 
-0.922092 0.0492585 0 
-0.767145 0.504301 0 
-0.510731 0.688368 0 
-0.967277 -0.182182 0 
-0.750911 0.00417911 0 
0.111631 0.547828 0 
-0.747602 0.381892 0 
-0.279456 -0.0287054 0 
-0.762 0.226271 0 
-0.603823 0.172863 0 
-0.617847 0.470539 0 
-0.398382 0.0197935 0 
-0.796608 0.133744 0 
-1.43025 0.089391 0 
-1.22998 0.0632571 0 
-1.23722 0.0435688 0 
-0.883976 0.0196165 0 
-1.01857 -0.0684447 0 
-0.831537 0.00643204 0 
-0.931493 0.076327 0 
-0.853952 -0.147503 0 
-0.800274 0.153506 0 
-0.937635 0.252917 0 
-0.680101 -0.164232 0 
-0.616501 -0.0782008 0 
-0.076884 0.0748908 0 
-0.596516 -0.0382538 0 
-0.562954 0.261007 0 
-0.676548 0.169128 0 
VECTORS body_force double
0 -9.81 0 
0 -9.81 0 
0 -9.81 0 
0 -9.81 0 
0 -9.81 0 
0 -9.81 0 
0 -9.81 0 
0 -9.81 0 
0 -9.81 0 
0 -9.81 0 
0 -9.81 0 
0 -9.81 0 
0 -9.81 0 
0 -9.81 0 
0 -9.81 0 
0 -9.81 0 
0 -9.81 0 
0 -9.81 0 
0 -9.81 0 
0 -9.81 0 
0 -9.81 0 
0 -9.81 0 
0 -9.81 0 
0 -9.81 0 
0 -9.81 0 
0 -9.81 0 
0 -9.81 0 
0 -9.81 0 
0 -9.81 0 
0 -9.81 0 
0 -9.81 0 
0 -9.81 0 
0 -9.81 0 
0 -9.81 0 
0 -9.81 0 
0 -9.81 0 
0 -9.81 0 
0 -9.81 0 
0 -9.81 0 
0 -9.81 0 
0 -9.81 0 
0 -9.81 0 
0 -9.81 0 
0 -9.81 0 
0 -9.81 0 
0 -9.81 0 
0 -9.81 0 
0 -9.81 0 
0 -9.81 0 
0 -9.81 0 
0 -9.81 0 
0 -9.81 0 
0 -9.81 0 
0 -9.81 0 
0 -9.81 0 
0 -9.81 0 
0 -9.81 0 
0 -9.81 0 
0 -9.81 0 
0 -9.81 0 
0 -9.81 0 
0 -9.81 0 
0 -9.81 0 
0 -9.81 0 
TENSORS cauchy_stress double
-1263.49 3012.15 0
3012.15 926.111 0
0 0 -101.215

-3116.07 152.978 0
152.978 -6168.31 0
0 0 -2785.31

-3313.51 3142.75 0
3142.75 2062.47 0
0 0 -375.314

-4105.48 1756.06 0
1756.06 519.85 0
0 0 -1075.69

-2101.52 5666.98 0
5666.98 -2451.56 0
0 0 -1365.92

-558.066 6368.19 0
6368.19 -3483.85 0
0 0 -1212.58

-3999.35 -1494.21 0
-1494.21 -2736.85 0
0 0 -2020.86

-1929.18 4678.06 0
4678.06 -7335.25 0
0 0 -2779.33

-711.365 -493.024 0
-493.024 -2348.77 0
0 0 -918.039

3484.81 1294.86 0
1294.86 2082.47 0
0 0 1670.18

6491.7 3500.54 0
3500.54 -8250.69 0
0 0 -527.696

-357.099 1568.03 0
1568.03 -5376.82 0
0 0 -1720.17

6660.3 3151.55 0
3151.55 4178.91 0
0 0 3251.76

1362.2 1338.09 0
1338.09 1631.79 0
0 0 898.195

-1534.5 2113.66 0
2113.66 -4654.36 0
0 0 -1856.66

2611.18 -214.072 0
-214.072 -6212.87 0
0 0 -1080.51

-4692.67 1497.58 0
1497.58 -5680.59 0
0 0 -3111.98

-3804.09 -2397.98 0
-2397.98 -2323.24 0
0 0 -1838.2

-330.602 1166.56 0
1166.56 3598.23 0
0 0 980.289

1535.6 -2520.99 0
-2520.99 -3277.58 0
0 0 -522.592

-22.302 2346.87 0
2346.87 -283.221 0
0 0 -91.657

242.273 4722.39 0
4722.39 -2223.55 0
0 0 -594.383

-4079.06 1281.08 0
1281.08 -3499.46 0
0 0 -2273.56

3755.96 -3346.7 0
-3346.7 -4369.87 0
0 0 -184.172

716.57 5008.92 0
5008.92 -4693.26 0
0 0 -1193.01

3065.4 -1148.54 0
-1148.54 -6923.27 0
0 0 -1157.36

5097.67 -2320.05 0
-2320.05 -1313.06 0
0 0 1135.38

7495.63 559.702 0
559.702 -5765.95 0
0 0 518.906

-181.957 3123.04 0
3123.04 -705.074 0
0 0 -266.109

-5465.24 6673.57 0
6673.57 2285.42 0
0 0 -953.945

13542.2 -1873.07 0
-1873.07 344.946 0
0 0 4166.16

13470.6 -3637.38 0
-3637.38 5358.06 0
0 0 5648.6

371.942 -3118.9 0
-3118.9 -1490.59 0
0 0 -335.594

6349.66 -3842.38 0
-3842.38 -1962.26 0
0 0 1316.22

4174.68 194.228 0
194.228 954.346 0
0 0 1538.71

3789.87 -3334.02 0
-3334.02 -514.294 0
0 0 982.674

-6168.74 -4032.52 0
-4032.52 -2612.74 0
0 0 -2634.45

5883.84 1027.14 0
1027.14 2899.06 0
0 0 2634.87

4185.71 2935.07 0
2935.07 -6132.09 0
0 0 -583.913

4518.25 3955.45 0
3955.45 -11522.3 0
0 0 -2101.2

7604.2 -7445.33 0
-7445.33 2180.47 0
0 0 2935.4

-4638.22 2831.35 0
2831.35 -8315.83 0
0 0 -3886.22

-2136.04 -4377.39 0
-4377.39 597.885 0
0 0 -461.446

-3064.71 -1213.72 0
-1213.72 -7359.99 0
0 0 -3127.41

9944.47 243.502 0
243.502 3150.44 0
0 0 3928.48

5688.25 4861.22 0
4861.22 -3404.03 0
0 0 685.265

10719.7 -7501.04 0
-7501.04 4439.59 0
0 0 4547.79

1460.74 -4235.66 0
-4235.66 -589.776 0
0 0 261.291

1338.55 -73.7453 0
-73.7453 -3046.09 0
0 0 -512.26

-739.142 -1871.08 0
-1871.08 -9117.84 0
0 0 -2957.09

-2094.02 -1335.1 0
-1335.1 -1535.23 0
0 0 -1088.78

-3324.41 -2627.87 0
-2627.87 -5639.27 0
0 0 -2689.1

4526.52 3096.6 0
3096.6 -155.513 0
0 0 1311.3

-2601.39 975.901 0
975.901 -6469.41 0
0 0 -2721.24

5103.19 -2029.67 0
-2029.67 -2715.91 0
0 0 716.183

-1775.98 534.128 0
534.128 -6027.67 0
0 0 -2341.09

8242.27 -5321.93 0
-5321.93 -1717.25 0
0 0 1957.51

4819.99 4826.95 0
4826.95 2636.85 0
0 0 2237.05

-10.1764 -3036.27 0
-3036.27 -3071.44 0
0 0 -924.486

3856.52 -1456.3 0
-1456.3 -2491.69 0
0 0 409.449

-1884.91 -2625.27 0
-2625.27 -6635.98 0
0 0 -2556.27

2862.68 3525.64 0
3525.64 1546.68 0
0 0 1322.81

-1043.4 -1648.38 0
-1648.38 -4274.28 0
0 0 -1595.3

916.905 14.2708 0
14.2708 -929.97 0
0 0 -3.91946

TENSORS velocity_gradient double
0.186058 -8.95375 0
2.21068 1.88126 0
0 0 0

-1.97758 -8.66165 0
-0.609214 2.26196 0
0 0 0

-4.77469 -8.53916 0
7.2429 -0.721341 0
0 0 0

-2.0965 -7.60585 0
4.76384 -0.245323 0
0 0 0

-3.171 2.34179 0
-0.684124 1.15342 0
0 0 0

-3.81007 2.48109 0
1.0002 0.786283 0
0 0 0

-4.26231 0.898919 0
2.17128 1.79509 0
0 0 0

-6.38742 1.09311 0
0.24034 1.80164 0
0 0 0

-2.19855 -8.242 0
3.91625 -5.93235 0
0 0 0

1.81811 -8.61807 0
8.24221 -6.33738 0
0 0 0

-3.14397 -3.95821 0
3.80619 -1.19536 0
0 0 0

2.05683 -4.3851 0
8.66316 -1.76365 0
0 0 0

3.04384 -9.24036 0
11.1319 -1.98801 0
0 0 0

1.41631 -8.82589 0
12.3548 -2.29943 0
0 0 0

2.87372 -11.0972 0
11.2597 -0.592879 0
0 0 0

1.15809 -10.8492 0
12.5488 -0.77921 0
0 0 0

-4.30728 -5.87958 0
6.84385 -2.99197 0
0 0 0

-2.15268 -5.03204 0
4.44313 -2.22376 0
0 0 0

1.87982 -4.2106 0
7.13955 -4.4667 0
0 0 0

2.29447 -5.5391 0
6.54822 -3.10657 0
0 0 0

-4.80752 -2.61761 0
1.75629 -0.881596 0
0 0 0

-7.77994 -1.69645 0
-0.297157 1.00951 0
0 0 0

0.963004 -5.70105 0
6.97194 -2.81726 0
0 0 0

-2.21413 -1.39326 0
5.11077 3.40794 0
0 0 0

-6.58457 -1.27597 0
2.43006 3.1182 0
0 0 0

-4.54959 -2.61877 0
5.94812 2.12846 0
0 0 0

-4.48243 0.393396 0
2.89453 6.11974 0
0 0 0

-4.17958 -3.9272 0
4.76053 2.42715 0
0 0 0

-2.39236 -10.5875 0
6.44912 -0.28113 0
0 0 0

-0.254473 -9.94457 0
5.99214 -0.676217 0
0 0 0

-2.00439 -8.20613 0
6.36159 -0.818386 0
0 0 0

-0.454429 -4.90452 0
6.17843 -2.51708 0
0 0 0

1.93893 -3.41323 0
7.08153 -5.24935 0
0 0 0

2.28401 -6.83576 0
6.54383 -2.68335 0
0 0 0

6.41959 -3.57366 0
-0.673175 -4.14086 0
0 0 0

5.70956 -8.18282 0
1.83145 -1.07995 0
0 0 0

0.933182 -7.146 0
6.98205 -2.3276 0
0 0 0

-0.745976 -3.0498 0
6.47619 0.942441 0
0 0 0

5.8426 -8.21671 0
3.47112 -1.49763 0
0 0 0

5.73015 -4.74874 0
4.76208 -1.51877 0
0 0 0

-3.27681 -1.83327 0
2.15085 2.19668 0
0 0 0

-4.4342 -3.56009 0
-0.871112 1.1259 0
0 0 0

3.72184 -4.14339 0
4.83804 -1.42088 0
0 0 0

-0.883155 -1.21495 0
1.68112 1.69878 0
0 0 0

-1.08756 -4.48017 0
0.693246 0.50806 0
0 0 0

2.70816 -1.50786 0
2.67966 -1.50677 0
0 0 0

-0.126284 -0.836126 0
1.14997 2.18713 0
0 0 0

3.00104 3.33221 0
2.84067 0.617683 0
0 0 0

6.24025 -4.59465 0
-0.191119 -1.3964 0
0 0 0

5.72849 -8.0483 0
2.0647 0.577939 0
0 0 0

-0.243277 -5.2225 0
1.69453 0.430968 0
0 0 0

-0.329075 -7.91787 0
2.58936 1.96297 0
0 0 0

5.85864 -8.07282 0
3.66884 0.275687 0
0 0 0

5.57107 -5.28487 0
4.8899 -1.04668 0
0 0 0

-0.222866 -7.934 0
3.52206 1.82136 0
0 0 0

-0.588934 -6.27576 0
5.62125 0.659047 0
0 0 0

4.6707 -5.16334 0
5.33546 -1.10683 0
0 0 0

3.35768 -2.16543 0
4.59721 -0.393324 0
0 0 0

-1.39387 -6.15922 0
8.66483 0.2184 0
0 0 0

0.0853935 -3.87575 0
7.81227 -3.63197 0
0 0 0

1.20764 -2.03927 0
1.41875 -0.206819 0
0 0 0

-0.83702 3.38116 0
-1.03519 0.418532 0
0 0 0

0.48529 -3.81739 0
3.56569 -3.2806 0
0 0 0

-1.082 1.44289 0
-1.19531 -0.848378 0
0 0 0

SCALARS active double 1
LOOKUP_TABLE default
1
1
1
1
1
1
1
1
1
1
1
1
1
1
1
1
1
1
1
1
1
1
1
1
1
1
1
1
1
1
1
1
1
1
1
1
1
1
1
1
1
1
1
1
1
1
1
1
1
1
1
1
1
1
1
1
1
1
1
1
1
1
1
1
SCALARS extent double 1
LOOKUP_TABLE default
0.0125
0.0125
0.0125
0.0125
0.0125
0.0125
0.0125
0.0125
0.0125
0.0125
0.0125
0.0125
0.0125
0.0125
0.0125
0.0125
0.0125
0.0125
0.0125
0.0125
0.0125
0.0125
0.0125
0.0125
0.0125
0.0125
0.0125
0.0125
0.0125
0.0125
0.0125
0.0125
0.0125
0.0125
0.0125
0.0125
0.0125
0.0125
0.0125
0.0125
0.0125
0.0125
0.0125
0.0125
0.0125
0.0125
0.0125
0.0125
0.0125
0.0125
0.0125
0.0125
0.0125
0.0125
0.0125
0.0125
0.0125
0.0125
0.0125
0.0125
0.0125
0.0125
0.0125
0.0125
SCALARS pressure double 1
LOOKUP_TABLE default
146.199
4023.23
542.121
1553.77
1973
1751.5
2919.02
4014.59
1326.06
-2412.49
762.227
2484.7
-4696.99
-1297.39
2681.84
1560.73
4495.08
2655.18
-1415.97
754.855
132.393
858.553
3284.02
266.027
1723.23
1671.75
-1640
-749.531
384.38
1377.92
-6017.78
-8159.09
484.748
-1901.2
-2222.58
-1419.42
3805.31
-3805.93
843.43
3035.07
-4240.03
5613.42
666.534
4517.37
-5674.46
-989.827
-6569.03
-377.42
739.931
4271.36
1572.68
3884.26
-1894.1
3930.68
-1034.49
3381.58
-2827.51
-3231.3
1335.37
-591.426
3692.39
-1910.72
2304.33
5.66145
SCALARS density double 1
LOOKUP_TABLE default
1001.76
1049.46
1006.53
1018.82
1023.96
1021.24
1035.65
1049.35
1016.04
971.465
1009.19
1030.27
945.195
984.552
1032.71
1018.91
1055.42
1032.38
983.152
1009.1
1001.59
1010.36
1040.2
1003.2
1020.89
1020.26
980.512
991.046
1004.62
1016.67
930.332
906.731
1005.83
977.444
973.682
983.111
1046.72
955.356
1010.17
1037.09
950.392
1069.68
1008.03
1055.7
934.173
988.192
924.199
995.481
1008.92
1052.59
1019.05
1047.71
977.527
1048.3
987.663
1041.41
966.639
961.967
1016.15
992.928
1045.3
977.332
1028.04
1000.07
