# vtk DataFile Version 3.0
Frame: 58, Time: 0.967
ASCII
DATASET UNSTRUCTURED_GRID
POINTS 64 double
0.283439 0.152588 0 
0.260887 0.142991 0 
0.271958 0.17534 0 
0.249723 0.164913 0 
0.239898 0.129366 0 
0.216742 0.118311 0 
0.230071 0.153234 0 
0.207793 0.142428 0 
0.197471 0.106909 0 
0.176112 0.0913446 0 
0.18828 0.130719 0 
0.168001 0.115675 0 
0.151541 0.0813686 0 
0.135631 0.0688614 0 
0.141735 0.104602 0 
0.12167 0.0892222 0 
0.258147 0.198097 0 
0.237131 0.185929 0 
0.250534 0.221578 0 
0.227383 0.208367 0 
0.217366 0.175338 0 
0.195529 0.163483 0 
0.20551 0.19818 0 
0.184266 0.184739 0 
0.175514 0.149704 0 
0.156802 0.136188 0 
0.162954 0.169823 0 
0.141108 0.157954 0 
0.132554 0.126761 0 
0.109047 0.115888 0 
0.11874 0.148021 0 
0.0967084 0.138153 0 
0.241007 0.244416 0 
0.218101 0.229611 0 
0.22929 0.266021 0 
0.207497 0.25108 0 
0.195373 0.219418 0 
0.173417 0.206813 0 
0.185874 0.241855 0 
0.16268 0.230358 0 
0.152459 0.192967 0 
0.131581 0.181907 0 
0.14094 0.215606 0 
0.119686 0.205811 0 
0.109198 0.169319 0 
0.0864795 0.158282 0 
0.0965932 0.192565 0 
0.0735923 0.180024 0 
0.217402 0.287837 0 
0.196069 0.273178 0 
0.202481 0.306969 0 
0.181032 0.29506 0 
0.173507 0.265601 0 
0.151621 0.251782 0 
0.157892 0.286589 0 
0.137821 0.272255 0 
0.129415 0.237365 0 
0.106896 0.22785 0 
0.116214 0.259945 0 
0.0938132 0.249565 0 
0.0852316 0.214554 0 
0.0629025 0.202476 0 
0.0737497 0.235702 0 
0.0520145 0.224505 0 
CELLS 64 128
1 0
1 1
1 2
1 3
1 4
1 5
1 6
1 7
1 8
1 9
1 10
1 11
1 12
1 13
1 14
1 15
1 16
1 17
1 18
1 19
1 20
1 21
1 22
1 23
1 24
1 25
1 26
1 27
1 28
1 29
1 30
1 31
1 32
1 33
1 34
1 35
1 36
1 37
1 38
1 39
1 40
1 41
1 42
1 43
1 44
1 45
1 46
1 47
1 48
1 49
1 50
1 51
1 52
1 53
1 54
1 55
1 56
1 57
1 58
1 59
1 60
1 61
1 62
1 63
CELL_TYPES 64
1
1
1
1
1
1
1
1
1
1
1
1
1
1
1
1
1
1
1
1
1
1
1
1
1
1
1
1
1
1
1
1
1
1
1
1
1
1
1
1
1
1
1
1
1
1
1
1
1
1
1
1
1
1
1
1
1
1
1
1
1
1
1
1
POINT_DATA 64
VECTORS displacement double
-0.129061 -0.259912 0 
-0.151613 -0.294509 0 
-0.165542 -0.23716 0 
-0.187777 -0.272587 0 
-0.172602 -0.333134 0 
-0.195758 -0.369189 0 
-0.207429 -0.309266 0 
-0.229707 -0.345072 0 
-0.215029 -0.405591 0 
-0.236388 -0.446155 0 
-0.24922 -0.381781 0 
-0.269499 -0.421825 0 
-0.260959 -0.481131 0 
-0.276869 -0.518639 0 
-0.295765 -0.457898 0 
-0.31583 -0.498278 0 
-0.204353 -0.214403 0 
-0.225369 -0.251571 0 
-0.236966 -0.190922 0 
-0.260117 -0.229133 0 
-0.245134 -0.287162 0 
-0.266971 -0.324017 0 
-0.28199 -0.26432 0 
-0.303234 -0.302761 0 
-0.286986 -0.362796 0 
-0.305698 -0.401312 0 
-0.324546 -0.342677 0 
-0.346392 -0.379546 0 
-0.329946 -0.435739 0 
-0.353453 -0.471612 0 
-0.36876 -0.414479 0 
-0.390792 -0.449347 0 
-0.271493 -0.168084 0 
-0.294399 -0.207889 0 
-0.30821 -0.146479 0 
-0.330003 -0.18642 0 
-0.317127 -0.243082 0 
-0.339083 -0.280687 0 
-0.351626 -0.220645 0 
-0.37482 -0.257142 0 
-0.360041 -0.319533 0 
-0.380919 -0.355593 0 
-0.39656 -0.296894 0 
-0.417814 -0.331689 0 
-0.403302 -0.393181 0 
-0.42602 -0.429218 0 
-0.440907 -0.369935 0 
-0.463908 -0.407476 0 
-0.345098 -0.124663 0 
-0.366431 -0.164322 0 
-0.385019 -0.105531 0 
-0.406468 -0.14244 0 
-0.388993 -0.196899 0 
-0.410879 -0.235718 0 
-0.429608 -0.175911 0 
-0.449679 -0.215245 0 
-0.433085 -0.275135 0 
-0.455604 -0.30965 0 
-0.471286 -0.252555 0 
-0.493687 -0.287935 0 
-0.477268 -0.347946 0 
-0.499598 -0.385024 0 
-0.51375 -0.326798 0 
-0.535486 -0.362995 0 
VECTORS velocity double
0.164961 2.4655 0 
0.1579 1.97081 0 
-0.444434 2.16495 0 
-0.281701 1.63023 0 
0.812439 1.20388 0 
0.343301 1.19314 0 
0.173216 0.99222 0 
-0.231268 1.02275 0 
0.942804 0.744407 0 
-0.354954 0.76438 0 
1.14208 0.644631 0 
0.853551 0.930483 0 
0.0922062 0.699799 0 
0.323591 0.66927 0 
0.875821 1.27438 0 
0.623334 0.967928 0 
-0.255024 1.40818 0 
-0.600068 1.33173 0 
-0.248335 1.18614 0 
-0.445256 0.950429 0 
-0.418328 1.28286 0 
-0.639404 1.022 0 
-0.675598 1.246 0 
-1.22997 1.02168 0 
0.357663 0.48006 0 
0.741943 0.62176 0 
-0.789716 0.631704 0 
-0.389087 1.09411 0 
0.634206 0.444984 0 
0.383215 0.901827 0 
0.185541 0.937109 0 
0.249226 0.753247 0 
-0.437185 0.940434 0 
-0.101955 0.772982 0 
-0.840787 0.963243 0 
-0.456924 0.944319 0 
0.182848 1.40027 0 
0.0744395 1.2849 0 
-0.289217 1.38549 0 
-0.290132 1.43392 0 
0.000406879 0.765786 0 
0.039572 0.938856 0 
-0.351131 1.04241 0 
-0.488492 0.966372 0 
0.0949691 0.326509 0 
0.125787 0.463739 0 
-0.0873451 1.06278 0 
0.178431 0.916737 0 
-0.463096 1.56686 0 
-0.499579 1.19691 0 
-0.606719 1.16167 0 
-0.632127 1.1354 0 
-0.35479 1.08441 0 
-0.110374 1.21719 0 
-0.790654 0.88754 0 
-0.290323 1.17402 0 
0.0275052 0.875082 0 
-0.201708 0.611579 0 
-0.33187 0.776979 0 
-0.0642817 1.31243 0 
0.454016 1.02361 0 
0.36988 1.16065 0 
-0.26724 1.11558 0 
0.0534704 1.21622 0 
SCALARS mass double 1
LOOKUP_TABLE default
0.625
0.625
0.625
0.625
0.625
0.625
0.625
0.625
0.625
0.625
0.625
0.625
0.625
0.625
0.625
0.625
0.625
0.625
0.625
0.625
0.625
0.625
0.625
0.625
0.625
0.625
0.625
0.625
0.625
0.625
0.625
0.625
0.625
0.625
0.625
0.625
0.625
0.625
0.625
0.625
0.625
0.625
0.625
0.625
0.625
0.625
0.625
0.625
0.625
0.625
0.625
0.625
0.625
0.625
0.625
0.625
0.625
0.625
0.625
0.625
0.625
0.625
0.625
0.625
SCALARS volume double 1
LOOKUP_TABLE default
0.000608207
0.000610539
0.00059773
0.000600006
0.000629502
0.000641522
0.000611659
0.000590561
0.000594478
0.000644919
0.000566563
0.000658124
0.000628147
0.000592019
0.000644621
0.000653537
0.000613353
0.000613772
0.000639333
0.000659527
0.000622015
0.000583603
0.000640404
0.000611364
0.000579013
0.00060483
0.000609126
0.00061732
0.000624072
0.000649637
0.000555033
0.000610031
0.000613805
0.00060775
0.000652241
0.000604342
0.00064078
0.000642169
0.000617056
0.000605069
0.000627665
0.000640074
0.000626971
0.000638353
0.000596718
0.000604004
0.000649782
0.000640376
0.000617289
0.000647244
0.000627735
0.000615713
0.000635739
0.000629675
0.000599957
0.000601829
0.000617129
0.000616533
0.000619496
0.000640696
0.000591944
0.000619292
0.000620005
0.000621371
VECTORS momentum double
0.1031 1.54094 0 
0.0986878 1.23176 0 
-0.277771 1.35309 0 
-0.176063 1.0189 0 
0.507775 0.752426 0 
0.214563 0.74571 0 
0.10826 0.620138 0 
-0.144543 0.639218 0 
0.589252 0.465254 0 
-0.221846 0.477738 0 
0.713803 0.402895 0 
0.533469 0.581552 0 
0.0576289 0.437374 0 
0.202244 0.418294 0 
0.547388 0.796488 0 
0.389584 0.604955 0 
-0.15939 0.88011 0 
-0.375043 0.832334 0 
-0.155209 0.741336 0 
-0.278285 0.594018 0 
-0.261455 0.801786 0 
-0.399628 0.638747 0 
-0.422249 0.778753 0 
-0.768729 0.638551 0 
0.22354 0.300037 0 
0.463714 0.3886 0 
-0.493572 0.394815 0 
-0.243179 0.683817 0 
0.396378 0.278115 0 
0.23951 0.563642 0 
0.115963 0.585693 0 
0.155766 0.470779 0 
-0.273241 0.587772 0 
-0.0637217 0.483114 0 
-0.525492 0.602027 0 
-0.285577 0.590199 0 
0.11428 0.875166 0 
0.0465247 0.803061 0 
-0.18076 0.865931 0 
-0.181333 0.896199 0 
0.000254299 0.478616 0 
0.0247325 0.586785 0 
-0.219457 0.651506 0 
-0.305308 0.603982 0 
0.0593557 0.204068 0 
0.0786169 0.289837 0 
-0.0545907 0.664235 0 
0.111519 0.572961 0 
-0.289435 0.979289 0 
-0.312237 0.74807 0 
-0.379199 0.726043 0 
-0.395079 0.709627 0 
-0.221744 0.677754 0 
-0.0689838 0.760741 0 
-0.494159 0.554713 0 
-0.181452 0.733765 0 
0.0171908 0.546926 0 
-0.126068 0.382237 0 
-0.207419 0.485612 0 
-0.0401761 0.820266 0 
0.28376 0.639755 0 
0.231175 0.725405 0 
-0.167025 0.69724 0 
0.033419 0.760135 0 
VECTORS body_force double
0 -9.81 0 
0 -9.81 0 
0 -9.81 0 
0 -9.81 0 
0 -9.81 0 
0 -9.81 0 
0 -9.81 0 
0 -9.81 0 
0 -9.81 0 
0 -9.81 0 
0 -9.81 0 
0 -9.81 0 
0 -9.81 0 
0 -9.81 0 
0 -9.81 0 
0 -9.81 0 
0 -9.81 0 
0 -9.81 0 
0 -9.81 0 
0 -9.81 0 
0 -9.81 0 
0 -9.81 0 
0 -9.81 0 
0 -9.81 0 
0 -9.81 0 
0 -9.81 0 
0 -9.81 0 
0 -9.81 0 
0 -9.81 0 
0 -9.81 0 
0 -9.81 0 
0 -9.81 0 
0 -9.81 0 
0 -9.81 0 
0 -9.81 0 
0 -9.81 0 
0 -9.81 0 
0 -9.81 0 
0 -9.81 0 
0 -9.81 0 
0 -9.81 0 
0 -9.81 0 
0 -9.81 0 
0 -9.81 0 
0 -9.81 0 
0 -9.81 0 
0 -9.81 0 
0 -9.81 0 
0 -9.81 0 
0 -9.81 0 
0 -9.81 0 
0 -9.81 0 
0 -9.81 0 
0 -9.81 0 
0 -9.81 0 
0 -9.81 0 
0 -9.81 0 
0 -9.81 0 
0 -9.81 0 
0 -9.81 0 
0 -9.81 0 
0 -9.81 0 
0 -9.81 0 
0 -9.81 0 
TENSORS cauchy_stress double
-5776.76 -1819.46 0
-1819.46 538.863 0
0 0 -1571.37

-6170.28 595.556 0
595.556 1668.44 0
0 0 -1350.55

-5744.88 -5982.35 0
-5982.35 -2834.34 0
0 0 -2573.77

-9386.35 2395.69 0
2395.69 1537.77 0
0 0 -2354.57

-2853.17 134.895 0
134.895 4233.37 0
0 0 414.061

539.717 4626.48 0
4626.48 4478.01 0
0 0 1505.32

-9450.12 771.464 0
771.464 5300.9 0
0 0 -1244.77

-7444.57 -2252.6 0
-2252.6 -3455.15 0
0 0 -3269.92

-9433.62 1715.84 0
1715.84 -194.943 0
0 0 -2888.57

7243.06 3763.65 0
3763.65 -1209.64 0
0 0 1810.02

-16668.9 1716.48 0
1716.48 -2208.71 0
0 0 -5663.27

4291.51 3892.64 0
3892.64 5639.56 0
0 0 2979.32

1422.11 -7445.37 0
-7445.37 -456.381 0
0 0 289.718

-2456.55 -5738.13 0
-5738.13 -7969.17 0
0 0 -3127.72

-2075.13 9041.96 0
9041.96 8019.65 0
0 0 1783.35

-3247.82 7375.78 0
7375.78 11833.9 0
0 0 2575.83

-5167.11 -8953.95 0
-8953.95 1549.62 0
0 0 -1085.25

589.975 -1641.35 0
-1641.35 -4076.2 0
0 0 -1045.87

2740.73 -1334.46 0
-1334.46 1619.47 0
0 0 1308.06

7796.77 3113.88 0
3113.88 2543.73 0
0 0 3102.15

-198.465 -2991.02 0
-2991.02 -722.137 0
0 0 -276.18

-3697 -3864.75 0
-3864.75 -9482.12 0
0 0 -3953.74

369.868 1342.94 0
1342.94 4312.24 0
0 0 1404.63

-4395.99 3329.85 0
3329.85 153.734 0
0 0 -1272.68

533.947 -3279.4 0
-3279.4 -15231.2 0
0 0 -4409.19

2916.3 -9346.59 0
-9346.59 -9224.89 0
0 0 -1892.58

-6826.5 2865.63 0
2865.63 1879.09 0
0 0 -1484.22

698.291 -1343.74 0
-1343.74 -3075.97 0
0 0 -713.302

2473.48 -123.646 0
-123.646 -2759.38 0
0 0 -85.7697

3962.01 -4371.11 0
-4371.11 3473 0
0 0 2230.5

-9851.27 -1137.24 0
-1137.24 -12980.2 0
0 0 -6849.43

988.189 -1692.13 0
-1692.13 -5649.99 0
0 0 -1398.54

-670.341 -77.076 0
-77.076 -2805.64 0
0 0 -1042.8

199.937 3493.61 0
3493.61 -5582.27 0
0 0 -1614.7

3983.78 -565.79 0
-565.79 4220.68 0
0 0 2461.34

-2614.54 -957.628 0
-957.628 -3849.04 0
0 0 -1939.07

4123.7 1150.09 0
1150.09 671.302 0
0 0 1438.5

4423.99 -2921.78 0
-2921.78 787.411 0
0 0 1563.42

-1761.79 1945.96 0
1945.96 -698.138 0
0 0 -737.978

-6652.43 7652.98 0
7652.98 419.853 0
0 0 -1869.77

3782.26 -1331.67 0
-1331.67 -2964.08 0
0 0 245.454

3128.03 -2688.9 0
-2688.9 1455.07 0
0 0 1374.93

-1229.88 1750.86 0
1750.86 1835.38 0
0 0 181.65

-444.221 -133.148 0
-133.148 4509.6 0
0 0 1219.61

-2848.94 571.783 0
571.783 -6056.4 0
0 0 -2671.6

-2652.09 3249.41 0
3249.41 -3919.3 0
0 0 -1971.42

4633.4 3378.7 0
3378.7 2844.59 0
0 0 2243.4

2857.02 -1621.1 0
-1621.1 1816.8 0
0 0 1402.14

-3424.45 -938.316 0
-938.316 1037.19 0
0 0 -716.177

4785.11 -2838.78 0
-2838.78 1940.23 0
0 0 2017.6

1419.63 30.9046 0
30.9046 -579.936 0
0 0 251.907

2330.47 -2742.36 0
-2742.36 -5209.52 0
0 0 -863.714

2198.89 -1239.02 0
-1239.02 1077.31 0
0 0 982.859

1615.31 -628.327 0
-628.327 -182.135 0
0 0 429.954

-1968.34 25.3563 0
25.3563 -5895.85 0
0 0 -2359.26

-1963.07 -559.361 0
-559.361 -5301.89 0
0 0 -2179.49

2999.88 -1836.1 0
-1836.1 -5437.03 0
0 0 -731.146

1621.24 -434.904 0
-434.904 -4244.2 0
0 0 -786.889

112.778 -1424.64 0
-1424.64 -1813.88 0
0 0 -510.331

4235.7 -1793.35 0
-1793.35 534.181 0
0 0 1430.96

-2609.4 415.166 0
415.166 -7840.64 0
0 0 -3135.01

-1626.67 -233.612 0
-233.612 -137.705 0
0 0 -529.312

-1143.18 -3271.7 0
-3271.7 -399.774 0
0 0 -462.886

-813.078 3792.01 0
3792.01 -306.779 0
0 0 -335.957

TENSORS velocity_gradient double
1.11263 -7.07453 0
15.2052 -3.80418 0
0 0 0

0.190097 -11.6917 0
15.8538 1.97961 0
0 0 0

2.41333 -6.20851 0
14.2332 -6.5321 0
0 0 0

1.07575 -6.99614 0
11.8126 -5.18959 0
0 0 0

1.15397 -12.8513 0
11.4867 2.72571 0
0 0 0

1.41597 -12.2851 0
11.2509 2.21614 0
0 0 0

0.558772 -8.72853 0
11.0689 -0.183087 0
0 0 0

0.827793 -12.0747 0
11.7803 2.02676 0
0 0 0

0.049302 -11.1909 0
3.74231 1.59456 0
0 0 0

-2.24765 12.3165 0
0.970332 0.493666 0
0 0 0

-1.93139 -11.1898 0
2.66441 1.12231 0
0 0 0

-1.05597 -9.99454 0
1.74081 -0.138668 0
0 0 0

-2.77635 7.11373 0
-0.0771128 0.708464 0
0 0 0

-2.53206 4.25792 0
-2.39398 0.195268 0
0 0 0

2.17187 -5.49387 0
-0.766501 -1.15641 0
0 0 0

0.896797 1.89153 0
-1.44373 -0.460542 0
0 0 0

3.41896 -5.53835 0
13.3391 -5.88801 0
0 0 0

-0.331748 -6.87831 0
4.7537 -3.12523 0
0 0 0

1.8005 -1.36932 0
6.67727 -4.75556 0
0 0 0

-0.802867 -1.26356 0
1.0556 -3.07903 0
0 0 0

-0.044069 -6.33406 0
6.93782 1.00686 0
0 0 0

-2.44971 -5.95195 0
4.52894 4.56949 0
0 0 0

-0.698473 -4.74259 0
2.42261 2.11565 0
0 0 0

-2.64051 -6.06807 0
3.26078 4.96218 0
0 0 0

-2.85692 -8.71937 0
3.62941 2.29549 0
0 0 0

-2.25592 -9.35115 0
3.0068 -0.817466 0
0 0 0

-2.84576 -6.36637 0
3.54386 5.37361 0
0 0 0

-2.15389 -6.22695 0
1.28743 5.27432 0
0 0 0

0.386412 -7.27826 0
0.091353 -1.90106 0
0 0 0

1.42301 -5.03861 0
-0.324878 -2.80035 0
0 0 0

-1.53431 -5.82099 0
0.905922 -0.49635 0
0 0 0

0.455332 -4.12356 0
1.7599 -1.41502 0
0 0 0

-1.05407 -1.35857 0
-1.46406 -4.03206 0
0 0 0

-0.950798 -1.19923 0
-0.428178 -2.43387 0
0 0 0

-0.869245 -2.8083 0
-1.20933 3.14729 0
0 0 0

-1.03034 -2.12956 0
-1.55897 0.1859 0
0 0 0

-2.06428 -1.11423 0
1.91768 -1.00647 0
0 0 0

-2.37594 -1.46777 0
2.7165 0.122498 0
0 0 0

-2.13078 -1.16642 0
1.33574 -0.601051 0
0 0 0

-2.2104 -1.32797 0
1.78939 0.31945 0
0 0 0

-2.77729 -6.42094 0
2.96866 5.46761 0
0 0 0

-3.00576 -5.89091 0
2.21495 4.90845 0
0 0 0

-3.57867 -1.48187 0
2.4656 1.12882 0
0 0 0

-3.61889 -2.06257 0
2.74038 2.13295 0
0 0 0

-2.55967 -5.08667 0
1.72925 4.03278 0
0 0 0

-0.580172 -3.31043 0
-2.4757 4.21664 0
0 0 0

-4.01693 -4.29927 0
-2.35954 3.92352 0
0 0 0

-2.87012 -1.94838 0
-3.32535 4.72201 0
0 0 0

-0.532177 -2.99172 0
-0.161399 2.57705 0
0 0 0

-1.55848 -3.30964 0
1.05804 1.63884 0
0 0 0

-1.18308 -1.37149 0
0.778991 0.507137 0
0 0 0

-1.51709 -3.45532 0
2.23681 1.18448 0
0 0 0

-1.88293 -3.60023 0
1.39011 0.954736 0
0 0 0

-2.54573 -2.71202 0
1.20082 0.586825 0
0 0 0

-1.61691 -3.7974 0
2.00027 0.502484 0
0 0 0

-4.27455 -3.3708 0
0.467997 0.715082 0
0 0 0

-3.42182 -1.56501 0
1.73805 1.51449 0
0 0 0

-3.48999 -1.72804 0
2.05423 2.27072 0
0 0 0

-3.72292 -2.39482 0
0.939496 1.54928 0
0 0 0

-3.36897 -0.969682 0
-2.82327 1.97536 0
0 0 0

-4.28349 -2.64756 0
-3.87069 2.20548 0
0 0 0

-4.60121 -2.75588 0
-3.97357 3.05518 0
0 0 0

-3.04396 -3.32204 0
-3.44326 1.9729 0
0 0 0

-1.71769 -4.27644 0
5.40377 1.50914 0
0 0 0

SCALARS active double 1
LOOKUP_TABLE default
1
1
1
1
1
1
1
1
1
1
1
1
1
1
1
1
1
1
1
1
1
1
1
1
1
1
1
1
1
1
1
1
1
1
1
1
1
1
1
1
1
1
1
1
1
1
1
1
1
1
1
1
1
1
1
1
1
1
1
1
1
1
1
1
SCALARS extent double 1
LOOKUP_TABLE default
0.0125
0.0125
0.0125
0.0125
0.0125
0.0125
0.0125
0.0125
0.0125
0.0125
0.0125
0.0125
0.0125
0.0125
0.0125
0.0125
0.0125
0.0125
0.0125
0.0125
0.0125
0.0125
0.0125
0.0125
0.0125
0.0125
0.0125
0.0125
0.0125
0.0125
0.0125
0.0125
0.0125
0.0125
0.0125
0.0125
0.0125
0.0125
0.0125
0.0125
0.0125
0.0125
0.0125
0.0125
0.0125
0.0125
0.0125
0.0125
0.0125
0.0125
0.0125
0.0125
0.0125
0.0125
0.0125
0.0125
0.0125
0.0125
0.0125
0.0125
0.0125
0.0125
0.0125
0.0125
SCALARS pressure double 1
LOOKUP_TABLE default
2269.76
1950.8
3717.66
3401.05
-598.088
-2174.35
1797.99
4723.21
4172.38
-2614.48
8180.28
-4303.46
-418.481
4517.81
-2575.95
-3720.64
1567.58
1510.7
-1889.42
-4480.88
398.927
5710.95
-2028.91
1838.31
6368.83
2733.72
2143.88
1030.33
123.89
-3221.84
9893.62
2020.12
1506.26
2332.35
-3555.27
2800.89
-2077.83
-2258.28
1065.97
2700.78
-354.545
-1986.01
-262.383
-1761.66
3858.98
2847.6
-3240.46
-2025.32
1034.48
-2914.31
-363.865
1247.59
-1419.69
-621.044
3407.82
3148.15
1056.1
1136.62
737.144
-2066.95
4528.35
764.562
668.614
485.271
SCALARS density double 1
LOOKUP_TABLE default
1027.61
1023.69
1045.62
1041.66
992.849
974.245
1021.81
1058.32
1051.34
969.113
1103.14
949.669
994.991
1055.71
969.561
956.334
1018.99
1018.29
977.582
947.649
1004.8
1070.93
975.947
1022.3
1079.42
1033.35
1026.06
1012.44
1001.49
962.076
1126.06
1024.54
1018.24
1028.38
958.234
1034.18
975.374
973.265
1012.87
1032.94
995.754
976.45
996.856
979.082
1047.4
1034.76
961.861
975.989
1012.49
965.633
995.643
1015.08
983.108
992.575
1041.74
1038.5
1012.75
1013.73
1008.88
975.502
1055.84
1009.22
1008.06
1005.84
