# vtk DataFile Version 3.0
Frame: 10, Time: 0.167
ASCII
DATASET UNSTRUCTURED_GRID
POINTS 64 double
0.4125 0.273237 0 
0.4125 0.298237 0 
0.4375 0.273237 0 
0.4375 0.298237 0 
0.4125 0.323237 0 
0.4125 0.348237 0 
0.4375 0.323237 0 
0.4375 0.348237 0 
0.4125 0.373237 0 
0.4125 0.398237 0 
0.4375 0.373237 0 
0.4375 0.398237 0 
0.4125 0.423237 0 
0.4125 0.448237 0 
0.4375 0.423237 0 
0.4375 0.448237 0 
0.4625 0.273237 0 
0.4625 0.298237 0 
0.4875 0.273237 0 
0.4875 0.298237 0 
0.4625 0.323237 0 
0.4625 0.348237 0 
0.4875 0.323237 0 
0.4875 0.348237 0 
0.4625 0.373237 0 
0.4625 0.398237 0 
0.4875 0.373237 0 
0.4875 0.398237 0 
0.4625 0.423237 0 
0.4625 0.448237 0 
0.4875 0.423237 0 
0.4875 0.448237 0 
0.5125 0.273237 0 
0.5125 0.298237 0 
0.5375 0.273237 0 
0.5375 0.298237 0 
0.5125 0.323237 0 
0.5125 0.348237 0 
0.5375 0.323237 0 
0.5375 0.348237 0 
0.5125 0.373237 0 
0.5125 0.398237 0 
0.5375 0.373237 0 
0.5375 0.398237 0 
0.5125 0.423237 0 
0.5125 0.448237 0 
0.5375 0.423237 0 
0.5375 0.448237 0 
0.5625 0.273237 0 
0.5625 0.298237 0 
0.5875 0.273237 0 
0.5875 0.298237 0 
0.5625 0.323237 0 
0.5625 0.348237 0 
0.5875 0.323237 0 
0.5875 0.348237 0 
0.5625 0.373237 0 
0.5625 0.398237 0 
0.5875 0.373237 0 
0.5875 0.398237 0 
0.5625 0.423237 0 
0.5625 0.448237 0 
0.5875 0.423237 0 
0.5875 0.448237 0 
CELLS 64 128
1 0
1 1
1 2
1 3
1 4
1 5
1 6
1 7
1 8
1 9
1 10
1 11
1 12
1 13
1 14
1 15
1 16
1 17
1 18
1 19
1 20
1 21
1 22
1 23
1 24
1 25
1 26
1 27
1 28
1 29
1 30
1 31
1 32
1 33
1 34
1 35
1 36
1 37
1 38
1 39
1 40
1 41
1 42
1 43
1 44
1 45
1 46
1 47
1 48
1 49
1 50
1 51
1 52
1 53
1 54
1 55
1 56
1 57
1 58
1 59
1 60
1 61
1 62
1 63
CELL_TYPES 64
1
1
1
1
1
1
1
1
1
1
1
1
1
1
1
1
1
1
1
1
1
1
1
1
1
1
1
1
1
1
1
1
1
1
1
1
1
1
1
1
1
1
1
1
1
1
1
1
1
1
1
1
1
1
1
1
1
1
1
1
1
1
1
1
POINT_DATA 64
VECTORS displacement double
-6.2264e-17 -0.139263 0 
-6.53492e-17 -0.139263 0 
-6.17261e-17 -0.139263 0 
-6.25461e-17 -0.139263 0 
-6.21459e-17 -0.139263 0 
-5.86089e-17 -0.139263 0 
-6.00547e-17 -0.139263 0 
-5.73689e-17 -0.139263 0 
-5.17734e-17 -0.139263 0 
-5.4409e-17 -0.139263 0 
-5.17643e-17 -0.139263 0 
-5.16016e-17 -0.139263 0 
-4.90217e-17 -0.139263 0 
-4.22813e-17 -0.139263 0 
-4.78734e-17 -0.139263 0 
-4.2311e-17 -0.139263 0 
-6.23965e-17 -0.139263 0 
-6.07941e-17 -0.139263 0 
-6.42753e-17 -0.139263 0 
-6.0093e-17 -0.139263 0 
-5.83255e-17 -0.139263 0 
-5.55182e-17 -0.139263 0 
-5.69583e-17 -0.139263 0 
-5.30568e-17 -0.139263 0 
-5.00726e-17 -0.139263 0 
-4.77385e-17 -0.139263 0 
-4.66984e-17 -0.139263 0 
-4.28198e-17 -0.139263 0 
-4.54956e-17 -0.139263 0 
-4.08264e-17 -0.139263 0 
-4.18884e-17 -0.139263 0 
-3.78276e-17 -0.139263 0 
-6.41631e-17 -0.139263 0 
-5.91947e-17 -0.139263 0 
-6.206e-17 -0.139263 0 
-5.80994e-17 -0.139263 0 
-5.57074e-17 -0.139263 0 
-5.11597e-17 -0.139263 0 
-5.45728e-17 -0.139263 0 
-4.98268e-17 -0.139263 0 
-4.42428e-17 -0.139263 0 
-3.87306e-17 -0.139263 0 
-4.27058e-17 -0.139263 0 
-3.54708e-17 -0.139263 0 
-3.81364e-17 -0.139263 0 
-3.51287e-17 -0.139263 0 
-3.42397e-17 -0.139263 0 
-3.27297e-17 -0.139263 0 
-6.01751e-17 -0.139263 0 
-5.67406e-17 -0.139263 0 
-5.85085e-17 -0.139263 0 
-5.51184e-17 -0.139263 0 
-5.37258e-17 -0.139263 0 
-4.92816e-17 -0.139263 0 
-5.31663e-17 -0.139263 0 
-4.95242e-17 -0.139263 0 
-4.31245e-17 -0.139263 0 
-3.37044e-17 -0.139263 0 
-4.5499e-17 -0.139263 0 
-3.34316e-17 -0.139263 0 
-3.16148e-17 -0.139263 0 
-3.11016e-17 -0.139263 0 
-3.02615e-17 -0.139263 0 
-3.02444e-17 -0.139263 0 
VECTORS velocity double
3.0184e-15 -1.64808 0 
-3.28194e-15 -1.64808 0 
7.95656e-16 -1.64808 0 
-1.87985e-15 -1.64808 0 
-3.18967e-15 -1.64808 0 
-8.73337e-16 -1.64808 0 
-1.86511e-15 -1.64808 0 
-9.50787e-16 -1.64808 0 
-3.11925e-16 -1.64808 0 
-1.35191e-15 -1.64808 0 
-6.12797e-16 -1.64808 0 
-2.95567e-16 -1.64808 0 
5.85851e-16 -1.64808 0 
6.39985e-16 -1.64808 0 
4.74633e-16 -1.64808 0 
7.82517e-16 -1.64808 0 
-4.72938e-16 -1.64808 0 
-8.91263e-16 -1.64808 0 
-7.87378e-16 -1.64808 0 
-3.16181e-16 -1.64808 0 
-1.08245e-15 -1.64808 0 
-9.70153e-16 -1.64808 0 
-8.41696e-16 -1.64808 0 
-9.31434e-16 -1.64808 0 
-6.1579e-16 -1.64808 0 
2.04255e-16 -1.64808 0 
-3.20902e-16 -1.64808 0 
1.47552e-16 -1.64808 0 
2.58371e-16 -1.64808 0 
4.46314e-16 -1.64808 0 
-6.29331e-17 -1.64808 0 
-3.68625e-16 -1.64808 0 
-8.55708e-16 -1.64808 0 
-9.61243e-17 -1.64808 0 
-6.77929e-16 -1.64808 0 
-2.31091e-16 -1.64808 0 
-6.06734e-16 -1.64808 0 
-7.40185e-16 -1.64808 0 
-3.77562e-16 -1.64808 0 
-3.96406e-16 -1.64808 0 
-6.8828e-17 -1.64808 0 
-1.30404e-16 -1.64808 0 
1.40433e-16 -1.64808 0 
-6.29613e-16 -1.64808 0 
-4.92659e-16 -1.64808 0 
-1.06261e-15 -1.64808 0 
-1.03081e-15 -1.64808 0 
-1.63564e-15 -1.64808 0 
-1.37221e-15 -1.64808 0 
2.37211e-16 -1.64808 0 
-2.93856e-15 -1.64808 0 
1.30878e-15 -1.64808 0 
3.78421e-16 -1.64808 0 
-2.27051e-16 -1.64808 0 
1.66121e-15 -1.64808 0 
-2.32119e-16 -1.64808 0 
-2.48702e-16 -1.64808 0 
-5.64687e-16 -1.64808 0 
-1.23623e-15 -1.64808 0 
6.43739e-17 -1.64808 0 
-1.42379e-15 -1.64808 0 
-1.69414e-15 -1.64808 0 
-1.67161e-15 -1.64808 0 
-1.23811e-15 -1.64808 0 
SCALARS mass double 1
LOOKUP_TABLE default
0.625
0.625
0.625
0.625
0.625
0.625
0.625
0.625
0.625
0.625
0.625
0.625
0.625
0.625
0.625
0.625
0.625
0.625
0.625
0.625
0.625
0.625
0.625
0.625
0.625
0.625
0.625
0.625
0.625
0.625
0.625
0.625
0.625
0.625
0.625
0.625
0.625
0.625
0.625
0.625
0.625
0.625
0.625
0.625
0.625
0.625
0.625
0.625
0.625
0.625
0.625
0.625
0.625
0.625
0.625
0.625
0.625
0.625
0.625
0.625
0.625
0.625
0.625
0.625
SCALARS volume double 1
LOOKUP_TABLE default
0.000625
0.000625
0.000625
0.000625
0.000625
0.000625
0.000625
0.000625
0.000625
0.000625
0.000625
0.000625
0.000625
0.000625
0.000625
0.000625
0.000625
0.000625
0.000625
0.000625
0.000625
0.000625
0.000625
0.000625
0.000625
0.000625
0.000625
0.000625
0.000625
0.000625
0.000625
0.000625
0.000625
0.000625
0.000625
0.000625
0.000625
0.000625
0.000625
0.000625
0.000625
0.000625
0.000625
0.000625
0.000625
0.000625
0.000625
0.000625
0.000625
0.000625
0.000625
0.000625
0.000625
0.000625
0.000625
0.000625
0.000625
0.000625
0.000625
0.000625
0.000625
0.000625
0.000625
0.000625
VECTORS momentum double
1.8865e-15 -1.03005 0 
-2.05121e-15 -1.03005 0 
4.97285e-16 -1.03005 0 
-1.17491e-15 -1.03005 0 
-1.99355e-15 -1.03005 0 
-5.45836e-16 -1.03005 0 
-1.16569e-15 -1.03005 0 
-5.94242e-16 -1.03005 0 
-1.94953e-16 -1.03005 0 
-8.44945e-16 -1.03005 0 
-3.82998e-16 -1.03005 0 
-1.84729e-16 -1.03005 0 
3.66157e-16 -1.03005 0 
3.99991e-16 -1.03005 0 
2.96645e-16 -1.03005 0 
4.89073e-16 -1.03005 0 
-2.95586e-16 -1.03005 0 
-5.57039e-16 -1.03005 0 
-4.92111e-16 -1.03005 0 
-1.97613e-16 -1.03005 0 
-6.7653e-16 -1.03005 0 
-6.06346e-16 -1.03005 0 
-5.2606e-16 -1.03005 0 
-5.82146e-16 -1.03005 0 
-3.84869e-16 -1.03005 0 
1.27659e-16 -1.03005 0 
-2.00564e-16 -1.03005 0 
9.22201e-17 -1.03005 0 
1.61482e-16 -1.03005 0 
2.78946e-16 -1.03005 0 
-3.93332e-17 -1.03005 0 
-2.30391e-16 -1.03005 0 
-5.34817e-16 -1.03005 0 
-6.00777e-17 -1.03005 0 
-4.23705e-16 -1.03005 0 
-1.44432e-16 -1.03005 0 
-3.79209e-16 -1.03005 0 
-4.62616e-16 -1.03005 0 
-2.35976e-16 -1.03005 0 
-2.47754e-16 -1.03005 0 
-4.30175e-17 -1.03005 0 
-8.15024e-17 -1.03005 0 
8.77704e-17 -1.03005 0 
-3.93508e-16 -1.03005 0 
-3.07912e-16 -1.03005 0 
-6.64132e-16 -1.03005 0 
-6.44255e-16 -1.03005 0 
-1.02228e-15 -1.03005 0 
-8.57633e-16 -1.03005 0 
1.48257e-16 -1.03005 0 
-1.8366e-15 -1.03005 0 
8.17988e-16 -1.03005 0 
2.36513e-16 -1.03005 0 
-1.41907e-16 -1.03005 0 
1.03826e-15 -1.03005 0 
-1.45074e-16 -1.03005 0 
-1.55439e-16 -1.03005 0 
-3.5293e-16 -1.03005 0 
-7.72645e-16 -1.03005 0 
4.02337e-17 -1.03005 0 
-8.89869e-16 -1.03005 0 
-1.05884e-15 -1.03005 0 
-1.04476e-15 -1.03005 0 
-7.7382e-16 -1.03005 0 
VECTORS body_force double
0 -9.81 0 
0 -9.81 0 
0 -9.81 0 
0 -9.81 0 
0 -9.81 0 
0 -9.81 0 
0 -9.81 0 
0 -9.81 0 
0 -9.81 0 
0 -9.81 0 
0 -9.81 0 
0 -9.81 0 
0 -9.81 0 
0 -9.81 0 
0 -9.81 0 
0 -9.81 0 
0 -9.81 0 
0 -9.81 0 
0 -9.81 0 
0 -9.81 0 
0 -9.81 0 
0 -9.81 0 
0 -9.81 0 
0 -9.81 0 
0 -9.81 0 
0 -9.81 0 
0 -9.81 0 
0 -9.81 0 
0 -9.81 0 
0 -9.81 0 
0 -9.81 0 
0 -9.81 0 
0 -9.81 0 
0 -9.81 0 
0 -9.81 0 
0 -9.81 0 
0 -9.81 0 
0 -9.81 0 
0 -9.81 0 
0 -9.81 0 
0 -9.81 0 
0 -9.81 0 
0 -9.81 0 
0 -9.81 0 
0 -9.81 0 
0 -9.81 0 
0 -9.81 0 
0 -9.81 0 
0 -9.81 0 
0 -9.81 0 
0 -9.81 0 
0 -9.81 0 
0 -9.81 0 
0 -9.81 0 
0 -9.81 0 
0 -9.81 0 
0 -9.81 0 
0 -9.81 0 
0 -9.81 0 
0 -9.81 0 
0 -9.81 0 
0 -9.81 0 
0 -9.81 0 
0 -9.81 0 
TENSORS cauchy_stress double
1.86298e-11 -1.44088e-11 0
-1.44088e-11 3.79526e-11 0
0 0 1.69747e-11

-3.87756e-11 5.82382e-12 0
5.82382e-12 -1.19225e-10 0
0 0 -4.74003e-11

1.89205e-11 -5.18535e-12 0
-5.18535e-12 3.86308e-11 0
0 0 1.72654e-11

-3.98436e-11 2.78928e-12 0
2.78928e-12 -1.21717e-10 0
0 0 -4.84683e-11

2.12022e-11 1.45537e-12 0
1.45537e-12 2.80238e-11 0
0 0 1.47678e-11

-2.5094e-12 3.50348e-12 0
3.50348e-12 -1.85737e-11 0
0 0 -6.32492e-12

1.2454e-11 -2.41583e-12 0
-2.41583e-12 7.61126e-12 0
0 0 6.01959e-12

-3.53902e-12 6.79242e-12 0
6.79242e-12 -2.09761e-11 0
0 0 -7.35455e-12

1.11344e-11 9.92947e-12 0
9.92947e-12 2.58867e-11 0
0 0 1.11063e-11

1.00215e-11 -2.45185e-12 0
-2.45185e-12 -5.41039e-12 0
0 0 1.38333e-12

3.83852e-12 1.19411e-11 0
1.19411e-11 8.86305e-12 0
0 0 3.81047e-12

1.40823e-11 -1.57863e-12 0
-1.57863e-12 4.06494e-12 0
0 0 5.44418e-12

3.72083e-12 1.05605e-11 0
1.05605e-11 -3.09559e-12 0
0 0 1.87572e-13

-3.38993e-12 7.12113e-12 0
7.12113e-12 -7.60481e-12 0
0 0 -3.29842e-12

-3.09703e-12 -4.64499e-13 0
-4.64499e-13 -1.90039e-11 0
0 0 -6.63029e-12

-3.70859e-12 6.80298e-12 0
6.80298e-12 -8.34834e-12 0
0 0 -3.61708e-12

6.18971e-12 -5.3922e-12 0
-5.3922e-12 3.37123e-11 0
0 0 1.19706e-11

-3.76676e-11 4.6229e-12 0
4.6229e-12 -9.50819e-11 0
0 0 -3.98249e-11

1.28082e-11 -2.37256e-12 0
-2.37256e-12 4.91555e-11 0
0 0 1.85891e-11

-3.91104e-11 3.62146e-12 0
3.62146e-12 -9.84484e-11 0
0 0 -4.12676e-11

1.74918e-11 -1.13004e-12 0
-1.13004e-12 2.67912e-11 0
0 0 1.32849e-11

6.66117e-12 3.48589e-12 0
3.48589e-12 -9.70232e-12 0
0 0 -9.12347e-13

4.72718e-12 5.14864e-12 0
5.14864e-12 -2.99295e-12 0
0 0 5.2027e-13

3.97902e-12 1.15289e-11 0
1.15289e-11 -1.59607e-11 0
0 0 -3.5945e-12

2.55108e-11 6.60847e-13 0
6.60847e-13 2.49177e-11 0
0 0 1.51286e-11

1.59216e-11 3.80942e-12 0
3.80942e-12 -1.32977e-11 0
0 0 7.87144e-13

1.84371e-11 -1.32962e-12 0
-1.32962e-12 8.41251e-12 0
0 0 8.05489e-12

2.4679e-11 -4.06089e-12 0
-4.06089e-12 7.13623e-12 0
0 0 9.54456e-12

-5.32839e-12 -2.87482e-12 0
-2.87482e-12 -4.94299e-11 0
0 0 -1.64275e-11

8.17018e-12 -2.52267e-12 0
-2.52267e-12 -1.16939e-11 0
0 0 -1.05712e-12

9.82456e-12 -1.79146e-13 0
-1.79146e-13 -1.40731e-11 0
0 0 -1.27456e-12

1.07354e-11 1.55255e-12 0
1.55255e-12 -5.70831e-12 0
0 0 1.50814e-12

1.81716e-11 1.14594e-12 0
1.14594e-12 2.08299e-11 0
0 0 1.17005e-11

-4.64432e-11 -7.76641e-12 0
-7.76641e-12 -1.19602e-10 0
0 0 -4.98135e-11

1.66368e-11 8.07551e-13 0
8.07551e-13 1.72486e-11 0
0 0 1.01656e-11

-4.43311e-11 -6.31141e-12 0
-6.31141e-12 -1.14673e-10 0
0 0 -4.77014e-11

1.43951e-11 -3.17951e-12 0
-3.17951e-12 2.19519e-11 0
0 0 1.09041e-11

1.33611e-11 3.0484e-13 0
3.0484e-13 1.75055e-11 0
0 0 9.25999e-12

-4.13818e-12 6.9024e-12 0
6.9024e-12 -2.12924e-11 0
0 0 -7.62917e-12

3.23458e-12 5.97315e-14 0
5.97315e-14 -6.12301e-12 0
0 0 -8.66529e-13

1.38962e-11 3.84937e-12 0
3.84937e-12 1.66605e-11 0
0 0 9.167e-12

3.20708e-12 -2.48412e-12 0
-2.48412e-12 -2.59511e-11 0
0 0 -6.82319e-12

1.50639e-11 1.27304e-12 0
1.27304e-12 1.93852e-11 0
0 0 1.03347e-11

1.78124e-11 9.21878e-13 0
9.21878e-13 8.12799e-12 0
0 0 7.78211e-12

4.69517e-12 -2.56908e-12 0
-2.56908e-12 -2.90107e-11 0
0 0 -7.29467e-12

8.65472e-12 -2.12907e-12 0
-2.12907e-12 -4.4101e-12 0
0 0 1.27338e-12

-2.65512e-12 2.17023e-12 0
2.17023e-12 -4.61614e-11 0
0 0 -1.4645e-11

1.24978e-11 2.32575e-12 0
2.32575e-12 4.55708e-12 0
0 0 5.11646e-12

2.64672e-11 8.96824e-12 0
8.96824e-12 4.46635e-11 0
0 0 2.13392e-11

-3.88327e-11 -3.5892e-12 0
-3.5892e-12 -1.07248e-10 0
0 0 -4.38241e-11

2.35393e-11 1.04809e-11 0
1.04809e-11 3.78316e-11 0
0 0 1.84113e-11

-4.50297e-11 -1.69972e-11 0
-1.69972e-11 -1.21707e-10 0
0 0 -5.00211e-11

1.1709e-11 -3.56725e-12 0
-3.56725e-12 2.1583e-11 0
0 0 9.98762e-12

-1.50194e-11 -3.12493e-12 0
-3.12493e-12 -3.25576e-11 0
0 0 -1.42731e-11

7.50324e-12 4.70971e-12 0
4.70971e-12 1.17696e-11 0
0 0 5.78185e-12

-9.00497e-12 -7.20592e-12 0
-7.20592e-12 -1.8524e-11 0
0 0 -8.25868e-12

-1.09731e-12 -2.04203e-12 0
-2.04203e-12 2.17929e-11 0
0 0 6.20868e-12

-1.62824e-13 -7.34028e-12 0
-7.34028e-12 -3.1778e-12 0
0 0 -1.00219e-12

4.96235e-12 -4.82654e-12 0
-4.82654e-12 3.59321e-11 0
0 0 1.22683e-11

1.06827e-11 4.75934e-12 0
4.75934e-12 2.21283e-11 0
0 0 9.84331e-12

-1.9659e-11 -3.32218e-12 0
-3.32218e-12 -5.97502e-11 0
0 0 -2.38228e-11

-4.04695e-12 -4.61305e-12 0
-4.61305e-12 -1.82352e-11 0
0 0 -6.68466e-12

6.89272e-12 -9.05725e-12 0
-9.05725e-12 2.20371e-12 0
0 0 2.72893e-12

5.45186e-12 -5.85228e-12 0
-5.85228e-12 3.92865e-12 0
0 0 2.81415e-12

TENSORS velocity_gradient double
-1.58923e-14 -6.05229e-14 0
0 7.10543e-14 0
0 0 0

7.60239e-15 -2.85195e-14 0
-2.22045e-14 -1.35891e-13 0
0 0 0

-1.58923e-14 -3.34471e-14 0
0 5.68434e-14 0
0 0 0

7.60239e-15 -1.57681e-14 0
3.55271e-15 -9.59233e-14 0
0 0 0

9.20885e-15 4.68033e-15 0
-1.42109e-14 1.42109e-14 0
0 0 0

7.19696e-15 1.13835e-14 0
-1.59872e-14 -1.77636e-15 0
0 0 0

9.20885e-15 2.57183e-15 0
-2.13163e-14 4.9738e-14 0
0 0 0

7.19696e-15 9.66149e-15 0
1.15463e-14 1.15463e-14 0
0 0 0

5.77564e-15 1.83373e-14 0
1.77636e-14 -1.06581e-14 0
0 0 0

4.55666e-15 1.63487e-14 0
8.43769e-15 8.43769e-15 0
0 0 0

5.77564e-15 1.70162e-14 0
0 2.84217e-14 0
0 0 0

4.55666e-15 1.54361e-14 0
1.86517e-14 -9.76996e-15 0
0 0 0

3.96175e-15 1.42859e-14 0
1.42109e-14 -1.42109e-14 0
0 0 0

4.37852e-15 7.99492e-16 0
2.17604e-14 -6.66134e-15 0
0 0 0

3.96175e-15 1.37969e-14 0
2.13163e-14 7.10543e-15 0
0 0 0

4.37852e-15 3.9335e-15 0
2.04281e-14 2.04281e-14 0
0 0 0

-1.67477e-15 -1.41175e-14 0
5.32907e-15 6.21725e-14 0
0 0 0

8.31623e-15 -6.7856e-15 0
-4.88498e-15 -6.17284e-14 0
0 0 0

-1.67477e-15 -2.53402e-15 0
0 2.84217e-14 0
0 0 0

8.31623e-15 -1.572e-15 0
-1.24345e-14 -9.76996e-14 0
0 0 0

8.57384e-15 8.20378e-16 0
1.42109e-14 5.68434e-14 0
0 0 0

6.71143e-15 7.16724e-15 0
6.66134e-15 2.08722e-14 0
0 0 0

8.57384e-15 -5.74009e-16 0
7.10543e-15 4.9738e-14 0
0 0 0

6.71143e-15 3.90075e-15 0
3.81917e-14 9.76996e-15 0
0 0 0

1.98838e-15 1.37514e-14 0
5.32907e-15 3.37508e-14 0
0 0 0

-3.68671e-15 1.14424e-14 0
-1.33227e-14 1.5099e-14 0
0 0 0

1.98838e-15 8.54279e-15 0
-7.10543e-15 7.10543e-15 0
0 0 0

-3.68671e-15 4.36774e-15 0
-2.22045e-14 -3.64153e-14 0
0 0 0

-1.22133e-14 9.04714e-15 0
8.88178e-15 8.88178e-15 0
0 0 0

-2.0133e-14 3.17694e-15 0
1.24345e-14 -1.77636e-15 0
0 0 0

-1.22133e-14 3.65992e-17 0
-1.42109e-14 0 0
0 0 0

-2.0133e-14 -1.47021e-15 0
2.22045e-14 2.22045e-14 0
0 0 0

1.95774e-16 6.16993e-15 0
8.88178e-15 6.57252e-14 0
0 0 0

5.2647e-15 2.43599e-15 0
-2.66454e-15 -1.44773e-13 0
0 0 0

1.95774e-16 1.19944e-14 0
7.10543e-15 3.55271e-14 0
0 0 0

5.2647e-15 5.23836e-15 0
-8.88178e-16 -1.14575e-13 0
0 0 0

5.71579e-15 -1.43754e-15 0
-2.4869e-14 3.19744e-14 0
0 0 0

4.65602e-15 6.46963e-16 0
-1.02141e-14 -1.02141e-14 0
0 0 0

5.71579e-15 -1.7702e-15 0
-1.42109e-14 0 0
0 0 0

4.65602e-15 -2.59413e-15 0
-1.33227e-14 -1.33227e-14 0
0 0 0

-8.47939e-16 2.80939e-15 0
-1.59872e-14 1.24345e-14 0
0 0 0

-7.07552e-15 -2.2374e-15 0
-4.52971e-14 -1.68754e-14 0
0 0 0

-8.47939e-16 -3.44885e-15 0
-2.13163e-14 7.10543e-15 0
0 0 0

-7.07552e-15 -8.373e-15 0
-1.15463e-14 2.66454e-15 0
0 0 0

-1.31157e-14 -7.47286e-15 0
-1.24345e-14 1.77636e-15 0
0 0 0

-1.8304e-14 -5.15788e-15 0
-1.9984e-14 3.68594e-14 0
0 0 0

-1.31157e-14 -1.34812e-14 0
-2.84217e-14 2.84217e-14 0
0 0 0

-1.8304e-14 -7.88607e-15 0
-2.22045e-14 6.21725e-15 0
0 0 0

-1.22391e-14 2.65565e-14 0
1.06581e-14 6.75016e-14 0
0 0 0

8.09265e-15 1.23532e-14 0
1.15463e-14 -1.16351e-13 0
0 0 0

-1.22391e-14 4.98564e-14 0
7.10543e-15 4.9738e-14 0
0 0 0

8.09265e-15 2.37806e-14 0
7.10543e-15 -1.35003e-13 0
0 0 0

1.02827e-14 -2.38107e-15 0
3.55271e-15 3.55271e-15 0
0 0 0

8.75212e-15 -5.94224e-15 0
4.44089e-16 -2.79776e-14 0
0 0 0

1.02827e-14 -3.27012e-15 0
7.10543e-15 7.10543e-15 0
0 0 0

8.75212e-15 -9.39737e-15 0
-1.24345e-14 1.59872e-14 0
0 0 0

3.30048e-15 -9.63654e-15 0
-1.24345e-14 -2.66454e-14 0
0 0 0

-1.60128e-15 -1.20686e-14 0
-9.76996e-15 -9.76996e-15 0
0 0 0

3.30048e-15 -1.57537e-14 0
-7.10543e-15 -3.55271e-14 0
0 0 0

-1.60128e-15 -1.33242e-14 0
1.59872e-14 -4.08562e-14 0
0 0 0

9.25537e-16 -1.45916e-14 0
-1.42109e-14 -2.84217e-14 0
0 0 0

5.19118e-15 -6.40032e-15 0
-1.24345e-14 1.77636e-15 0
0 0 0

9.25537e-16 -1.0804e-14 0
-2.13163e-14 -7.10543e-15 0
0 0 0

5.19118e-15 -7.00639e-16 0
-8.88178e-15 3.37508e-14 0
0 0 0

SCALARS active double 1
LOOKUP_TABLE default
1
1
1
1
1
1
1
1
1
1
1
1
1
1
1
1
1
1
1
1
1
1
1
1
1
1
1
1
1
1
1
1
1
1
1
1
1
1
1
1
1
1
1
1
1
1
1
1
1
1
1
1
1
1
1
1
1
1
1
1
1
1
1
1
SCALARS extent double 1
LOOKUP_TABLE default
0.0125
0.0125
0.0125
0.0125
0.0125
0.0125
0.0125
0.0125
0.0125
0.0125
0.0125
0.0125
0.0125
0.0125
0.0125
0.0125
0.0125
0.0125
0.0125
0.0125
0.0125
0.0125
0.0125
0.0125
0.0125
0.0125
0.0125
0.0125
0.0125
0.0125
0.0125
0.0125
0.0125
0.0125
0.0125
0.0125
0.0125
0.0125
0.0125
0.0125
0.0125
0.0125
0.0125
0.0125
0.0125
0.0125
0.0125
0.0125
0.0125
0.0125
0.0125
0.0125
0.0125
0.0125
0.0125
0.0125
0.0125
0.0125
0.0125
0.0125
0.0125
0.0125
0.0125
0.0125
SCALARS pressure double 1
LOOKUP_TABLE default
-2.45191e-11
6.8467e-11
-2.49389e-11
7.00098e-11
-2.13313e-11
9.136e-12
-8.69496e-12
1.06232e-11
-1.60425e-11
-1.99814e-12
-5.50402e-12
-7.86381e-12
-2.70937e-13
4.76439e-12
9.57709e-12
5.22467e-12
-1.72909e-11
5.75248e-11
-2.68509e-11
5.96088e-11
-1.91893e-11
1.31783e-12
-7.51501e-13
5.19205e-12
-2.18524e-11
-1.13699e-12
-1.16348e-11
-1.37866e-11
2.37286e-11
1.52695e-12
1.84103e-12
-2.17842e-12
-1.69007e-11
7.19528e-11
-1.46837e-11
6.8902e-11
-1.57503e-11
-1.33755e-11
1.10199e-11
1.25165e-12
-1.32412e-11
9.85572e-12
-1.4928e-11
-1.12408e-11
1.05367e-11
-1.83933e-12
2.11538e-11
-7.39045e-12
-3.08233e-11
6.33015e-11
-2.65941e-11
7.22527e-11
-1.44266e-11
2.06167e-11
-8.35155e-12
1.19292e-11
-8.96809e-12
1.4476e-12
-1.77209e-11
-1.42181e-11
3.44106e-11
9.65562e-12
-3.94178e-12
-4.06489e-12
SCALARS density double 1
LOOKUP_TABLE default
1000
1000
1000
1000
1000
1000
1000
1000
1000
1000
1000
1000
1000
1000
1000
1000
1000
1000
1000
1000
1000
1000
1000
1000
1000
1000
1000
1000
1000
1000
1000
1000
1000
1000
1000
1000
1000
1000
1000
1000
1000
1000
1000
1000
1000
1000
1000
1000
1000
1000
1000
1000
1000
1000
1000
1000
1000
1000
1000
1000
1000
1000
1000
1000
