# vtk DataFile Version 3.0
Frame: 16, Time: 0.267
ASCII
DATASET UNSTRUCTURED_GRID
POINTS 64 double
0.5125 0.258889 0 
0.5125 0.283889 0 
0.5375 0.258889 0 
0.5375 0.283889 0 
0.5125 0.308889 0 
0.5125 0.333889 0 
0.5375 0.308889 0 
0.5375 0.333889 0 
0.5125 0.358889 0 
0.5125 0.383889 0 
0.5375 0.358889 0 
0.5375 0.383889 0 
0.5125 0.408889 0 
0.5125 0.433889 0 
0.5375 0.408889 0 
0.5375 0.433889 0 
0.5625 0.258889 0 
0.5625 0.283889 0 
0.5875 0.258889 0 
0.5875 0.283889 0 
0.5625 0.308889 0 
0.5625 0.333889 0 
0.5875 0.308889 0 
0.5875 0.333889 0 
0.5625 0.358889 0 
0.5625 0.383889 0 
0.5875 0.358889 0 
0.5875 0.383889 0 
0.5625 0.408889 0 
0.5625 0.433889 0 
0.5875 0.408889 0 
0.5875 0.433889 0 
0.6125 0.258889 0 
0.6125 0.283889 0 
0.6375 0.258889 0 
0.6375 0.283889 0 
0.6125 0.308889 0 
0.6125 0.333889 0 
0.6375 0.308889 0 
0.6375 0.333889 0 
0.6125 0.358889 0 
0.6125 0.383889 0 
0.6375 0.358889 0 
0.6375 0.383889 0 
0.6125 0.408889 0 
0.6125 0.433889 0 
0.6375 0.408889 0 
0.6375 0.433889 0 
0.6625 0.258889 0 
0.6625 0.283889 0 
0.6875 0.258889 0 
0.6875 0.283889 0 
0.6625 0.308889 0 
0.6625 0.333889 0 
0.6875 0.308889 0 
0.6875 0.333889 0 
0.6625 0.358889 0 
0.6625 0.383889 0 
0.6875 0.358889 0 
0.6875 0.383889 0 
0.6625 0.408889 0 
0.6625 0.433889 0 
0.6875 0.408889 0 
0.6875 0.433889 0 
CELLS 64 128
1 0
1 1
1 2
1 3
1 4
1 5
1 6
1 7
1 8
1 9
1 10
1 11
1 12
1 13
1 14
1 15
1 16
1 17
1 18
1 19
1 20
1 21
1 22
1 23
1 24
1 25
1 26
1 27
1 28
1 29
1 30
1 31
1 32
1 33
1 34
1 35
1 36
1 37
1 38
1 39
1 40
1 41
1 42
1 43
1 44
1 45
1 46
1 47
1 48
1 49
1 50
1 51
1 52
1 53
1 54
1 55
1 56
1 57
1 58
1 59
1 60
1 61
1 62
1 63
CELL_TYPES 64
1
1
1
1
1
1
1
1
1
1
1
1
1
1
1
1
1
1
1
1
1
1
1
1
1
1
1
1
1
1
1
1
1
1
1
1
1
1
1
1
1
1
1
1
1
1
1
1
1
1
1
1
1
1
1
1
1
1
1
1
1
1
1
1
POINT_DATA 64
VECTORS displacement double
-2.90131e-16 -0.353611 0 
-1.53368e-16 -0.353611 0 
-2.72583e-16 -0.353611 0 
-1.44278e-16 -0.353611 0 
-3.21439e-17 -0.353611 0 
5.60633e-17 -0.353611 0 
-2.61745e-17 -0.353611 0 
5.9667e-17 -0.353611 0 
1.37315e-16 -0.353611 0 
2.27784e-16 -0.353611 0 
1.39868e-16 -0.353611 0 
2.28714e-16 -0.353611 0 
3.05263e-16 -0.353611 0 
3.84606e-16 -0.353611 0 
3.0721e-16 -0.353611 0 
3.8433e-16 -0.353611 0 
-2.48099e-16 -0.353611 0 
-1.32808e-16 -0.353611 0 
-2.1668e-16 -0.353611 0 
-1.1896e-16 -0.353611 0 
-2.45178e-17 -0.353611 0 
5.92343e-17 -0.353611 0 
-2.7174e-17 -0.353611 0 
5.47653e-17 -0.353611 0 
1.40547e-16 -0.353611 0 
2.28708e-16 -0.353611 0 
1.39351e-16 -0.353611 0 
2.27767e-16 -0.353611 0 
3.09648e-16 -0.353611 0 
3.88268e-16 -0.353611 0 
3.12577e-16 -0.353611 0 
3.96419e-16 -0.353611 0 
-1.8765e-16 -0.353611 0 
-1.08353e-16 -0.353611 0 
-1.6101e-16 -0.353611 0 
-1.00989e-16 -0.353611 0 
-3.25628e-17 -0.353611 0 
5.05648e-17 -0.353611 0 
-4.06842e-17 -0.353611 0 
4.66328e-17 -0.353611 0 
1.39039e-16 -0.353611 0 
2.26493e-16 -0.353611 0 
1.3961e-16 -0.353611 0 
2.24886e-16 -0.353611 0 
3.15639e-16 -0.353611 0 
4.0588e-16 -0.353611 0 
3.18831e-16 -0.353611 0 
4.16651e-16 -0.353611 0 
-1.41403e-16 -0.353611 0 
-9.34331e-17 -0.353611 0 
-1.28831e-16 -0.353611 0 
-8.56842e-17 -0.353611 0 
-4.24082e-17 -0.353611 0 
4.71141e-17 -0.353611 0 
-3.77348e-17 -0.353611 0 
5.20089e-17 -0.353611 0 
1.42408e-16 -0.353611 0 
2.23624e-16 -0.353611 0 
1.47434e-16 -0.353611 0 
2.22706e-16 -0.353611 0 
3.20583e-16 -0.353611 0 
4.2301e-16 -0.353611 0 
3.20895e-16 -0.353611 0 
4.24959e-16 -0.353611 0 
VECTORS velocity double
5.29977e-15 -2.62908 0 
9.6966e-16 -2.62908 0 
1.34963e-15 -2.62908 0 
1.2725e-15 -2.62908 0 
-3.51013e-15 -2.62908 0 
-3.26928e-15 -2.62908 0 
2.84558e-16 -2.62908 0 
-1.54792e-15 -2.62908 0 
2.6214e-15 -2.62908 0 
8.36737e-15 -2.62908 0 
1.51818e-15 -2.62908 0 
5.32618e-15 -2.62908 0 
4.51531e-15 -2.62908 0 
3.99601e-15 -2.62908 0 
3.59729e-15 -2.62908 0 
3.24118e-15 -2.62908 0 
-1.14352e-15 -2.62908 0 
1.23896e-15 -2.62908 0 
-2.17969e-15 -2.62908 0 
8.69053e-16 -2.62908 0 
1.78596e-15 -2.62908 0 
-5.34105e-16 -2.62908 0 
9.94074e-16 -2.62908 0 
-2.27826e-16 -2.62908 0 
1.11069e-15 -2.62908 0 
3.58317e-15 -2.62908 0 
1.39895e-15 -2.62908 0 
3.13835e-15 -2.62908 0 
2.74704e-15 -2.62908 0 
2.61764e-15 -2.62908 0 
1.96457e-15 -2.62908 0 
2.1254e-15 -2.62908 0 
-3.53771e-15 -2.62908 0 
-2.66244e-17 -2.62908 0 
-5.21758e-15 -2.62908 0 
-1.44807e-15 -2.62908 0 
-2.93778e-16 -2.62908 0 
3.9326e-16 -2.62908 0 
-2.0776e-15 -2.62908 0 
1.32915e-15 -2.62908 0 
1.69868e-15 -2.62908 0 
2.35456e-15 -2.62908 0 
2.00989e-15 -2.62908 0 
1.2318e-15 -2.62908 0 
1.19955e-15 -2.62908 0 
2.29527e-15 -2.62908 0 
4.51976e-16 -2.62908 0 
3.12724e-15 -2.62908 0 
-8.20553e-15 -2.62908 0 
-1.96897e-15 -2.62908 0 
-1.25016e-14 -2.62908 0 
-1.58934e-15 -2.62908 0 
-1.29721e-15 -2.62908 0 
2.58399e-15 -2.62908 0 
2.04737e-15 -2.62908 0 
4.15777e-15 -2.62908 0 
1.49749e-15 -2.62908 0 
-1.33122e-15 -2.62908 0 
1.61492e-16 -2.62908 0 
-5.3345e-15 -2.62908 0 
-5.24997e-16 -2.62908 0 
3.7325e-15 -2.62908 0 
-1.73137e-15 -2.62908 0 
4.11105e-15 -2.62908 0 
SCALARS mass double 1
LOOKUP_TABLE default
0.625
0.625
0.625
0.625
0.625
0.625
0.625
0.625
0.625
0.625
0.625
0.625
0.625
0.625
0.625
0.625
0.625
0.625
0.625
0.625
0.625
0.625
0.625
0.625
0.625
0.625
0.625
0.625
0.625
0.625
0.625
0.625
0.625
0.625
0.625
0.625
0.625
0.625
0.625
0.625
0.625
0.625
0.625
0.625
0.625
0.625
0.625
0.625
0.625
0.625
0.625
0.625
0.625
0.625
0.625
0.625
0.625
0.625
0.625
0.625
0.625
0.625
0.625
0.625
SCALARS volume double 1
LOOKUP_TABLE default
0.000625
0.000625
0.000625
0.000625
0.000625
0.000625
0.000625
0.000625
0.000625
0.000625
0.000625
0.000625
0.000625
0.000625
0.000625
0.000625
0.000625
0.000625
0.000625
0.000625
0.000625
0.000625
0.000625
0.000625
0.000625
0.000625
0.000625
0.000625
0.000625
0.000625
0.000625
0.000625
0.000625
0.000625
0.000625
0.000625
0.000625
0.000625
0.000625
0.000625
0.000625
0.000625
0.000625
0.000625
0.000625
0.000625
0.000625
0.000625
0.000625
0.000625
0.000625
0.000625
0.000625
0.000625
0.000625
0.000625
0.000625
0.000625
0.000625
0.000625
0.000625
0.000625
0.000625
0.000625
VECTORS momentum double
3.31235e-15 -1.64318 0 
6.06038e-16 -1.64317 0 
8.43519e-16 -1.64318 0 
7.95312e-16 -1.64317 0 
-2.19383e-15 -1.64317 0 
-2.0433e-15 -1.64317 0 
1.77849e-16 -1.64317 0 
-9.67453e-16 -1.64317 0 
1.63838e-15 -1.64317 0 
5.2296e-15 -1.64317 0 
9.48862e-16 -1.64317 0 
3.32886e-15 -1.64317 0 
2.82207e-15 -1.64317 0 
2.49751e-15 -1.64317 0 
2.24831e-15 -1.64317 0 
2.02574e-15 -1.64317 0 
-7.14702e-16 -1.64318 0 
7.74353e-16 -1.64317 0 
-1.36231e-15 -1.64317 0 
5.43158e-16 -1.64317 0 
1.11623e-15 -1.64317 0 
-3.33816e-16 -1.64317 0 
6.21297e-16 -1.64317 0 
-1.42391e-16 -1.64317 0 
6.94184e-16 -1.64317 0 
2.23948e-15 -1.64317 0 
8.74341e-16 -1.64317 0 
1.96147e-15 -1.64317 0 
1.7169e-15 -1.64317 0 
1.63603e-15 -1.64317 0 
1.22785e-15 -1.64317 0 
1.32838e-15 -1.64317 0 
-2.21107e-15 -1.64317 0 
-1.66402e-17 -1.64317 0 
-3.26099e-15 -1.64318 0 
-9.05043e-16 -1.64317 0 
-1.83611e-16 -1.64317 0 
2.45787e-16 -1.64317 0 
-1.2985e-15 -1.64317 0 
8.30721e-16 -1.64317 0 
1.06167e-15 -1.64317 0 
1.4716e-15 -1.64317 0 
1.25618e-15 -1.64317 0 
7.69872e-16 -1.64317 0 
7.49716e-16 -1.64317 0 
1.43454e-15 -1.64317 0 
2.82485e-16 -1.64317 0 
1.95453e-15 -1.64317 0 
-5.12845e-15 -1.64318 0 
-1.23061e-15 -1.64317 0 
-7.81347e-15 -1.64318 0 
-9.93338e-16 -1.64317 0 
-8.10759e-16 -1.64317 0 
1.61499e-15 -1.64317 0 
1.27961e-15 -1.64317 0 
2.59861e-15 -1.64318 0 
9.35932e-16 -1.64317 0 
-8.32015e-16 -1.64317 0 
1.00932e-16 -1.64318 0 
-3.33406e-15 -1.64317 0 
-3.28123e-16 -1.64317 0 
2.33281e-15 -1.64317 0 
-1.08211e-15 -1.64318 0 
2.56941e-15 -1.64318 0 
VECTORS body_force double
0 -9.81 0 
0 -9.81 0 
0 -9.81 0 
0 -9.81 0 
0 -9.81 0 
0 -9.81 0 
0 -9.81 0 
0 -9.81 0 
0 -9.81 0 
0 -9.81 0 
0 -9.81 0 
0 -9.81 0 
0 -9.81 0 
0 -9.81 0 
0 -9.81 0 
0 -9.81 0 
0 -9.81 0 
0 -9.81 0 
0 -9.81 0 
0 -9.81 0 
0 -9.81 0 
0 -9.81 0 
0 -9.81 0 
0 -9.81 0 
0 -9.81 0 
0 -9.81 0 
0 -9.81 0 
0 -9.81 0 
0 -9.81 0 
0 -9.81 0 
0 -9.81 0 
0 -9.81 0 
0 -9.81 0 
0 -9.81 0 
0 -9.81 0 
0 -9.81 0 
0 -9.81 0 
0 -9.81 0 
0 -9.81 0 
0 -9.81 0 
0 -9.81 0 
0 -9.81 0 
0 -9.81 0 
0 -9.81 0 
0 -9.81 0 
0 -9.81 0 
0 -9.81 0 
0 -9.81 0 
0 -9.81 0 
0 -9.81 0 
0 -9.81 0 
0 -9.81 0 
0 -9.81 0 
0 -9.81 0 
0 -9.81 0 
0 -9.81 0 
0 -9.81 0 
0 -9.81 0 
0 -9.81 0 
0 -9.81 0 
0 -9.81 0 
0 -9.81 0 
0 -9.81 0 
0 -9.81 0 
TENSORS cauchy_stress double
1.44646e-10 -1.56883e-11 0
-1.56883e-11 1.57522e-10 0
0 0 9.06505e-11

-3.6841e-11 -1.28869e-12 0
-1.28869e-12 -1.79196e-10 0
0 0 -6.48111e-11

1.41378e-10 -2.61262e-11 0
-2.61262e-11 1.49896e-10 0
0 0 8.73823e-11

1.04048e-11 -2.47783e-12 0
-2.47783e-12 -6.89558e-11 0
0 0 -1.75653e-11

-3.70548e-11 -8.32464e-12 0
-8.32464e-12 -1.47687e-10 0
0 0 -5.54225e-11

-2.28345e-11 -3.76746e-12 0
-3.76746e-12 -9.02408e-11 0
0 0 -3.39226e-11

-8.22813e-12 -5.86929e-12 0
-5.86929e-12 -8.04245e-11 0
0 0 -2.65958e-11

1.64835e-11 -2.23329e-11 0
-2.23329e-11 1.50102e-12 0
0 0 5.39534e-12

-3.53081e-12 -8.42718e-12 0
-8.42718e-12 -3.44203e-11 0
0 0 -1.13853e-11

2.15305e-11 -3.06213e-13 0
-3.06213e-13 4.06979e-11 0
0 0 1.86685e-11

-1.37629e-12 1.43559e-12 0
1.43559e-12 -2.93931e-11 0
0 0 -9.23082e-12

7.80425e-12 1.02088e-12 0
1.02088e-12 8.67009e-12 0
0 0 4.9423e-12

2.05013e-11 -1.66917e-12 0
-1.66917e-12 2.78667e-11 0
0 0 1.45104e-11

-5.4586e-12 -1.05984e-11 0
-1.05984e-11 -9.90966e-12 0
0 0 -4.61048e-12

-6.35265e-12 -2.11947e-12 0
-2.11947e-12 -3.47925e-11 0
0 0 -1.23435e-11

1.64341e-11 -9.16502e-12 0
-9.16502e-12 4.11734e-11 0
0 0 1.72823e-11

2.09954e-10 5.23289e-11 0
5.23289e-11 1.67644e-10 0
0 0 1.13279e-10

1.70436e-11 3.92462e-11 0
3.92462e-11 -1.02269e-10 0
0 0 -2.55677e-11

1.84015e-10 1.92076e-11 0
1.92076e-11 1.07121e-10 0
0 0 8.7341e-11

3.52396e-12 1.01132e-11 0
1.01132e-11 -1.33815e-10 0
0 0 -3.90873e-11

-5.20092e-11 5.85367e-12 0
5.85367e-12 -9.41118e-11 0
0 0 -4.38363e-11

-1.24417e-11 -3.09705e-11 0
-3.09705e-11 1.68052e-11 0
0 0 1.30907e-12

-3.33098e-11 -3.0416e-11 0
-3.0416e-11 -5.04799e-11 0
0 0 -2.51369e-11

1.51901e-11 -2.79316e-11 0
-2.79316e-11 8.12793e-11 0
0 0 2.89408e-11

-2.86083e-11 -1.72538e-11 0
-1.72538e-11 -5.44942e-11 0
0 0 -2.49307e-11

1.6739e-11 -9.21191e-12 0
-9.21191e-12 4.87096e-11 0
0 0 1.96346e-11

1.9377e-11 -1.62468e-11 0
-1.62468e-11 5.74714e-11 0
0 0 2.30545e-11

1.34724e-11 -2.72165e-12 0
-2.72165e-12 4.10875e-11 0
0 0 1.6368e-11

8.27844e-12 -5.92305e-12 0
-5.92305e-12 -1.07294e-11 0
0 0 -7.35302e-13

3.5948e-11 -3.27097e-12 0
-3.27097e-12 2.77984e-13 0
0 0 1.08678e-11

1.93185e-11 1.1404e-11 0
1.1404e-11 1.50307e-11 0
0 0 1.03047e-11

4.07231e-11 9.34482e-12 0
9.34482e-12 1.14197e-11 0
0 0 1.56428e-11

1.73518e-10 -1.94339e-11 0
-1.94339e-11 1.31644e-10 0
0 0 9.15486e-11

1.94479e-12 1.17144e-11 0
1.17144e-11 -7.09894e-11 0
0 0 -2.07134e-11

1.78936e-10 -3.02984e-11 0
-3.02984e-11 1.44286e-10 0
0 0 9.69666e-11

8.83031e-12 -3.12267e-11 0
-3.12267e-11 -5.49232e-11 0
0 0 -1.38279e-11

-3.00769e-11 2.03439e-11 0
2.03439e-11 1.3117e-11 0
0 0 -5.08798e-12

-2.44872e-12 2.84446e-11 0
2.84446e-11 3.46149e-11 0
0 0 9.64987e-12

-4.09517e-11 2.34676e-12 0
2.34676e-12 -1.22573e-11 0
0 0 -1.59627e-11

5.50484e-13 4.69674e-11 0
4.69674e-11 4.16131e-11 0
0 0 1.26491e-11

2.31902e-11 1.03981e-11 0
1.03981e-11 4.82581e-11 0
0 0 2.14345e-11

8.3772e-12 4.68338e-12 0
4.68338e-12 3.60307e-11 0
0 0 1.33224e-11

1.01325e-11 2.29e-11 0
2.29e-11 1.77902e-11 0
0 0 8.37684e-12

-7.4755e-12 1.68719e-11 0
1.68719e-11 -9.58939e-13 0
0 0 -2.53033e-12

2.21719e-11 -4.35124e-12 0
-4.35124e-12 1.89895e-11 0
0 0 1.23484e-11

4.76718e-11 3.85291e-12 0
3.85291e-12 7.63976e-13 0
0 0 1.45307e-11

1.12145e-12 1.41468e-11 0
1.41468e-11 -3.01283e-11 0
0 0 -8.70205e-12

4.20962e-11 6.43109e-12 0
6.43109e-12 -1.22459e-11 0
0 0 8.95507e-12

1.10061e-10 6.13223e-12 0
6.13223e-12 1.27857e-10 0
0 0 7.13753e-11

-1.03985e-11 -5.88575e-12 0
-5.88575e-12 -1.03739e-10 0
0 0 -3.42413e-11

1.11966e-10 2.79526e-12 0
2.79526e-12 1.32301e-10 0
0 0 7.32801e-11

-3.85602e-11 1.22793e-11 0
1.22793e-11 -1.6945e-10 0
0 0 -6.2403e-11

-2.79227e-13 6.9975e-12 0
6.9975e-12 -4.85836e-11 0
0 0 -1.46589e-11

1.09537e-11 1.97792e-11 0
1.97792e-11 -2.46441e-11 0
0 0 -4.10711e-12

-3.76123e-11 4.07487e-12 0
4.07487e-12 -1.35694e-10 0
0 0 -5.1992e-11

-1.18854e-11 1.35148e-11 0
1.35148e-11 -7.79353e-11 0
0 0 -2.69462e-11

1.8188e-11 5.62638e-12 0
5.62638e-12 -9.11087e-12 0
0 0 2.72314e-12

2.61787e-12 3.45902e-12 0
3.45902e-12 1.55182e-11 0
0 0 5.44083e-12

-1.21015e-11 -2.61683e-12 0
-2.61683e-12 -7.97863e-11 0
0 0 -2.75663e-11

9.93253e-12 -5.99125e-12 0
-5.99125e-12 3.25858e-11 0
0 0 1.27555e-11

-4.60718e-12 6.57134e-13 0
6.57134e-13 -1.39437e-11 0
0 0 -5.56527e-12

1.84915e-11 7.68393e-12 0
7.68393e-12 2.31569e-11 0
0 0 1.24945e-11

-3.65642e-12 1.78018e-11 0
1.78018e-11 -1.17253e-11 0
0 0 -4.61451e-12

5.08872e-12 1.08973e-11 0
1.08973e-11 -8.11613e-12 0
0 0 -9.08224e-13

TENSORS velocity_gradient double
-6.29069e-14 -1.02643e-13 0
1.42109e-14 9.9476e-14 0
0 0 0

-1.06157e-14 -1.02643e-13 0
0 1.42109e-13 0
0 0 0

-6.29069e-14 -5.03517e-14 0
2.13163e-14 1.06581e-13 0
0 0 0

-1.06157e-14 -5.03517e-14 0
-4.26326e-14 9.9476e-14 0
0 0 0

1.53905e-14 2.60713e-14 0
-2.13163e-14 7.10543e-15 0
0 0 0

1.06289e-14 2.60713e-14 0
-6.39488e-14 2.13163e-14 0
0 0 0

1.53905e-14 2.13097e-14 0
-3.55271e-14 -6.39488e-14 0
0 0 0

1.06289e-14 2.13097e-14 0
-2.84217e-14 -2.84217e-14 0
0 0 0

-2.14017e-15 8.55565e-14 0
0 -2.84217e-14 0
0 0 0

-2.42825e-14 8.55565e-14 0
-1.42109e-14 1.42109e-14 0
0 0 0

-2.14017e-15 6.34142e-14 0
-7.10543e-15 3.55271e-14 0
0 0 0

-2.42825e-14 6.34142e-14 0
0 0 0
0 0 0

-3.1251e-14 -2.04606e-14 0
4.61853e-14 -1.06581e-14 0
0 0 0

-2.04578e-14 -2.04606e-14 0
1.42109e-14 -1.42109e-14 0
0 0 0

-3.1251e-14 -9.66741e-15 0
4.26326e-14 -1.42109e-14 0
0 0 0

-2.04578e-14 -9.66741e-15 0
1.42109e-14 -1.42109e-14 0
0 0 0

-5.05638e-14 -8.68672e-15 0
-8.88178e-15 1.04805e-13 0
0 0 0

-1.9525e-14 -8.68672e-15 0
7.10543e-15 1.49214e-13 0
0 0 0

-5.05638e-14 2.23521e-14 0
1.42109e-14 1.42109e-13 0
0 0 0

-1.9525e-14 2.23521e-14 0
1.42109e-14 1.42109e-13 0
0 0 0

-9.36934e-16 2.09358e-14 0
4.61853e-14 -3.90799e-14 0
0 0 0

3.0768e-15 2.09358e-14 0
3.55271e-14 7.10543e-15 0
0 0 0

-9.36934e-16 2.49495e-14 0
2.84217e-14 1.42109e-14 0
0 0 0

3.0768e-15 2.49495e-14 0
1.42109e-14 1.42109e-14 0
0 0 0

-2.22129e-15 4.4244e-14 0
6.21725e-14 5.32907e-15 0
0 0 0

-1.84193e-14 4.4244e-14 0
1.42109e-14 2.84217e-14 0
0 0 0

-2.22129e-15 2.8046e-14 0
2.84217e-14 0 0
0 0 0

-1.84193e-14 2.8046e-14 0
1.42109e-14 1.42109e-14 0
0 0 0

-2.62622e-14 -3.30214e-15 0
1.42109e-14 -1.42109e-14 0
0 0 0

-2.43248e-14 -3.30214e-15 0
-1.42109e-14 -1.42109e-14 0
0 0 0

-2.62622e-14 -1.36476e-15 0
1.42109e-14 0 0
0 0 0

-2.43248e-14 -1.36476e-15 0
-2.84217e-14 -5.68434e-14 0
0 0 0

-6.88637e-14 5.52236e-14 0
-4.9738e-14 1.63425e-13 0
0 0 0

-3.41597e-14 5.52236e-14 0
-5.68434e-14 1.42109e-13 0
0 0 0

-6.88637e-14 8.99276e-14 0
-5.68434e-14 1.13687e-13 0
0 0 0

-3.41597e-14 8.99276e-14 0
-7.10543e-14 1.42109e-13 0
0 0 0

-1.24246e-14 3.02335e-14 0
-5.68434e-14 1.42109e-14 0
0 0 0

-5.87025e-15 3.02335e-14 0
-4.9738e-14 2.13163e-14 0
0 0 0

-1.24246e-14 3.67879e-14 0
-5.68434e-14 5.68434e-14 0
0 0 0

-5.87025e-15 3.67879e-14 0
-5.68434e-14 0 0
0 0 0

-9.62487e-15 1.20361e-14 0
-8.34888e-14 3.01981e-14 0
0 0 0

-2.54466e-14 1.20361e-14 0
-7.10543e-15 -7.10543e-15 0
0 0 0

-9.62487e-15 -3.78567e-15 0
-6.39488e-14 2.13163e-14 0
0 0 0

-2.54466e-14 -3.78567e-15 0
-2.84217e-14 0 0
0 0 0

-2.59933e-14 8.27072e-15 0
-2.66454e-14 -1.24345e-14 0
0 0 0

-8.65971e-15 8.27072e-15 0
-3.55271e-14 -7.81597e-14 0
0 0 0

-2.59933e-14 2.56043e-14 0
-2.13163e-14 -1.06581e-13 0
0 0 0

-8.65971e-15 2.56043e-14 0
-1.42109e-14 -4.26326e-14 0
0 0 0

-5.92826e-14 1.30945e-13 0
-5.68434e-14 1.13687e-13 0
0 0 0

-1.19515e-14 1.30945e-13 0
-5.68434e-14 9.9476e-14 0
0 0 0

-5.92826e-14 1.78276e-13 0
-7.10543e-14 1.84741e-13 0
0 0 0

-1.19515e-14 1.78276e-13 0
-5.68434e-14 1.27898e-13 0
0 0 0

1.038e-14 3.65992e-14 0
-4.08562e-14 1.59872e-14 0
0 0 0

3.44846e-15 3.65992e-14 0
-4.9738e-14 -7.10543e-15 0
0 0 0

1.038e-14 2.96676e-14 0
-3.55271e-14 2.13163e-14 0
0 0 0

3.44846e-15 2.96676e-14 0
-4.26326e-14 4.26326e-14 0
0 0 0

-8.25989e-15 -2.03464e-14 0
-3.37508e-14 2.30926e-14 0
0 0 0

-2.55597e-14 -2.03464e-14 0
-8.52651e-14 -2.84217e-14 0
0 0 0

-8.25989e-15 -3.76462e-14 0
-6.39488e-14 -3.55271e-14 0
0 0 0

-2.55597e-14 -3.76462e-14 0
-1.13687e-13 -1.42109e-14 0
0 0 0

-2.60051e-14 4.39128e-14 0
-1.38556e-13 -5.32907e-14 0
0 0 0

-6.72161e-15 4.39128e-14 0
-7.81597e-14 -9.23706e-14 0
0 0 0

-2.60051e-14 6.31963e-14 0
-9.23706e-14 -2.13163e-14 0
0 0 0

-6.72161e-15 6.31963e-14 0
-7.10543e-14 -1.42109e-14 0
0 0 0

SCALARS active double 1
LOOKUP_TABLE default
1
1
1
1
1
1
1
1
1
1
1
1
1
1
1
1
1
1
1
1
1
1
1
1
1
1
1
1
1
1
1
1
1
1
1
1
1
1
1
1
1
1
1
1
1
1
1
1
1
1
1
1
1
1
1
1
1
1
1
1
1
1
1
1
SCALARS extent double 1
LOOKUP_TABLE default
0.0125
0.0125
0.0125
0.0125
0.0125
0.0125
0.0125
0.0125
0.0125
0.0125
0.0125
0.0125
0.0125
0.0125
0.0125
0.0125
0.0125
0.0125
0.0125
0.0125
0.0125
0.0125
0.0125
0.0125
0.0125
0.0125
0.0125
0.0125
0.0125
0.0125
0.0125
0.0125
0.0125
0.0125
0.0125
0.0125
0.0125
0.0125
0.0125
0.0125
0.0125
0.0125
0.0125
0.0125
0.0125
0.0125
0.0125
0.0125
0.0125
0.0125
0.0125
0.0125
0.0125
0.0125
0.0125
0.0125
0.0125
0.0125
0.0125
0.0125
0.0125
0.0125
0.0125
0.0125
SCALARS pressure double 1
LOOKUP_TABLE default
-1.3094e-10
9.36161e-11
-1.26219e-10
2.53721e-11
8.00547e-11
4.89993e-11
3.84162e-11
-7.79327e-12
1.64455e-11
-2.69656e-11
1.33334e-11
-7.13888e-12
-2.09594e-11
6.65958e-12
1.78295e-11
-2.49633e-11
-1.63626e-10
3.69311e-11
-1.26159e-10
5.64594e-11
6.33191e-11
-1.89087e-12
3.63088e-11
-4.18034e-11
3.60111e-11
-2.83611e-11
-3.3301e-11
-2.36426e-11
1.0621e-12
-1.56979e-11
-1.48846e-11
-2.25952e-11
-1.32237e-10
2.99193e-11
-1.40063e-10
1.99736e-11
7.34931e-12
-1.39387e-11
2.30572e-11
-1.82709e-11
-3.09609e-11
-1.92434e-11
-1.20999e-11
3.65492e-12
-1.78366e-11
-2.09888e-11
1.25696e-11
-1.29351e-11
-1.03098e-10
4.94596e-11
-1.05849e-10
9.01377e-11
2.11739e-11
5.93249e-12
7.50995e-11
3.89223e-11
-3.93343e-12
-7.85898e-12
3.9818e-11
-1.84246e-11
8.03872e-12
-1.80476e-11
6.6654e-12
1.31188e-12
SCALARS density double 1
LOOKUP_TABLE default
1000
1000
1000
1000
1000
1000
1000
1000
1000
1000
1000
1000
1000
1000
1000
1000
1000
1000
1000
1000
1000
1000
1000
1000
1000
1000
1000
1000
1000
1000
1000
1000
1000
1000
1000
1000
1000
1000
1000
1000
1000
1000
1000
1000
1000
1000
1000
1000
1000
1000
1000
1000
1000
1000
1000
1000
1000
1000
1000
1000
1000
1000
1000
1000
