# vtk DataFile Version 3.0
Frame: 29, Time: 0.484
ASCII
DATASET UNSTRUCTURED_GRID
POINTS 64 double
0.411791 0.0857191 0 
0.394458 0.1065 0 
0.427739 0.10345 0 
0.410895 0.124769 0 
0.374953 0.125773 0 
0.35697 0.144659 0 
0.393956 0.141434 0 
0.377071 0.15885 0 
0.342309 0.163987 0 
0.324064 0.182057 0 
0.361895 0.179955 0 
0.34334 0.197523 0 
0.308193 0.203749 0 
0.292516 0.222424 0 
0.327732 0.218498 0 
0.312353 0.2373 0 
0.444276 0.121753 0 
0.427413 0.141762 0 
0.464456 0.136339 0 
0.446183 0.155414 0 
0.411003 0.158136 0 
0.395092 0.175762 0 
0.430988 0.172833 0 
0.415282 0.190392 0 
0.379205 0.196284 0 
0.360895 0.212431 0 
0.399377 0.210622 0 
0.38123 0.2284 0 
0.346636 0.233093 0 
0.332377 0.256383 0 
0.366252 0.249192 0 
0.352905 0.270749 0 
0.48412 0.150479 0 
0.466157 0.168847 0 
0.501793 0.166817 0 
0.484959 0.185683 0 
0.450607 0.187079 0 
0.434593 0.207154 0 
0.470374 0.203649 0 
0.454486 0.224189 0 
0.418841 0.226946 0 
0.402013 0.243728 0 
0.437871 0.243591 0 
0.424188 0.260102 0 
0.386467 0.264368 0 
0.372485 0.284981 0 
0.409212 0.279947 0 
0.39169 0.300772 0 
0.520993 0.180842 0 
0.503606 0.200051 0 
0.539061 0.198803 0 
0.524257 0.217105 0 
0.490681 0.219577 0 
0.47328 0.238701 0 
0.509985 0.236489 0 
0.492664 0.255769 0 
0.457501 0.258487 0 
0.444752 0.277504 0 
0.478367 0.276145 0 
0.463625 0.295888 0 
0.428605 0.295701 0 
0.410607 0.315406 0 
0.446117 0.312648 0 
0.431035 0.331778 0 
CELLS 64 128
1 0
1 1
1 2
1 3
1 4
1 5
1 6
1 7
1 8
1 9
1 10
1 11
1 12
1 13
1 14
1 15
1 16
1 17
1 18
1 19
1 20
1 21
1 22
1 23
1 24
1 25
1 26
1 27
1 28
1 29
1 30
1 31
1 32
1 33
1 34
1 35
1 36
1 37
1 38
1 39
1 40
1 41
1 42
1 43
1 44
1 45
1 46
1 47
1 48
1 49
1 50
1 51
1 52
1 53
1 54
1 55
1 56
1 57
1 58
1 59
1 60
1 61
1 62
1 63
CELL_TYPES 64
1
1
1
1
1
1
1
1
1
1
1
1
1
1
1
1
1
1
1
1
1
1
1
1
1
1
1
1
1
1
1
1
1
1
1
1
1
1
1
1
1
1
1
1
1
1
1
1
1
1
1
1
1
1
1
1
1
1
1
1
1
1
1
1
POINT_DATA 64
VECTORS displacement double
-0.000708866 -0.326781 0 
-0.0180418 -0.331 0 
-0.00976072 -0.30905 0 
-0.0266045 -0.312731 0 
-0.0375466 -0.336727 0 
-0.0555296 -0.342841 0 
-0.0435437 -0.321066 0 
-0.0604293 -0.32865 0 
-0.0701908 -0.348513 0 
-0.0884364 -0.355443 0 
-0.075605 -0.332545 0 
-0.0941603 -0.339977 0 
-0.104307 -0.358751 0 
-0.119984 -0.365076 0 
-0.109768 -0.344002 0 
-0.125147 -0.3502 0 
-0.0182236 -0.290747 0 
-0.035087 -0.295738 0 
-0.0230438 -0.276161 0 
-0.0413171 -0.282086 0 
-0.0514966 -0.304364 0 
-0.0674075 -0.311738 0 
-0.0565117 -0.289667 0 
-0.0722181 -0.297108 0 
-0.0832947 -0.316216 0 
-0.101605 -0.325069 0 
-0.0881235 -0.301878 0 
-0.10627 -0.3091 0 
-0.115864 -0.329407 0 
-0.130123 -0.331117 0 
-0.121248 -0.313308 0 
-0.134595 -0.316751 0 
-0.0283798 -0.262021 0 
-0.0463426 -0.268653 0 
-0.0357065 -0.245683 0 
-0.0525414 -0.251817 0 
-0.0618929 -0.275421 0 
-0.077907 -0.280346 0 
-0.0671262 -0.258851 0 
-0.0830138 -0.263311 0 
-0.0936591 -0.285554 0 
-0.110487 -0.293772 0 
-0.0996285 -0.268909 0 
-0.113312 -0.277398 0 
-0.126033 -0.298132 0 
-0.140015 -0.302519 0 
-0.128288 -0.282553 0 
-0.14581 -0.286728 0 
-0.0415074 -0.231658 0 
-0.058894 -0.237449 0 
-0.0484395 -0.213697 0 
-0.0632427 -0.220395 0 
-0.0718189 -0.242923 0 
-0.0892202 -0.248799 0 
-0.0775149 -0.226011 0 
-0.0948363 -0.231731 0 
-0.104999 -0.254013 0 
-0.117748 -0.259996 0 
-0.109133 -0.236355 0 
-0.123875 -0.241612 0 
-0.133895 -0.266799 0 
-0.151893 -0.272094 0 
-0.141383 -0.249852 0 
-0.156465 -0.255722 0 
VECTORS velocity double
0.255221 -0.0729278 0 
0.0730227 -0.878433 0 
0.459082 0.513358 0 
-0.764464 0.314408 0 
0.559708 -0.712719 0 
-0.517253 -0.157996 0 
0.0331737 -0.272082 0 
-0.296117 -0.121157 0 
0.304731 -0.468363 0 
-0.173295 -0.542889 0 
-0.161537 -0.179789 0 
-0.00160656 -0.416181 0 
-0.115533 -0.436484 0 
-0.4057 -0.952937 0 
0.268016 -0.461577 0 
-0.545532 -1.0751 0 
0.119695 0.163592 0 
-0.673231 0.0540129 0 
0.425303 0.404128 0 
-0.685295 -0.144106 0 
-0.000196917 -0.40994 0 
-0.199737 -0.275152 0 
-0.321043 -0.189028 0 
-0.545101 -0.0229263 0 
-0.117481 -0.3951 0 
-0.00194649 -1.00668 0 
0.113324 -0.0264338 0 
0.227286 -0.580758 0 
4.30333e-05 -0.638883 0 
-0.58561 -1.00645 0 
-0.419398 0.061188 0 
-0.799083 -1.0627 0 
0.374144 1.04043 0 
-0.288698 0.210847 0 
-0.346296 0.798949 0 
-0.603029 0.593921 0 
-0.399699 0.044421 0 
-0.346482 0.473081 0 
-1.04523 -0.142394 0 
-0.873371 0.216123 0 
0.447091 0.497719 0 
0.0465894 -0.0404199 0 
-0.371835 0.611185 0 
-0.973847 0.00192153 0 
-1.42237 -0.282189 0 
-0.984147 -0.79398 0 
-1.38369 0.0533802 0 
-0.611395 0.63677 0 
0.205597 1.11822 0 
-0.73922 0.610211 0 
-0.248976 1.52586 0 
-1.0823 0.961256 0 
-0.68516 0.0250787 0 
-0.395266 0.406766 0 
-1.07335 0.959047 0 
-0.784533 0.238847 0 
-0.622755 0.538806 0 
-0.994356 0.112508 0 
-0.937737 -0.101853 0 
-0.830363 1.00524 0 
-0.4585 -0.348328 0 
-1.24946 -0.562609 0 
-0.507002 0.387909 0 
-1.63781 -0.0156295 0 
SCALARS mass double 1
LOOKUP_TABLE default
0.625
0.625
0.625
0.625
0.625
0.625
0.625
0.625
0.625
0.625
0.625
0.625
0.625
0.625
0.625
0.625
0.625
0.625
0.625
0.625
0.625
0.625
0.625
0.625
0.625
0.625
0.625
0.625
0.625
0.625
0.625
0.625
0.625
0.625
0.625
0.625
0.625
0.625
0.625
0.625
0.625
0.625
0.625
0.625
0.625
0.625
0.625
0.625
0.625
0.625
0.625
0.625
0.625
0.625
0.625
0.625
0.625
0.625
0.625
0.625
0.625
0.625
0.625
0.625
SCALARS volume double 1
LOOKUP_TABLE default
0.000627104
0.000678143
0.000632517
0.000625539
0.000662697
0.000652114
0.000559029
0.00060475
0.000605046
0.000650345
0.000613087
0.000595067
0.000626108
0.000610288
0.000633594
0.000632631
0.000641097
0.000606343
0.000626482
0.00061903
0.00057232
0.000674223
0.000561171
0.000621179
0.00067092
0.000578358
0.000610113
0.00062625
0.000646105
0.000625685
0.000624832
0.000625321
0.000655006
0.000616636
0.00060689
0.000590252
0.00065606
0.000700662
0.000631904
0.000597681
0.000628862
0.000668998
0.000566056
0.000610963
0.000656673
0.000590677
0.000683672
0.000614273
0.000644506
0.000631127
0.000640708
0.000606398
0.000626352
0.000621029
0.000611362
0.000617611
0.000615068
0.000617827
0.000643249
0.000580443
0.000619944
0.000609568
0.000598017
0.00064049
VECTORS momentum double
0.159513 -0.0455799 0 
0.0456392 -0.549021 0 
0.286926 0.320849 0 
-0.47779 0.196505 0 
0.349817 -0.445449 0 
-0.323283 -0.0987475 0 
0.0207336 -0.170051 0 
-0.185073 -0.075723 0 
0.190457 -0.292727 0 
-0.108309 -0.339306 0 
-0.10096 -0.112368 0 
-0.0010041 -0.260113 0 
-0.0722078 -0.272803 0 
-0.253563 -0.595586 0 
0.16751 -0.288486 0 
-0.340958 -0.671936 0 
0.0748097 0.102245 0 
-0.420769 0.0337581 0 
0.265814 0.25258 0 
-0.428309 -0.0900661 0 
-0.000123073 -0.256213 0 
-0.124836 -0.17197 0 
-0.200652 -0.118142 0 
-0.340688 -0.0143289 0 
-0.0734254 -0.246937 0 
-0.00121656 -0.629174 0 
0.0708277 -0.0165211 0 
0.142054 -0.362974 0 
2.68958e-05 -0.399302 0 
-0.366006 -0.629028 0 
-0.262124 0.0382425 0 
-0.499427 -0.664185 0 
0.23384 0.650268 0 
-0.180436 0.131779 0 
-0.216435 0.499343 0 
-0.376893 0.371201 0 
-0.249812 0.0277631 0 
-0.216551 0.295676 0 
-0.653266 -0.088996 0 
-0.545857 0.135077 0 
0.279432 0.311075 0 
0.0291184 -0.0252624 0 
-0.232397 0.381991 0 
-0.608654 0.00120096 0 
-0.888981 -0.176368 0 
-0.615092 -0.496237 0 
-0.864808 0.0333626 0 
-0.382122 0.397981 0 
0.128498 0.698887 0 
-0.462012 0.381382 0 
-0.15561 0.953659 0 
-0.676441 0.600785 0 
-0.428225 0.0156742 0 
-0.247041 0.254229 0 
-0.670844 0.599404 0 
-0.490333 0.149279 0 
-0.389222 0.336754 0 
-0.621473 0.0703175 0 
-0.586085 -0.0636583 0 
-0.518977 0.628275 0 
-0.286562 -0.217705 0 
-0.780915 -0.351631 0 
-0.316876 0.242443 0 
-1.02363 -0.00976845 0 
VECTORS body_force double
0 -9.81 0 
0 -9.81 0 
0 -9.81 0 
0 -9.81 0 
0 -9.81 0 
0 -9.81 0 
0 -9.81 0 
0 -9.81 0 
0 -9.81 0 
0 -9.81 0 
0 -9.81 0 
0 -9.81 0 
0 -9.81 0 
0 -9.81 0 
0 -9.81 0 
0 -9.81 0 
0 -9.81 0 
0 -9.81 0 
0 -9.81 0 
0 -9.81 0 
0 -9.81 0 
0 -9.81 0 
0 -9.81 0 
0 -9.81 0 
0 -9.81 0 
0 -9.81 0 
0 -9.81 0 
0 -9.81 0 
0 -9.81 0 
0 -9.81 0 
0 -9.81 0 
0 -9.81 0 
0 -9.81 0 
0 -9.81 0 
0 -9.81 0 
0 -9.81 0 
0 -9.81 0 
0 -9.81 0 
0 -9.81 0 
0 -9.81 0 
0 -9.81 0 
0 -9.81 0 
0 -9.81 0 
0 -9.81 0 
0 -9.81 0 
0 -9.81 0 
0 -9.81 0 
0 -9.81 0 
0 -9.81 0 
0 -9.81 0 
0 -9.81 0 
0 -9.81 0 
0 -9.81 0 
0 -9.81 0 
0 -9.81 0 
0 -9.81 0 
0 -9.81 0 
0 -9.81 0 
0 -9.81 0 
0 -9.81 0 
0 -9.81 0 
0 -9.81 0 
0 -9.81 0 
0 -9.81 0 
TENSORS cauchy_stress double
312.345 1300.44 0
1300.44 334.037 0
0 0 193.915

-5225.3 -3383.68 0
-3383.68 20918.8 0
0 0 4708.06

3339.24 -2447.91 0
-2447.91 -1040.14 0
0 0 689.729

733.385 -1898.67 0
-1898.67 -567.525 0
0 0 49.7579

9976.94 -596.248 0
-596.248 1285.75 0
0 0 3378.81

2612.2 -1210.85 0
-1210.85 5554.59 0
0 0 2450.04

-639.761 484.185 0
484.185 -20812.2 0
0 0 -6435.58

-8847.07 1674.18 0
1674.18 2513.09 0
0 0 -1900.2

-364.14 2575.51 0
2575.51 -5875.83 0
0 0 -1871.99

6607.79 -3250.08 0
-3250.08 1036.67 0
0 0 2293.34

-5634.25 -3946.03 0
-3946.03 1933.48 0
0 0 -1110.23

-6127.09 -1576.53 0
-1576.53 -3311.06 0
0 0 -2831.44

3816.81 -3323.95 0
-3323.95 -3476.11 0
0 0 102.211

1003.04 -329.744 0
-329.744 -5584.04 0
0 0 -1374.3

-1901.65 -45.0051 0
-45.0051 4528.08 0
0 0 787.929

1982.66 2744.78 0
2744.78 351.107 0
0 0 700.131

3415.57 3958.62 0
3958.62 1474.53 0
0 0 1467.03

-6784.37 -4064.08 0
-4064.08 956.298 0
0 0 -1748.42

5297.22 -584.803 0
-584.803 -4841.68 0
0 0 136.663

-3900.22 -2028.45 0
-2028.45 2054.61 0
0 0 -553.682

-2240.12 4371.76 0
4371.76 -14693.4 0
0 0 -5080.05

-823.391 3782.72 0
3782.72 15402.1 0
0 0 4373.62

-2012.95 1068.48 0
1068.48 -18703.4 0
0 0 -6214.92

-4042.94 -101.105 0
-101.105 2863.52 0
0 0 -353.825

2920.8 3475.26 0
3475.26 10713.6 0
0 0 4090.32

-909.267 4244.36 0
4244.36 -14006 0
0 0 -4474.57

2061.86 -1594.12 0
-1594.12 -6697.81 0
0 0 -1390.78

5633.65 -3254.62 0
-3254.62 -5249.42 0
0 0 115.269

-190.133 -3181.69 0
-3181.69 6576.79 0
0 0 1916

592.063 662.625 0
662.625 -381.392 0
0 0 63.2013

-842.369 644.798 0
644.798 790.643 0
0 0 -15.5179

-1200.83 -1049.54 0
-1049.54 1299.49 0
0 0 29.5984

3870.61 2876.75 0
2876.75 5147.34 0
0 0 2705.39

-3152.89 478.069 0
478.069 561.998 0
0 0 -777.268

-4923.66 -244.274 0
-244.274 -730.977 0
0 0 -1696.39

-8579.88 1176.35 0
1176.35 -2420.52 0
0 0 -3300.12

4733.43 222.688 0
222.688 4593.7 0
0 0 2798.14

2803.08 2924.33 0
2924.33 19172.7 0
0 0 6592.73

833.566 -755.226 0
-755.226 1279.2 0
0 0 633.828

-981.137 -4775.15 0
-4775.15 -7614.12 0
0 0 -2578.58

-5063.52 384.325 0
384.325 6248.13 0
0 0 355.385

-67.0571 3445.22 0
3445.22 13149.5 0
0 0 3924.74

-694.877 856.796 0
856.796 -18354.9 0
0 0 -5714.93

4233.4 3969.41 0
3969.41 -8601.83 0
0 0 -1310.53

-240.729 749.569 0
749.569 9747.4 0
0 0 2852

-3488.09 1048.75 0
1048.75 -7373.98 0
0 0 -3258.62

15003.6 -3379.94 0
-3379.94 2251.52 0
0 0 5176.55

-1308.33 -3584.63 0
-3584.63 -2021.02 0
0 0 -998.805

7099.02 -363.804 0
-363.804 -1188.79 0
0 0 1773.07

1615.62 400.63 0
400.63 260.547 0
0 0 562.85

2659.64 2056.14 0
2056.14 2113.76 0
0 0 1432.02

-3358.04 3339.19 0
3339.19 -2452.52 0
0 0 -1743.17

2394.76 -1077.93 0
-1077.93 -1979.13 0
0 0 124.687

-2764.22 1391.57 0
1391.57 1538.39 0
0 0 -367.749

-184.556 -4141.7 0
-4141.7 -4058.07 0
0 0 -1272.79

-1292.64 2776 0
2776 -994.369 0
0 0 -686.103

-4948.36 3383.09 0
3383.09 1867.89 0
0 0 -924.14

-9752.02 7237.94 0
7237.94 7532.2 0
0 0 -665.946

4031.26 -1583.47 0
-1583.47 1503.38 0
0 0 1660.39

-4718.92 -3957.78 0
-3957.78 -9504.33 0
0 0 -4266.97

-4129.67 -2567.54 0
-2567.54 2567.7 0
0 0 -468.591

-8189.85 -211.463 0
-211.463 3382 0
0 0 -1442.36

950.88 2054.6 0
2054.6 -9437.91 0
0 0 -2546.11

-1304.01 5383.39 0
5383.39 6012.1 0
0 0 1412.43

TENSORS velocity_gradient double
0.900737 -5.43757 0
6.62034 -0.904177 0
0 0 0

-2.54254 -4.46114 0
6.72432 0.34517 0
0 0 0

1.63953 -5.36738 0
8.98452 -0.76942 0
0 0 0

0.673622 -4.81903 0
8.17528 -0.785594 0
0 0 0

-2.08915 -5.12929 0
4.79012 2.13423 0
0 0 0

-1.44672 -5.01644 0
3.15405 3.17522 0
0 0 0

-1.49532 -4.45806 0
3.45376 0.370726 0
0 0 0

-1.43412 1.34051 0
3.40284 -0.562925 0
0 0 0

-0.770599 1.18908 0
3.59752 -3.05702 0
0 0 0

1.04051 -0.627578 0
3.66829 -3.12801 0
0 0 0

-1.90664 1.68007 0
5.32319 -1.94292 0
0 0 0

2.23918 -1.5688 0
3.74854 -3.08335 0
0 0 0

2.36935 -4.58716 0
3.80343 -3.54656 0
0 0 0

1.16412 -3.77203 0
4.43526 -1.9613 0
0 0 0

1.6503 -6.14965 0
3.99089 -3.34747 0
0 0 0

0.538421 -5.25365 0
4.24305 -3.55068 0
0 0 0

0.918572 -6.58924 0
8.42747 -2.58004 0
0 0 0

-0.233253 -5.7107 0
7.24694 -1.69837 0
0 0 0

2.71311 -6.61629 0
11.2362 -1.67839 0
0 0 0

-0.633351 -5.73438 0
7.84351 0.495885 0
0 0 0

-1.84099 -0.747671 0
6.67643 1.34227 0
0 0 0

-2.1105 0.850062 0
5.1057 0.992746 0
0 0 0

-3.89495 -3.58189 0
6.46857 1.05545 0
0 0 0

-6.38527 -1.35905 0
6.21655 1.2804 0
0 0 0

-2.21255 -0.556223 0
6.79074 -0.396931 0
0 0 0

-2.11832 -7.25161 0
8.2357 -2.08512 0
0 0 0

-4.32784 -6.36962 0
7.28484 1.13443 0
0 0 0

-1.83945 -6.89013 0
9.62325 -0.286524 0
0 0 0

0.152064 -7.144 0
5.66998 -2.97702 0
0 0 0

-0.742091 -9.04485 0
4.63618 -2.34039 0
0 0 0

-1.49282 -8.6261 0
11.3236 -1.36229 0
0 0 0

-1.39675 -10.2843 0
10.7695 -1.62442 0
0 0 0

2.63973 -7.84453 0
11.9166 -0.994957 0
0 0 0

1.22169 -7.80921 0
10.9165 -0.570015 0
0 0 0

1.47615 -10.6623 0
10.353 -2.91614 0
0 0 0

-0.380178 -9.62957 0
9.54181 -2.13223 0
0 0 0

-2.77452 -6.20857 0
8.09226 0.52474 0
0 0 0

-7.12324 -3.52916 0
6.29873 2.42172 0
0 0 0

-1.77666 -4.03075 0
7.81328 -0.119725 0
0 0 0

-2.68679 -2.41765 0
5.32918 2.12341 0
0 0 0

-5.40286 -4.89551 0
6.91412 1.93297 0
0 0 0

-3.21946 -6.23119 0
8.50453 1.29943 0
0 0 0

-3.97554 -3.23276 0
7.42468 2.52775 0
0 0 0

-2.23485 -7.05966 0
7.00932 -1.31052 0
0 0 0

-1.32128 -10.0826 0
12.0807 -0.289181 0
0 0 0

-1.11904 -10.2167 0
12.9149 -0.842173 0
0 0 0

0.0961762 -8.79223 0
5.76979 -0.389224 0
0 0 0

-2.70813 -7.309 0
11.6276 1.15405 0
0 0 0

2.04908 -10.168 0
10.7882 -2.06671 0
0 0 0

1.64901 -7.77354 0
11.365 -3.04139 0
0 0 0

2.38027 -9.46801 0
11.8773 -0.901953 0
0 0 0

0.345681 -7.28456 0
13.1985 -1.82337 0
0 0 0

-2.2612 -3.21975 0
5.80638 -2.55053 0
0 0 0

-2.72111 -2.80391 0
3.27726 -0.263817 0
0 0 0

-2.69341 -5.09089 0
14.6691 -2.88485 0
0 0 0

-2.59715 -1.33084 0
2.30522 0.627739 0
0 0 0

-2.44801 -3.56385 0
2.45236 -2.16598 0
0 0 0

-0.345361 -4.6858 0
5.67991 -2.46591 0
0 0 0

-1.25878 -2.14898 0
3.97907 -0.349603 0
0 0 0

0.310668 -3.16255 0
6.05873 -0.647285 0
0 0 0

1.83516 -6.77031 0
4.84804 -1.62652 0
0 0 0

2.73478 -8.56693 0
4.41565 -1.65197 0
0 0 0

3.11071 -7.3983 0
6.43734 -1.1062 0
0 0 0

3.04809 -8.17305 0
4.30078 -1.79637 0
0 0 0

SCALARS active double 1
LOOKUP_TABLE default
1
1
1
1
1
1
1
1
1
1
1
1
1
1
1
1
1
1
1
1
1
1
1
1
1
1
1
1
1
1
1
1
1
1
1
1
1
1
1
1
1
1
1
1
1
1
1
1
1
1
1
1
1
1
1
1
1
1
1
1
1
1
1
1
SCALARS extent double 1
LOOKUP_TABLE default
0.0125
0.0125
0.0125
0.0125
0.0125
0.0125
0.0125
0.0125
0.0125
0.0125
0.0125
0.0125
0.0125
0.0125
0.0125
0.0125
0.0125
0.0125
0.0125
0.0125
0.0125
0.0125
0.0125
0.0125
0.0125
0.0125
0.0125
0.0125
0.0125
0.0125
0.0125
0.0125
0.0125
0.0125
0.0125
0.0125
0.0125
0.0125
0.0125
0.0125
0.0125
0.0125
0.0125
0.0125
0.0125
0.0125
0.0125
0.0125
0.0125
0.0125
0.0125
0.0125
0.0125
0.0125
0.0125
0.0125
0.0125
0.0125
0.0125
0.0125
0.0125
0.0125
0.0125
0.0125
SCALARS pressure double 1
LOOKUP_TABLE default
-280.099
-6800.52
-996.276
-71.8725
-4880.5
-3538.95
9295.84
2744.73
2703.98
-3312.6
1603.67
4089.86
-147.638
1985.1
-1138.12
-1011.3
-2119.04
2525.5
-197.402
799.763
7337.85
-6317.46
8977.11
511.081
-5908.24
6463.27
2008.91
-166.5
-2767.55
-91.2908
22.4147
-42.7533
-3907.78
1122.72
2450.34
4766.84
-4041.76
-9522.83
-915.53
3724.61
-513.333
-5669.08
8254.89
1892.99
-4119.56
4706.9
-7477.24
1442.72
-2561.1
-813.005
-2068.47
2517.91
-180.103
531.192
1838.47
991.038
1334.87
961.922
-2398.34
6163.41
676.854
2083.4
3677.71
-2040.17
SCALARS density double 1
LOOKUP_TABLE default
996.644
921.635
988.116
999.138
943.116
958.422
1118.01
1033.49
1032.98
961.029
1019.43
1050.3
998.23
1024.11
986.435
987.938
974.892
1030.77
997.634
1009.64
1092.05
926.993
1113.74
1006.15
931.556
1080.65
1024.4
998.004
967.335
998.905
1000.27
999.487
954.189
1013.56
1029.84
1058.87
952.656
892.014
989.074
1045.71
993.859
934.233
1104.13
1022.98
951.767
1058.11
914.181
1017.46
969.734
990.291
975.484
1030.68
997.841
1006.39
1022.31
1011.96
1016.15
1011.61
971.63
1076.76
1008.16
1025.32
1045.12
975.815
