# vtk DataFile Version 3.0
Frame: 42, Time: 0.7
ASCII
DATASET UNSTRUCTURED_GRID
POINTS 64 double
0.412724 0.0942649 0 
0.388 0.0930765 0 
0.408375 0.119468 0 
0.382577 0.116963 0 
0.362506 0.0895799 0 
0.335197 0.0854182 0 
0.359072 0.112909 0 
0.332787 0.109323 0 
0.310783 0.081003 0 
0.286653 0.0731922 0 
0.307624 0.10569 0 
0.283098 0.0978957 0 
0.259296 0.0717858 0 
0.235172 0.0679166 0 
0.25568 0.0953259 0 
0.231286 0.0910204 0 
0.403093 0.143985 0 
0.377188 0.139969 0 
0.403203 0.167757 0 
0.376403 0.163502 0 
0.354017 0.136576 0 
0.329385 0.133997 0 
0.352183 0.161409 0 
0.327469 0.158631 0 
0.304104 0.128383 0 
0.280347 0.120606 0 
0.301409 0.152641 0 
0.275998 0.146654 0 
0.25418 0.119486 0 
0.227342 0.11817 0 
0.251057 0.144643 0 
0.22665 0.14253 0 
0.401635 0.192221 0 
0.376028 0.186856 0 
0.400304 0.215878 0 
0.374775 0.211885 0 
0.351493 0.184712 0 
0.326261 0.183105 0 
0.351099 0.209885 0 
0.325354 0.20905 0 
0.300572 0.177758 0 
0.275887 0.172651 0 
0.298859 0.202725 0 
0.275096 0.199776 0 
0.251091 0.16952 0 
0.22668 0.166628 0 
0.249573 0.197 0 
0.223749 0.19202 0 
0.400141 0.239369 0 
0.373754 0.235955 0 
0.395587 0.263679 0 
0.370589 0.261842 0 
0.349468 0.236141 0 
0.323358 0.233227 0 
0.34595 0.262273 0 
0.320208 0.258138 0 
0.297105 0.22754 0 
0.272812 0.226175 0 
0.294683 0.254524 0 
0.270122 0.252343 0 
0.248116 0.221952 0 
0.22224 0.216126 0 
0.245581 0.246032 0 
0.220145 0.241536 0 
CELLS 64 128
1 0
1 1
1 2
1 3
1 4
1 5
1 6
1 7
1 8
1 9
1 10
1 11
1 12
1 13
1 14
1 15
1 16
1 17
1 18
1 19
1 20
1 21
1 22
1 23
1 24
1 25
1 26
1 27
1 28
1 29
1 30
1 31
1 32
1 33
1 34
1 35
1 36
1 37
1 38
1 39
1 40
1 41
1 42
1 43
1 44
1 45
1 46
1 47
1 48
1 49
1 50
1 51
1 52
1 53
1 54
1 55
1 56
1 57
1 58
1 59
1 60
1 61
1 62
1 63
CELL_TYPES 64
1
1
1
1
1
1
1
1
1
1
1
1
1
1
1
1
1
1
1
1
1
1
1
1
1
1
1
1
1
1
1
1
1
1
1
1
1
1
1
1
1
1
1
1
1
1
1
1
1
1
1
1
1
1
1
1
1
1
1
1
1
1
1
1
POINT_DATA 64
VECTORS displacement double
0.000224009 -0.318235 0 
-0.0245 -0.344423 0 
-0.0291253 -0.293032 0 
-0.0549228 -0.320537 0 
-0.0499945 -0.37292 0 
-0.0773028 -0.402082 0 
-0.0784278 -0.349591 0 
-0.104713 -0.378177 0 
-0.101717 -0.431497 0 
-0.125847 -0.464308 0 
-0.129876 -0.40681 0 
-0.154402 -0.439604 0 
-0.153204 -0.490714 0 
-0.177328 -0.519583 0 
-0.18182 -0.467174 0 
-0.206214 -0.49648 0 
-0.0594074 -0.268515 0 
-0.0853124 -0.297531 0 
-0.0842972 -0.244743 0 
-0.111097 -0.273998 0 
-0.108483 -0.325924 0 
-0.133115 -0.353503 0 
-0.135317 -0.301091 0 
-0.160031 -0.328869 0 
-0.158396 -0.384117 0 
-0.182153 -0.416894 0 
-0.186091 -0.359859 0 
-0.211502 -0.390846 0 
-0.20832 -0.443014 0 
-0.235158 -0.46933 0 
-0.236443 -0.417857 0 
-0.26085 -0.44497 0 
-0.110865 -0.220279 0 
-0.136472 -0.250644 0 
-0.137196 -0.196622 0 
-0.162725 -0.225615 0 
-0.161007 -0.277788 0 
-0.186239 -0.304395 0 
-0.186401 -0.252615 0 
-0.212146 -0.27845 0 
-0.211928 -0.334742 0 
-0.236613 -0.364849 0 
-0.238641 -0.309775 0 
-0.262404 -0.337724 0 
-0.261409 -0.39298 0 
-0.28582 -0.420872 0 
-0.287927 -0.3655 0 
-0.313751 -0.39548 0 
-0.162359 -0.173131 0 
-0.188746 -0.201545 0 
-0.191913 -0.148821 0 
-0.216911 -0.175658 0 
-0.213032 -0.226359 0 
-0.239142 -0.254273 0 
-0.24155 -0.200227 0 
-0.267292 -0.229362 0 
-0.265395 -0.28496 0 
-0.289688 -0.311325 0 
-0.292817 -0.257976 0 
-0.317378 -0.285157 0 
-0.314384 -0.340548 0 
-0.34026 -0.371374 0 
-0.341919 -0.316468 0 
-0.367355 -0.345964 0 
VECTORS velocity double
-0.206686 0.410379 0 
-0.261055 0.710625 0 
-0.576151 0.912043 0 
-0.573859 0.628091 0 
0.843665 0.370609 0 
-0.701457 0.723447 0 
-0.158794 -0.156089 0 
-0.985573 0.506584 0 
-0.196407 0.476439 0 
-0.357728 0.67529 0 
-0.206477 0.722199 0 
-0.536323 0.707257 0 
-0.380533 1.07369 0 
-0.215296 0.864461 0 
-0.430779 0.8355 0 
-0.700825 0.86652 0 
-0.22224 0.763139 0 
-0.697865 0.356903 0 
-0.635359 1.15643 0 
-0.687518 0.441684 0 
-0.511555 0.164318 0 
-0.75175 0.531653 0 
-0.416215 0.595682 0 
-0.846267 0.671143 0 
-0.514432 0.328806 0 
-0.568864 -0.0605916 0 
-0.925704 0.542094 0 
-1.02778 0.579747 0 
-0.434039 0.327199 0 
-0.543346 0.9424 0 
-0.570879 1.20109 0 
-1.1439 1.13214 0 
-0.743585 1.26526 0 
-0.392333 0.917176 0 
-0.669536 0.911959 0 
-0.484596 1.42772 0 
0.21067 0.929862 0 
0.0789939 0.57613 0 
-0.511611 1.00088 0 
-0.740277 0.531754 0 
0.0403281 0.354862 0 
-0.476741 0.492943 0 
-0.306937 0.431392 0 
-0.877945 0.477603 0 
-0.72592 0.431287 0 
-0.949645 0.615652 0 
-0.934871 1.02548 0 
-0.415267 1.19494 0 
-0.665241 1.33218 0 
-0.813877 1.33532 0 
-1.26935 1.66236 0 
-1.08022 1.53814 0 
-0.765345 0.773848 0 
-0.602849 0.822843 0 
-0.958581 1.34062 0 
-1.0397 0.964501 0 
-0.224357 0.612656 0 
-0.373772 0.184946 0 
-1.29793 0.51393 0 
-0.909733 0.714562 0 
-0.0512423 0.647849 0 
-0.614055 0.713448 0 
-0.862347 0.56644 0 
-0.574892 0.987371 0 
SCALARS mass double 1
LOOKUP_TABLE default
0.625
0.625
0.625
0.625
0.625
0.625
0.625
0.625
0.625
0.625
0.625
0.625
0.625
0.625
0.625
0.625
0.625
0.625
0.625
0.625
0.625
0.625
0.625
0.625
0.625
0.625
0.625
0.625
0.625
0.625
0.625
0.625
0.625
0.625
0.625
0.625
0.625
0.625
0.625
0.625
0.625
0.625
0.625
0.625
0.625
0.625
0.625
0.625
0.625
0.625
0.625
0.625
0.625
0.625
0.625
0.625
0.625
0.625
0.625
0.625
0.625
0.625
0.625
0.625
SCALARS volume double 1
LOOKUP_TABLE default
0.00063755
0.00059071
0.00062322
0.000609713
0.000631953
0.000677717
0.000594525
0.000630102
0.000610138
0.00063534
0.000590622
0.000616177
0.000645126
0.00061658
0.000622551
0.000637109
0.000644943
0.000620018
0.000654544
0.000666127
0.000612683
0.000655515
0.000595024
0.000608892
0.000643166
0.000627104
0.000630628
0.000628759
0.000664691
0.000632371
0.00059594
0.000623121
0.000614983
0.000626205
0.000619166
0.000603471
0.000637074
0.000633632
0.000644209
0.000614602
0.000677811
0.000653943
0.000651659
0.000634668
0.000618131
0.000626121
0.000650859
0.000603208
0.00063721
0.000650888
0.000629515
0.000633512
0.000644555
0.000635082
0.000635644
0.000632383
0.000648967
0.000632081
0.000639488
0.000624588
0.00062265
0.0006144
0.000640151
0.000620328
VECTORS momentum double
-0.129179 0.256487 0 
-0.163159 0.444141 0 
-0.360095 0.570027 0 
-0.358662 0.392557 0 
0.527291 0.23163 0 
-0.438411 0.452155 0 
-0.0992465 -0.0975555 0 
-0.615983 0.316615 0 
-0.122754 0.297774 0 
-0.22358 0.422056 0 
-0.129048 0.451374 0 
-0.335202 0.442036 0 
-0.237833 0.671054 0 
-0.13456 0.540288 0 
-0.269237 0.522188 0 
-0.438016 0.541575 0 
-0.1389 0.476962 0 
-0.436166 0.223064 0 
-0.3971 0.72277 0 
-0.429699 0.276052 0 
-0.319722 0.102699 0 
-0.469843 0.332283 0 
-0.260134 0.372301 0 
-0.528917 0.419464 0 
-0.32152 0.205504 0 
-0.35554 -0.0378698 0 
-0.578565 0.338809 0 
-0.642362 0.362342 0 
-0.271274 0.204499 0 
-0.339591 0.589 0 
-0.356799 0.750683 0 
-0.714938 0.70759 0 
-0.46474 0.790789 0 
-0.245208 0.573235 0 
-0.41846 0.569974 0 
-0.302873 0.892327 0 
0.131669 0.581164 0 
0.0493712 0.360081 0 
-0.319757 0.625551 0 
-0.462673 0.332346 0 
0.0252051 0.221789 0 
-0.297963 0.308089 0 
-0.191836 0.26962 0 
-0.548716 0.298502 0 
-0.4537 0.269554 0 
-0.593528 0.384783 0 
-0.584294 0.640928 0 
-0.259542 0.746836 0 
-0.415776 0.83261 0 
-0.508673 0.834577 0 
-0.793343 1.03898 0 
-0.675139 0.961335 0 
-0.478341 0.483655 0 
-0.37678 0.514277 0 
-0.599113 0.837885 0 
-0.649813 0.602813 0 
-0.140223 0.38291 0 
-0.233607 0.115591 0 
-0.811206 0.321206 0 
-0.568583 0.446601 0 
-0.0320264 0.404905 0 
-0.383785 0.445905 0 
-0.538967 0.354025 0 
-0.359308 0.617107 0 
VECTORS body_force double
0 -9.81 0 
0 -9.81 0 
0 -9.81 0 
0 -9.81 0 
0 -9.81 0 
0 -9.81 0 
0 -9.81 0 
0 -9.81 0 
0 -9.81 0 
0 -9.81 0 
0 -9.81 0 
0 -9.81 0 
0 -9.81 0 
0 -9.81 0 
0 -9.81 0 
0 -9.81 0 
0 -9.81 0 
0 -9.81 0 
0 -9.81 0 
0 -9.81 0 
0 -9.81 0 
0 -9.81 0 
0 -9.81 0 
0 -9.81 0 
0 -9.81 0 
0 -9.81 0 
0 -9.81 0 
0 -9.81 0 
0 -9.81 0 
0 -9.81 0 
0 -9.81 0 
0 -9.81 0 
0 -9.81 0 
0 -9.81 0 
0 -9.81 0 
0 -9.81 0 
0 -9.81 0 
0 -9.81 0 
0 -9.81 0 
0 -9.81 0 
0 -9.81 0 
0 -9.81 0 
0 -9.81 0 
0 -9.81 0 
0 -9.81 0 
0 -9.81 0 
0 -9.81 0 
0 -9.81 0 
0 -9.81 0 
0 -9.81 0 
0 -9.81 0 
0 -9.81 0 
0 -9.81 0 
0 -9.81 0 
0 -9.81 0 
0 -9.81 0 
0 -9.81 0 
0 -9.81 0 
0 -9.81 0 
0 -9.81 0 
0 -9.81 0 
0 -9.81 0 
0 -9.81 0 
0 -9.81 0 
TENSORS cauchy_stress double
1259.04 1509.2 0
1509.2 2564.27 0
0 0 1146.99

-5434.34 -5615.44 0
-5615.44 -5416.83 0
0 0 -3255.35

-3056.74 -1453.03 0
-1453.03 2508.41 0
0 0 -164.499

-1538.24 876.765 0
876.765 -3223.99 0
0 0 -1428.67

3370.55 -482.688 0
-482.688 -1243 0
0 0 638.266

12626.2 304.392 0
304.392 2946.58 0
0 0 4671.82

-5069.42 5058.6 0
5058.6 -4543.66 0
0 0 -2883.93

3354.25 -3924.96 0
-3924.96 -1790.76 0
0 0 469.048

-4842.77 -112.97 0
-112.97 214.555 0
0 0 -1388.46

3705.3 -1662.97 0
-1662.97 -549.941 0
0 0 946.609

-5425.98 5959.63 0
5959.63 -5454.06 0
0 0 -3264.01

227.561 2901.5 0
2901.5 -2961.52 0
0 0 -820.188

7016.36 -2301.06 0
-2301.06 -921.376 0
0 0 1828.5

703.514 -3480.31 0
-3480.31 -3312.01 0
0 0 -782.549

2685.12 1505.9 0
1505.9 -3440.27 0
0 0 -226.546

2954.41 2477.71 0
2477.71 735.801 0
0 0 1107.06

-561.349 -183.884 0
-183.884 6601.82 0
0 0 1812.14

3766 -2460.12 0
-2460.12 -5305.21 0
0 0 -461.765

5793.14 206.483 0
206.483 3088.96 0
0 0 2664.63

11724.9 -697.537 0
-697.537 530.666 0
0 0 3676.67

-3904.84 975.769 0
975.769 77.177 0
0 0 -1148.3

2769.42 -6184.44 0
-6184.44 6397.85 0
0 0 2750.18

-5143.49 3484.4 0
3484.4 -4308.45 0
0 0 -2835.58

-831.138 3126.58 0
3126.58 -4190.09 0
0 0 -1506.37

4851.46 -3516.09 0
-3516.09 658.366 0
0 0 1652.95

-2888.94 -625.729 0
-625.729 3535.09 0
0 0 193.847

703.192 8465.49 0
8465.49 1020.8 0
0 0 517.197

1507.57 1975.1 0
1975.1 -354.403 0
0 0 345.949

8303.68 838.133 0
838.133 3536.9 0
0 0 3552.18

2261.1 -285.294 0
-285.294 -6.51943 0
0 0 676.374

-4885.68 2666.93 0
2666.93 -4270.39 0
0 0 -2746.82

680.682 1356.55 0
1356.55 -1259.69 0
0 0 -173.702

-2104.55 39.3313 0
39.3313 -1002.73 0
0 0 -932.183

1309.95 786.522 0
786.522 -939.659 0
0 0 111.086

232.862 -2192.79 0
-2192.79 -2036.32 0
0 0 -541.037

-3833.44 909.737 0
909.737 -2907.73 0
0 0 -2022.35

3169.4 -657.724 0
-657.724 510.145 0
0 0 1103.86

799.868 -2574.4 0
-2574.4 1838.03 0
0 0 791.369

3498.88 573.227 0
573.227 2322.56 0
0 0 1746.43

138.485 6451.72 0
6451.72 -3364.67 0
0 0 -967.855

12428 2157.72 0
2157.72 3171.41 0
0 0 4679.81

2846.45 -4280.54 0
-4280.54 5859.09 0
0 0 2611.66

5212.05 10649.9 0
10649.9 2820.66 0
0 0 2409.81

-2029.1 5082.52 0
5082.52 4981.05 0
0 0 885.585

-3021.2 766.146 0
766.146 895.94 0
0 0 -637.578

-420 5606.89 0
5606.89 764.629 0
0 0 103.389

5135.3 7689.49 0
7689.49 2661.23 0
0 0 2338.96

-3458.98 3509.68 0
3509.68 -3366.09 0
0 0 -2047.52

3154.3 -897.595 0
-897.595 566.306 0
0 0 1116.18

5520.85 1665.37 0
1665.37 2284.24 0
0 0 2341.53

572.111 -382.049 0
-382.049 812.264 0
0 0 415.313

1419.16 580.904 0
580.904 1182.35 0
0 0 780.451

4592.31 150.426 0
150.426 1332.45 0
0 0 1777.43

1651.24 -1175.87 0
-1175.87 1426.21 0
0 0 923.236

1022.61 996.203 0
996.203 2224.97 0
0 0 974.274

2391.06 1564.84 0
1564.84 -132.826 0
0 0 677.469

4090.76 1665.57 0
1665.57 3145.72 0
0 0 2170.94

-1222.96 -3003.53 0
-3003.53 3389.51 0
0 0 649.963

1491.01 2816.25 0
2816.25 2915.83 0
0 0 1322.05

220.526 1320.44 0
1320.44 -347.47 0
0 0 -38.0833

1698.74 413.293 0
413.293 -2423.28 0
0 0 -217.362

-2296.67 1064.01 0
1064.01 -992.714 0
0 0 -986.815

2442.01 2826.51 0
2826.51 2164.18 0
0 0 1381.86

-999.251 1955.59 0
1955.59 -443.628 0
0 0 -432.864

TENSORS velocity_gradient double
-1.49828 -1.65354 0
-0.5689 2.758 0
0 0 0

1.91786 -1.32212 0
3.61201 2.46404 0
0 0 0

-1.44717 -5.61166 0
0.558486 3.21385 0
0 0 0

1.39877 -4.78128 0
4.81274 2.3021 0
0 0 0

1.65925 -3.25284 0
3.082 -1.49292 0
0 0 0

3.28357 -3.39728 0
-3.0955 -3.3845 0
0 0 0

1.65919 -3.22581 0
4.80315 2.24478 0
0 0 0

2.40993 -2.57429 0
-2.65315 1.19382 0
0 0 0

3.54082 -2.00722 0
-3.06526 -3.2211 0
0 0 0

-0.658986 -1.84814 0
-3.81004 -2.78127 0
0 0 0

2.44548 -2.47488 0
-2.84328 -0.588478 0
0 0 0

0.269415 -2.32556 0
-4.45972 -2.1619 0
0 0 0

-0.715251 -2.86583 0
-3.7673 -2.00819 0
0 0 0

0.81333 -3.49231 0
0.60549 -0.0276037 0
0 0 0

0.171469 -3.0867 0
-4.40794 -1.83274 0
0 0 0

1.2388 -3.56232 0
-2.12646 0.421963 0
0 0 0

-0.557941 -5.65448 0
3.39776 2.83048 0
0 0 0

-0.123177 -4.43154 0
4.86882 2.28921 0
0 0 0

-1.49131 -2.0716 0
3.62863 7.14758 0
0 0 0

-1.74303 -0.21594 0
4.77744 7.4415 0
0 0 0

0.418147 -2.95384 0
4.02699 2.18027 0
0 0 0

2.3718 -2.56914 0
-1.14496 0.98994 0
0 0 0

-0.611823 1.47553 0
3.85899 7.37047 0
0 0 0

1.972 2.72875 0
1.11498 4.28871 0
0 0 0

2.27099 -2.56508 0
-1.89049 -0.505169 0
0 0 0

1.20042 -3.32337 0
-4.59116 -0.833736 0
0 0 0

2.26847 1.66637 0
-1.2901 0.186519 0
0 0 0

2.27528 -2.23784 0
-4.57765 -0.760094 0
0 0 0

1.2693 -4.41695 0
-4.53509 -0.793889 0
0 0 0

2.10386 -5.48863 0
-4.0602 0.158657 0
0 0 0

2.54179 -4.44042 0
-4.82982 -0.727142 0
0 0 0

3.06593 -5.51061 0
-5.14818 0.183515 0
0 0 0

-3.09177 -1.97284 0
3.41803 7.16877 0
0 0 0

-3.40354 -0.189315 0
4.56467 7.44491 0
0 0 0

-3.20797 -5.75602 0
3.41059 6.1987 0
0 0 0

-3.73469 -7.19471 0
4.6094 5.90409 0
0 0 0

-1.86559 1.51827 0
4.76392 7.31778 0
0 0 0

0.845967 2.78758 0
4.87919 4.09204 0
0 0 0

-2.42834 -8.51074 0
5.85087 5.45484 0
0 0 0

-0.0273461 -8.58697 0
7.96303 4.39963 0
0 0 0

1.96428 3.78162 0
0.672494 0.487541 0
0 0 0

3.06048 3.37848 0
-4.21676 -0.440308 0
0 0 0

1.79992 -4.10335 0
1.45344 2.14974 0
0 0 0

3.33895 -0.233835 0
-3.53624 0.140428 0
0 0 0

2.80329 2.87087 0
-4.86151 -0.782799 0
0 0 0

2.64616 3.72562 0
-5.84867 -0.428655 0
0 0 0

2.38734 1.97585 0
-5.03928 -0.868073 0
0 0 0

1.44236 3.86889 0
-6.37744 -0.365723 0
0 0 0

-2.33945 -5.75716 0
3.3572 6.1987 0
0 0 0

-2.24585 -7.24759 0
4.99275 5.89047 0
0 0 0

-1.71433 -5.70679 0
4.67517 2.86075 0
0 0 0

-1.51749 -5.22191 0
5.40946 2.4615 0
0 0 0

-1.25855 -8.5492 0
7.02731 5.4115 0
0 0 0

-0.212285 -8.57323 0
9.0573 4.31833 0
0 0 0

0.35718 -5.36684 0
9.18081 1.89676 0
0 0 0

0.518049 -8.21668 0
10.2246 0.645534 0
0 0 0

-0.0741436 -7.79469 0
2.00307 2.91309 0
0 0 0

0.16711 -4.58769 0
-1.30943 0.707831 0
0 0 0

-2.63529 -10.0876 0
2.07261 0.348074 0
0 0 0

-2.97215 -8.52003 0
0.674576 0.447747 0
0 0 0

0.390034 -1.43422 0
-4.62306 -1.27915 0
0 0 0

0.382877 -0.0982448 0
-6.55393 -1.52688 0
0 0 0

-1.24637 -2.43581 0
-5.06721 -1.16093 0
0 0 0

-0.68274 -0.0105176 0
-6.54139 -1.52792 0
0 0 0

SCALARS active double 1
LOOKUP_TABLE default
1
1
1
1
1
1
1
1
1
1
1
1
1
1
1
1
1
1
1
1
1
1
1
1
1
1
1
1
1
1
1
1
1
1
1
1
1
1
1
1
1
1
1
1
1
1
1
1
1
1
1
1
1
1
1
1
1
1
1
1
1
1
1
1
SCALARS extent double 1
LOOKUP_TABLE default
0.0125
0.0125
0.0125
0.0125
0.0125
0.0125
0.0125
0.0125
0.0125
0.0125
0.0125
0.0125
0.0125
0.0125
0.0125
0.0125
0.0125
0.0125
0.0125
0.0125
0.0125
0.0125
0.0125
0.0125
0.0125
0.0125
0.0125
0.0125
0.0125
0.0125
0.0125
0.0125
0.0125
0.0125
0.0125
0.0125
0.0125
0.0125
0.0125
0.0125
0.0125
0.0125
0.0125
0.0125
0.0125
0.0125
0.0125
0.0125
0.0125
0.0125
0.0125
0.0125
0.0125
0.0125
0.0125
0.0125
0.0125
0.0125
0.0125
0.0125
0.0125
0.0125
0.0125
0.0125
SCALARS pressure double 1
LOOKUP_TABLE default
-1656.77
4702.17
237.61
2063.63
-921.94
-6748.19
4165.67
-677.514
2005.56
-1367.32
4714.68
1184.72
-2641.16
1130.35
327.232
-1599.09
-2617.54
666.994
-3848.91
-5310.75
1658.65
-3972.49
4095.84
2175.87
-2387.59
-280.001
-747.062
-499.704
-5130.92
-976.984
3967.63
250.903
1346.49
-160.458
781.498
2921.17
-1594.47
-1143.09
-2522.62
1398.01
-6759.72
-3772.4
-3480.84
-1279.18
920.945
-149.339
-3378.5
2957.53
-1612.26
-3382.21
-599.896
-1127.32
-2567.39
-1333.56
-1407.28
-978.566
-3135.81
-938.836
-1909.63
55.0092
313.967
1425.4
-1996.02
625.247
SCALARS density double 1
LOOKUP_TABLE default
980.315
1058.05
1002.86
1025.07
988.998
922.214
1051.26
991.903
1024.36
983.726
1058.21
1014.32
968.803
1013.66
1003.93
980.994
969.078
1008.04
954.863
938.259
1020.1
953.449
1050.38
1026.45
971.755
996.646
991.075
994.021
940.286
988.345
1048.76
1003.02
1016.29
998.076
1009.42
1035.68
981.048
986.377
970.182
1016.92
922.086
955.741
959.09
984.767
1011.11
998.21
960.269
1036.13
980.839
960.226
992.827
986.563
969.661
984.125
983.254
988.326
963.07
988.797
977.345
1000.66
1003.77
1017.25
976.332
1007.53
