# vtk DataFile Version 3.0
Frame: 51, Time: 0.85
ASCII
DATASET UNSTRUCTURED_GRID
POINTS 64 double
0.454387 0.306127 0 
0.475853 0.291539 0 
0.439141 0.28454 0 
0.46065 0.268716 0 
0.495402 0.275098 0 
0.51614 0.260086 0 
0.480082 0.253265 0 
0.501149 0.238766 0 
0.537212 0.246759 0 
0.556323 0.230765 0 
0.521851 0.224883 0 
0.540918 0.209745 0 
0.578085 0.219165 0 
0.600059 0.208207 0 
0.563349 0.197601 0 
0.584742 0.184787 0 
0.424978 0.264768 0 
0.445382 0.248162 0 
0.411821 0.244592 0 
0.433403 0.227468 0 
0.466124 0.233039 0 
0.486679 0.218791 0 
0.453747 0.211202 0 
0.472892 0.197003 0 
0.50688 0.203649 0 
0.526428 0.18857 0 
0.492914 0.18153 0 
0.512961 0.166712 0 
0.548286 0.175407 0 
0.571336 0.16281 0 
0.533852 0.153678 0 
0.555975 0.14026 0 
0.399632 0.223939 0 
0.419441 0.205663 0 
0.388176 0.203656 0 
0.405722 0.184858 0 
0.43964 0.190665 0 
0.458986 0.173538 0 
0.425226 0.169281 0 
0.442936 0.153008 0 
0.478699 0.158254 0 
0.49918 0.144287 0 
0.462552 0.137046 0 
0.482401 0.123827 0 
0.519771 0.130011 0 
0.541808 0.117225 0 
0.503023 0.108744 0 
0.526156 0.0959339 0 
0.374079 0.187251 0 
0.390363 0.166341 0 
0.35423 0.174008 0 
0.369996 0.148901 0 
0.408587 0.150544 0 
0.427991 0.131668 0 
0.389988 0.129765 0 
0.411008 0.111204 0 
0.447771 0.115599 0 
0.468059 0.101024 0 
0.430573 0.0956523 0 
0.453107 0.0799233 0 
0.490476 0.0864645 0 
0.513209 0.0740901 0 
0.476429 0.0650261 0 
0.499217 0.0530358 0 
CELLS 64 128
1 0
1 1
1 2
1 3
1 4
1 5
1 6
1 7
1 8
1 9
1 10
1 11
1 12
1 13
1 14
1 15
1 16
1 17
1 18
1 19
1 20
1 21
1 22
1 23
1 24
1 25
1 26
1 27
1 28
1 29
1 30
1 31
1 32
1 33
1 34
1 35
1 36
1 37
1 38
1 39
1 40
1 41
1 42
1 43
1 44
1 45
1 46
1 47
1 48
1 49
1 50
1 51
1 52
1 53
1 54
1 55
1 56
1 57
1 58
1 59
1 60
1 61
1 62
1 63
CELL_TYPES 64
1
1
1
1
1
1
1
1
1
1
1
1
1
1
1
1
1
1
1
1
1
1
1
1
1
1
1
1
1
1
1
1
1
1
1
1
1
1
1
1
1
1
1
1
1
1
1
1
1
1
1
1
1
1
1
1
1
1
1
1
1
1
1
1
POINT_DATA 64
VECTORS displacement double
-0.0581127 -0.306373 0 
-0.0366473 -0.345961 0 
-0.0983588 -0.32796 0 
-0.0768496 -0.368784 0 
-0.0170981 -0.387402 0 
0.00363955 -0.427414 0 
-0.0574184 -0.409235 0 
-0.0363514 -0.448734 0 
0.0247119 -0.465741 0 
0.043823 -0.506735 0 
-0.0156492 -0.487617 0 
0.00341829 -0.527755 0 
0.0655852 -0.543335 0 
0.0875586 -0.579293 0 
0.0258491 -0.564899 0 
0.0472417 -0.602713 0 
-0.137522 -0.347732 0 
-0.117118 -0.389338 0 
-0.175679 -0.367908 0 
-0.154097 -0.410032 0 
-0.0963763 -0.429461 0 
-0.0758211 -0.468709 0 
-0.133753 -0.451298 0 
-0.114608 -0.490497 0 
-0.0556201 -0.508851 0 
-0.0360717 -0.54893 0 
-0.0945859 -0.53097 0 
-0.0745389 -0.570788 0 
-0.0142143 -0.587093 0 
0.00883561 -0.62469 0 
-0.0536482 -0.608822 0 
-0.0315254 -0.64724 0 
-0.212868 -0.388561 0 
-0.193059 -0.431837 0 
-0.249324 -0.408844 0 
-0.231778 -0.452642 0 
-0.17286 -0.471835 0 
-0.153514 -0.513962 0 
-0.212274 -0.493219 0 
-0.194564 -0.534492 0 
-0.133801 -0.554246 0 
-0.11332 -0.593213 0 
-0.174948 -0.575454 0 
-0.155099 -0.613673 0 
-0.092729 -0.632489 0 
-0.0706924 -0.670275 0 
-0.134477 -0.653756 0 
-0.111344 -0.691566 0 
-0.288421 -0.425249 0 
-0.272137 -0.471159 0 
-0.33327 -0.438492 0 
-0.317504 -0.488599 0 
-0.253913 -0.511956 0 
-0.234509 -0.555832 0 
-0.297512 -0.532735 0 
-0.276492 -0.576296 0 
-0.214729 -0.596901 0 
-0.194441 -0.636476 0 
-0.256927 -0.616848 0 
-0.234393 -0.657577 0 
-0.172024 -0.676035 0 
-0.149291 -0.71341 0 
-0.211071 -0.697474 0 
-0.188283 -0.734464 0 
VECTORS velocity double
-0.788694 -1.69922 0 
-0.919067 -1.64343 0 
-0.808888 -1.87934 0 
-0.465698 -1.62857 0 
-0.678701 -1.71112 0 
-0.887659 -1.82622 0 
-0.936042 -1.65695 0 
-0.851849 -1.72685 0 
-0.742277 -1.54009 0 
-0.751271 -1.81988 0 
-0.662366 -1.6675 0 
-0.952734 -1.98049 0 
-0.997425 -1.71054 0 
-0.806999 -1.77992 0 
-0.380614 -1.92588 0 
-0.806753 -1.73741 0 
-0.728816 -1.56107 0 
-0.70124 -1.92154 0 
-0.975974 -2.03434 0 
-0.820135 -1.3477 0 
-0.843567 -1.80498 0 
-0.609077 -1.86684 0 
-0.921307 -1.65761 0 
-1.03769 -1.68379 0 
-0.548779 -1.49775 0 
-0.724822 -1.61145 0 
-0.779424 -1.88306 0 
-0.658853 -1.70735 0 
-0.926778 -1.84299 0 
-0.597679 -1.8864 0 
-0.780171 -1.73004 0 
-0.904052 -1.729 0 
-0.914385 -1.66888 0 
-0.405616 -1.50244 0 
-0.669039 -1.7447 0 
-0.678946 -1.39058 0 
-0.419555 -1.90509 0 
-0.689057 -1.84004 0 
-1.01453 -1.87329 0 
-0.810101 -1.51076 0 
-0.464441 -1.81858 0 
-0.847826 -1.81885 0 
-0.80766 -2.12841 0 
-1.28932 -1.60169 0 
-0.65184 -2.10158 0 
-0.608825 -1.92428 0 
-0.740235 -1.73365 0 
-1.22797 -1.71789 0 
-0.365649 -2.33834 0 
-0.603988 -1.9505 0 
-1.40139 -1.3642 0 
-1.40796 -1.4834 0 
-1.01512 -1.74389 0 
-0.86346 -1.63125 0 
-1.25288 -1.52834 0 
-1.2282 -1.48248 0 
-0.923912 -2.0551 0 
-1.2031 -1.81168 0 
-1.09308 -1.52895 0 
-0.733944 -1.41327 0 
-0.700311 -1.75231 0 
-0.810964 -1.86112 0 
-1.07447 -1.96928 0 
-0.854162 -1.57149 0 
SCALARS mass double 1
LOOKUP_TABLE default
0.625
0.625
0.625
0.625
0.625
0.625
0.625
0.625
0.625
0.625
0.625
0.625
0.625
0.625
0.625
0.625
0.625
0.625
0.625
0.625
0.625
0.625
0.625
0.625
0.625
0.625
0.625
0.625
0.625
0.625
0.625
0.625
0.625
0.625
0.625
0.625
0.625
0.625
0.625
0.625
0.625
0.625
0.625
0.625
0.625
0.625
0.625
0.625
0.625
0.625
0.625
0.625
0.625
0.625
0.625
0.625
0.625
0.625
0.625
0.625
0.625
0.625
0.625
0.625
SCALARS volume double 1
LOOKUP_TABLE default
0.000624787
0.000628193
0.000622296
0.000624349
0.000623747
0.000617934
0.000616155
0.000608031
0.0006177
0.000609715
0.000623103
0.000606769
0.000618405
0.000626174
0.000620708
0.000622948
0.000614598
0.000615883
0.000607098
0.000613512
0.000603476
0.000616662
0.000603708
0.000604804
0.000631643
0.000621961
0.00063707
0.000626343
0.000643451
0.000633078
0.000630503
0.000626586
0.000591313
0.00060435
0.000583661
0.000570789
0.00062718
0.00063334
0.000608366
0.000613724
0.00063732
0.000618027
0.000615593
0.000617467
0.000616404
0.000641004
0.000650128
0.000613647
0.000600317
0.000619888
0.000534581
0.000613839
0.000614083
0.000643721
0.000645192
0.00064873
0.000626103
0.000641113
0.000636838
0.000635743
0.000636613
0.00061338
0.000633049
0.000627503
VECTORS momentum double
-0.492933 -1.06201 0 
-0.574417 -1.02715 0 
-0.505555 -1.17459 0 
-0.291062 -1.01786 0 
-0.424188 -1.06945 0 
-0.554787 -1.14139 0 
-0.585026 -1.03559 0 
-0.532405 -1.07928 0 
-0.463923 -0.962557 0 
-0.469545 -1.13742 0 
-0.413979 -1.04219 0 
-0.595459 -1.23781 0 
-0.623391 -1.06909 0 
-0.504374 -1.11245 0 
-0.237884 -1.20367 0 
-0.504221 -1.08588 0 
-0.45551 -0.975669 0 
-0.438275 -1.20096 0 
-0.609984 -1.27146 0 
-0.512584 -0.842315 0 
-0.52723 -1.12811 0 
-0.380673 -1.16678 0 
-0.575817 -1.03601 0 
-0.648555 -1.05237 0 
-0.342987 -0.936092 0 
-0.453013 -1.00716 0 
-0.48714 -1.17691 0 
-0.411783 -1.06709 0 
-0.579236 -1.15187 0 
-0.373549 -1.179 0 
-0.487607 -1.08128 0 
-0.565033 -1.08063 0 
-0.571491 -1.04305 0 
-0.25351 -0.939027 0 
-0.418149 -1.09044 0 
-0.424342 -0.869114 0 
-0.262222 -1.19068 0 
-0.430661 -1.15002 0 
-0.634084 -1.1708 0 
-0.506313 -0.944225 0 
-0.290276 -1.13661 0 
-0.529891 -1.13678 0 
-0.504787 -1.33026 0 
-0.805827 -1.00105 0 
-0.4074 -1.31349 0 
-0.380516 -1.20267 0 
-0.462647 -1.08353 0 
-0.767478 -1.07368 0 
-0.22853 -1.46146 0 
-0.377492 -1.21906 0 
-0.875869 -0.852626 0 
-0.879975 -0.927128 0 
-0.634451 -1.08993 0 
-0.539662 -1.01953 0 
-0.783053 -0.955214 0 
-0.767623 -0.92655 0 
-0.577445 -1.28444 0 
-0.751939 -1.1323 0 
-0.683175 -0.955591 0 
-0.458715 -0.883296 0 
-0.437695 -1.09519 0 
-0.506852 -1.1632 0 
-0.671545 -1.2308 0 
-0.533851 -0.98218 0 
VECTORS body_force double
0 -9.81 0 
0 -9.81 0 
0 -9.81 0 
0 -9.81 0 
0 -9.81 0 
0 -9.81 0 
0 -9.81 0 
0 -9.81 0 
0 -9.81 0 
0 -9.81 0 
0 -9.81 0 
0 -9.81 0 
0 -9.81 0 
0 -9.81 0 
0 -9.81 0 
0 -9.81 0 
0 -9.81 0 
0 -9.81 0 
0 -9.81 0 
0 -9.81 0 
0 -9.81 0 
0 -9.81 0 
0 -9.81 0 
0 -9.81 0 
0 -9.81 0 
0 -9.81 0 
0 -9.81 0 
0 -9.81 0 
0 -9.81 0 
0 -9.81 0 
0 -9.81 0 
0 -9.81 0 
0 -9.81 0 
0 -9.81 0 
0 -9.81 0 
0 -9.81 0 
0 -9.81 0 
0 -9.81 0 
0 -9.81 0 
0 -9.81 0 
0 -9.81 0 
0 -9.81 0 
0 -9.81 0 
0 -9.81 0 
0 -9.81 0 
0 -9.81 0 
0 -9.81 0 
0 -9.81 0 
0 -9.81 0 
0 -9.81 0 
0 -9.81 0 
0 -9.81 0 
0 -9.81 0 
0 -9.81 0 
0 -9.81 0 
0 -9.81 0 
0 -9.81 0 
0 -9.81 0 
0 -9.81 0 
0 -9.81 0 
0 -9.81 0 
0 -9.81 0 
0 -9.81 0 
0 -9.81 0 
TENSORS cauchy_stress double
-134.862 -73.6361 0
-73.6361 69.2781 0
0 0 -19.6752

583.947 -446.468 0
-446.468 396.05 0
0 0 293.999

310.399 -764.851 0
-764.851 -1144.09 0
0 0 -250.108

-2836.32 -828.92 0
-828.92 2636.03 0
0 0 -60.0878

-1069.58 -291.751 0
-291.751 683.687 0
0 0 -115.769

-1929 1276.34 0
1276.34 -257.477 0
0 0 -655.944

-2333.34 -675.718 0
-675.718 -407.797 0
0 0 -822.34

-5143.21 -963.658 0
-963.658 -150.354 0
0 0 -1588.07

-1620.65 1299.94 0
1299.94 -638.66 0
0 0 -677.793

-3851.41 643.282 0
643.282 -910.092 0
0 0 -1428.45

-2308.08 2375.83 0
2375.83 1723.36 0
0 0 -175.416

-5005.91 468.41 0
468.41 -687.123 0
0 0 -1707.91

-1298.88 1003.42 0
1003.42 -740.986 0
0 0 -611.961

-367.624 -114.051 0
-114.051 728.392 0
0 0 108.23

-2108.09 2210.69 0
2210.69 782.86 0
0 0 -397.57

-303.622 1269.43 0
1269.43 -328.733 0
0 0 -189.707

-1301.61 -1722.54 0
-1722.54 -1925.91 0
0 0 -968.255

-1538.37 -700.24 0
-700.24 -1287.49 0
0 0 -847.759

-4093.38 -3636.22 0
-3636.22 -1495.5 0
0 0 -1676.66

-3991.98 -2579.08 0
-2579.08 424.423 0
0 0 -1070.27

-6760.93 -1619.59 0
-1619.59 21.471 0
0 0 -2021.84

-3513.17 624.689 0
624.689 930.24 0
0 0 -774.878

-7722.88 -2949.37 0
-2949.37 1057.36 0
0 0 -1999.66

-5204.3 1789.57 0
1789.57 -1112.48 0
0 0 -1895.03

-2578.32 456.104 0
456.104 4611.55 0
0 0 609.967

-494.512 628.595 0
628.595 -442.729 0
0 0 -281.172

497.288 1502.94 0
1502.94 3181.25 0
0 0 1103.56

-1291.57 2144.61 0
2144.61 1704.5 0
0 0 123.879

4519.57 695.789 0
695.789 1075.62 0
0 0 1678.55

296.492 365.71 0
365.71 2173.12 0
0 0 740.885

759.73 3052.75 0
3052.75 926.074 0
0 0 505.741

-283.198 1401.88 0
1401.88 770.717 0
0 0 146.256

-6247.77 -4953.39 0
-4953.39 -4407.19 0
0 0 -3196.49

-8328.06 -1670.21 0
-1670.21 1866.92 0
0 0 -1938.34

-5325.85 -6020.76 0
-6020.76 -7834.12 0
0 0 -3947.99

-13102.9 -890.963 0
-890.963 -4345.66 0
0 0 -5234.57

-3315.75 -2029.13 0
-2029.13 3985.4 0
0 0 200.897

-4008.15 -278.583 0
-278.583 6557.31 0
0 0 764.748

-4814.19 1186.54 0
1186.54 -373.386 0
0 0 -1556.27

-2046.75 6540.88 0
6540.88 -1454.6 0
0 0 -1050.4

1494.93 1547.44 0
1547.44 2259.1 0
0 0 1126.21

-5571.9 1844.42 0
1844.42 3414.45 0
0 0 -647.236

-2448.96 1131.64 0
1131.64 -467.606 0
0 0 -874.97

-3557.2 2634.76 0
2634.76 1225.21 0
0 0 -699.598

-3657.72 1348.22 0
1348.22 994.419 0
0 0 -798.989

2164.99 2219.9 0
2219.9 2697.39 0
0 0 1458.72

11478.5 2831.62 0
2831.62 -3898.11 0
0 0 2274.12

-2210.63 2046.62 0
2046.62 -1314.67 0
0 0 -1057.59

-4720.09 -6084.03 0
-6084.03 -3028.59 0
0 0 -2324.61

-1046.23 3360.07 0
3360.07 -533.211 0
0 0 -473.831

-20666.8 -11334.2 0
-11334.2 -9384.81 0
0 0 -9015.48

-5363.02 -9089.63 0
-9089.63 1897.88 0
0 0 -1039.54

-4097.35 1255.82 0
1255.82 708.531 0
0 0 -1016.65

3727.53 -2170.47 0
-2170.47 1948.29 0
0 0 1702.75

5107.23 3.07578 0
3.07578 1007.33 0
0 0 1834.37

4928.83 -1135.71 0
-1135.71 2237.39 0
0 0 2149.87

2194.62 1194.99 0
1194.99 -1855.67 0
0 0 101.683

604.267 73.6816 0
73.6816 4290.64 0
0 0 1468.47

3195.69 -935.581 0
-935.581 412.604 0
0 0 1082.49

2735.17 -721.954 0
-721.954 542.255 0
0 0 983.228

3009.21 383.581 0
383.581 531.226 0
0 0 1062.13

-5370.71 -612.115 0
-612.115 1761.59 0
0 0 -1082.74

1593.82 210.607 0
210.607 866.898 0
0 0 738.215

2248.73 480.013 0
480.013 -1480.17 0
0 0 230.569

TENSORS velocity_gradient double
-0.439226 -0.534453 0
0.517624 0.124949 0
0 0 0

-0.527327 -0.142387 0
0.514503 0.176992 0
0 0 0

-0.198729 0.384615 0
0.465216 0.00355147 0
0 0 0

-0.420794 -0.0713557 0
0.244886 -0.00277542 0
0 0 0

-0.53864 -0.262906 0
0.12792 0.373416 0
0 0 0

-0.472774 -0.735982 0
-0.415768 0.171734 0
0 0 0

-0.343785 -0.241095 0
0.0741762 0.22066 0
0 0 0

-0.200469 -1.12195 0
-0.312145 0.174609 0
0 0 0

-0.227851 -1.085 0
-0.379161 0.683608 0
0 0 0

-0.652662 -0.852884 0
-0.45526 1.43898 0
0 0 0

-0.285698 -1.02925 0
-0.943564 0.733327 0
0 0 0

-0.382985 -0.906446 0
-1.41111 1.32349 0
0 0 0

-0.652494 -0.853201 0
-0.223058 1.00247 0
0 0 0

-0.261386 -0.772819 0
0.768919 0.470911 0
0 0 0

-0.520578 -0.402851 0
0.133853 0.820823 0
0 0 0

-0.136647 -0.853883 0
0.171772 0.466779 0
0 0 0

0.589499 0.948911 0
0.741823 0.201576 0
0 0 0

0.776228 -0.280476 0
0.678712 0.078206 0
0 0 0

1.05097 -1.00629 0
0.792053 -0.592773 0
0 0 0

0.638361 -1.02295 0
0.289957 -0.141199 0
0 0 0

-0.137688 -0.767081 0
0.108701 0.261897 0
0 0 0

0.0377945 -1.02008 0
0.207112 0.120012 0
0 0 0

0.135468 -0.651061 0
0.188629 0.312543 0
0 0 0

0.309945 0.470428 0
0.29266 0.886123 0
0 0 0

-0.415547 -0.983252 0
-1.57732 0.349201 0
0 0 0

-0.364041 0.731317 0
-1.53539 0.949718 0
0 0 0

0.514026 1.07832 0
0.175669 1.53821 0
0 0 0

-0.153177 0.861138 0
-1.00931 1.27361 0
0 0 0

-0.0421397 0.444068 0
-0.637877 0.491842 0
0 0 0

0.707887 -0.338079 0
0.130516 0.441582 0
0 0 0

-0.0267768 0.743593 0
-0.712797 0.749198 0
0 0 0

1.66975 1.51752 0
0.226543 0.615727 0
0 0 0

0.650243 -1.85963 0
0.0811467 -0.86627 0
0 0 0

-0.000619847 -1.43258 0
-0.426048 -0.600204 0
0 0 0

1.27656 -1.2484 0
1.89517 -0.26415 0
0 0 0

0.602855 4.31431 0
-1.13576 -0.425881 0
0 0 0

0.246663 2.24796 0
-0.932662 0.75233 0
0 0 0

0.620678 1.53161 0
0.0931218 1.18738 0
0 0 0

1.55119 3.1227 0
-1.67649 0.253566 0
0 0 0

2.4841 2.24679 0
-2.23131 0.587737 0
0 0 0

0.824801 1.26791 0
-0.0648655 1.39147 0
0 0 0

0.582956 2.23182 0
-0.479113 0.0674917 0
0 0 0

1.27069 3.48415 0
-0.416558 -1.06293 0
0 0 0

1.63945 2.93007 0
-0.70976 -0.622384 0
0 0 0

0.245131 2.21417 0
-0.91753 0.149111 0
0 0 0

0.399454 1.9474 0
-1.16562 0.577976 0
0 0 0

0.796203 2.43466 0
-1.27723 -0.178644 0
0 0 0

0.928092 -0.245547 0
-1.46108 -0.781023 0
0 0 0

2.43722 7.14794 0
1.68009 -2.51826 0
0 0 0

4.47396 5.55843 0
0.120332 -1.301 0
0 0 0

3.25517 9.02484 0
-0.234786 -3.87787 0
0 0 0

5.76258 4.9245 0
-0.966549 -2.71857 0
0 0 0

2.54664 3.86865 0
-2.31075 -0.987539 0
0 0 0

2.60909 3.57512 0
-2.83133 -1.89795 0
0 0 0

5.35986 2.77149 0
-1.21036 -2.6316 0
0 0 0

2.33314 3.34869 0
-3.35617 -2.32861 0
0 0 0

2.18552 3.73803 0
-2.30699 -1.40104 0
0 0 0

2.09001 1.90742 0
-1.19892 -1.07426 0
0 0 0

2.12874 -1.48766 0
-3.51618 -1.34885 0
0 0 0

1.07784 -2.88663 0
-1.79716 -1.56581 0
0 0 0

1.42028 -0.00016806 0
-1.42162 -1.15271 0
0 0 0

2.4608 -0.386528 0
-1.33011 -1.16786 0
0 0 0

-0.282998 -1.11404 0
-1.68426 -1.32446 0
0 0 0

1.441 -2.0185 0
-1.46039 -5.14163 0
0 0 0

SCALARS active double 1
LOOKUP_TABLE default
1
1
1
1
1
1
1
1
1
1
1
1
1
1
1
1
1
1
1
1
1
1
1
1
1
1
1
1
1
1
1
1
1
1
1
1
1
1
1
1
1
1
1
1
1
1
1
1
1
1
1
1
1
1
1
1
1
1
1
1
1
1
1
1
SCALARS extent double 1
LOOKUP_TABLE default
0.0125
0.0125
0.0125
0.0125
0.0125
0.0125
0.0125
0.0125
0.0125
0.0125
0.0125
0.0125
0.0125
0.0125
0.0125
0.0125
0.0125
0.0125
0.0125
0.0125
0.0125
0.0125
0.0125
0.0125
0.0125
0.0125
0.0125
0.0125
0.0125
0.0125
0.0125
0.0125
0.0125
0.0125
0.0125
0.0125
0.0125
0.0125
0.0125
0.0125
0.0125
0.0125
0.0125
0.0125
0.0125
0.0125
0.0125
0.0125
0.0125
0.0125
0.0125
0.0125
0.0125
0.0125
0.0125
0.0125
0.0125
0.0125
0.0125
0.0125
0.0125
0.0125
0.0125
0.0125
SCALARS pressure double 1
LOOKUP_TABLE default
28.4197
-424.666
361.268
86.7935
167.222
947.475
1187.82
2293.88
979.034
2063.32
253.379
2466.98
883.943
-156.333
574.267
274.021
1398.59
1224.54
2421.85
1545.94
2920.43
1119.27
2888.4
2737.27
-881.064
406.138
-1594.04
-178.937
-2424.58
-1070.17
-730.515
-211.258
4617.15
2799.83
5702.65
7561.05
-290.185
-1104.64
2247.95
1517.25
-1626.75
934.896
1263.85
1010.53
1154.1
-2107.03
-3284.84
1527.63
3357.76
684.423
13022.4
1501.56
1468.49
-2459.52
-2649.64
-3105.36
-146.876
-2121.12
-1563.6
-1420.22
-1534.19
1563.95
-1066.31
-333.044
SCALARS density double 1
LOOKUP_TABLE default
1000.34
994.917
1004.34
1001.04
1002.01
1011.43
1014.36
1027.91
1011.82
1025.07
1003.05
1030.05
1010.66
998.126
1006.92
1003.29
1016.92
1014.8
1029.49
1018.72
1035.67
1013.52
1035.27
1033.39
989.483
1004.89
981.053
997.855
971.324
987.24
991.272
997.468
1056.97
1034.17
1070.83
1094.98
996.524
986.832
1027.34
1018.37
980.668
1011.28
1015.28
1012.2
1013.95
975.033
961.349
1018.5
1041.12
1008.25
1169.14
1018.18
1017.78
970.917
968.704
963.421
998.239
974.868
981.412
983.102
981.758
1018.94
987.286
996.011
