# vtk DataFile Version 3.0
Frame: 35, Time: 0.584
ASCII
DATASET UNSTRUCTURED_GRID
POINTS 64 double
0.885912 0.47399 0 
0.886686 0.448562 0 
0.859741 0.474925 0 
0.859856 0.448136 0 
0.889783 0.423776 0 
0.895201 0.397773 0 
0.863787 0.422913 0 
0.868139 0.397602 0 
0.897881 0.371563 0 
0.895985 0.344543 0 
0.870544 0.372859 0 
0.871325 0.347746 0 
0.898309 0.317838 0 
0.901956 0.294277 0 
0.873282 0.321304 0 
0.873279 0.29579 0 
0.834313 0.473123 0 
0.835368 0.447 0 
0.810247 0.471304 0 
0.812059 0.443099 0 
0.839111 0.421122 0 
0.842095 0.396204 0 
0.813823 0.416754 0 
0.815514 0.391679 0 
0.843658 0.371459 0 
0.846093 0.347283 0 
0.81758 0.367294 0 
0.82016 0.34336 0 
0.84784 0.321369 0 
0.848179 0.294476 0 
0.822696 0.318939 0 
0.825024 0.291552 0 
0.787053 0.471095 0 
0.786995 0.443755 0 
0.76301 0.469035 0 
0.761921 0.441977 0 
0.790283 0.417216 0 
0.788674 0.390734 0 
0.765755 0.415609 0 
0.76301 0.390811 0 
0.790058 0.364401 0 
0.793552 0.339594 0 
0.763887 0.363935 0 
0.767543 0.33835 0 
0.79553 0.315012 0 
0.799336 0.288751 0 
0.768182 0.313056 0 
0.774147 0.286727 0 
0.739358 0.464925 0 
0.738465 0.439098 0 
0.713004 0.465193 0 
0.712004 0.439567 0 
0.740915 0.413619 0 
0.738485 0.386614 0 
0.714247 0.412812 0 
0.712597 0.385601 0 
0.739308 0.360727 0 
0.742284 0.334596 0 
0.71372 0.360738 0 
0.71658 0.332768 0 
0.742623 0.30832 0 
0.749235 0.28329 0 
0.717944 0.305034 0 
0.724764 0.279527 0 
CELLS 64 128
1 0
1 1
1 2
1 3
1 4
1 5
1 6
1 7
1 8
1 9
1 10
1 11
1 12
1 13
1 14
1 15
1 16
1 17
1 18
1 19
1 20
1 21
1 22
1 23
1 24
1 25
1 26
1 27
1 28
1 29
1 30
1 31
1 32
1 33
1 34
1 35
1 36
1 37
1 38
1 39
1 40
1 41
1 42
1 43
1 44
1 45
1 46
1 47
1 48
1 49
1 50
1 51
1 52
1 53
1 54
1 55
1 56
1 57
1 58
1 59
1 60
1 61
1 62
1 63
CELL_TYPES 64
1
1
1
1
1
1
1
1
1
1
1
1
1
1
1
1
1
1
1
1
1
1
1
1
1
1
1
1
1
1
1
1
1
1
1
1
1
1
1
1
1
1
1
1
1
1
1
1
1
1
1
1
1
1
1
1
1
1
1
1
1
1
1
1
POINT_DATA 64
VECTORS displacement double
0.373412 -0.13851 0 
0.374186 -0.188938 0 
0.322241 -0.137575 0 
0.322356 -0.189364 0 
0.377283 -0.238724 0 
0.382701 -0.289727 0 
0.326287 -0.239587 0 
0.330639 -0.289898 0 
0.385381 -0.340937 0 
0.383485 -0.392957 0 
0.333044 -0.339641 0 
0.333825 -0.389754 0 
0.385809 -0.444662 0 
0.389456 -0.493223 0 
0.335782 -0.441196 0 
0.335779 -0.49171 0 
0.271813 -0.139377 0 
0.272868 -0.1905 0 
0.222747 -0.141196 0 
0.224559 -0.194401 0 
0.276611 -0.241378 0 
0.279595 -0.291296 0 
0.226323 -0.245746 0 
0.228014 -0.295821 0 
0.281158 -0.341041 0 
0.283593 -0.390217 0 
0.23008 -0.345206 0 
0.23266 -0.39414 0 
0.28534 -0.441131 0 
0.285679 -0.493024 0 
0.235196 -0.443561 0 
0.237524 -0.495948 0 
0.174553 -0.141405 0 
0.174495 -0.193745 0 
0.12551 -0.143465 0 
0.124421 -0.195523 0 
0.177783 -0.245284 0 
0.176174 -0.296766 0 
0.128255 -0.246891 0 
0.12551 -0.296689 0 
0.177558 -0.348099 0 
0.181052 -0.397906 0 
0.126387 -0.348565 0 
0.130043 -0.39915 0 
0.18303 -0.447488 0 
0.186836 -0.498749 0 
0.130682 -0.449444 0 
0.136647 -0.500773 0 
0.0768576 -0.147575 0 
0.0759653 -0.198402 0 
0.025504 -0.147307 0 
0.0245039 -0.197933 0 
0.0784155 -0.248881 0 
0.0759853 -0.300886 0 
0.0267469 -0.249688 0 
0.0250974 -0.301899 0 
0.0768083 -0.351773 0 
0.0797842 -0.402904 0 
0.0262205 -0.351762 0 
0.0290801 -0.404732 0 
0.0801226 -0.45418 0 
0.0867348 -0.50421 0 
0.0304443 -0.457466 0 
0.0372641 -0.507973 0 
VECTORS velocity double
-1.72272 1.04068 0 
-1.35184 1.04156 0 
-1.924 0.464408 0 
-1.49545 0.542365 0 
-1.27547 1.45011 0 
-0.721294 1.66378 0 
-1.6865 0.71796 0 
-1.235 0.63038 0 
-0.582583 1.84595 0 
-0.758839 1.11608 0 
-0.859146 1.2747 0 
-0.688857 1.05028 0 
0.00536559 1.14818 0 
-0.535472 0.745224 0 
0.326551 1.55384 0 
-1.31205 2.72871 0 
-1.64704 -0.199273 0 
-1.40496 -0.714535 0 
-2.27132 0.759285 0 
-1.87029 0.218431 0 
-1.29453 -0.167346 0 
-0.834812 -0.561079 0 
-2.37936 0.464167 0 
-1.93316 0.0970759 0 
-0.688429 -0.0224018 0 
-0.778547 0.284495 0 
-1.33447 -0.118956 0 
-1.78427 0.235158 0 
-0.0494539 0.604545 0 
0.029924 0.637624 0 
-0.829341 0.382912 0 
-0.0384581 0.22248 0 
-1.50059 0.581348 0 
-1.00494 0.279189 0 
-1.53142 0.207366 0 
-1.23335 0.260945 0 
-1.72882 0.512294 0 
-1.50419 0.821518 0 
-1.68623 -0.0032064 0 
-1.48793 0.338698 0 
-0.27484 0.639819 0 
-1.47632 0.526826 0 
-0.59846 0.0116526 0 
-1.40203 0.430892 0 
-1.08429 0.37388 0 
-0.98784 0.614951 0 
-1.13913 0.624712 0 
-1.5649 0.871355 0 
-1.87675 0.254479 0 
-1.82798 0.0924557 0 
-1.85274 0.00439719 0 
-1.7231 0.103434 0 
-1.71793 0.0475276 0 
-1.56608 0.210923 0 
-2.12784 0.239363 0 
-2.25621 0.116532 0 
-1.45233 0.392 0 
-1.77185 0.661137 0 
-1.73405 0.290547 0 
-1.40596 0.314545 0 
-0.749335 0.761078 0 
-1.32927 0.903963 0 
-1.2745 0.634913 0 
-1.59245 0.650241 0 
SCALARS mass double 1
LOOKUP_TABLE default
0.625
0.625
0.625
0.625
0.625
0.625
0.625
0.625
0.625
0.625
0.625
0.625
0.625
0.625
0.625
0.625
0.625
0.625
0.625
0.625
0.625
0.625
0.625
0.625
0.625
0.625
0.625
0.625
0.625
0.625
0.625
0.625
0.625
0.625
0.625
0.625
0.625
0.625
0.625
0.625
0.625
0.625
0.625
0.625
0.625
0.625
0.625
0.625
0.625
0.625
0.625
0.625
0.625
0.625
0.625
0.625
0.625
0.625
0.625
0.625
0.625
0.625
0.625
0.625
SCALARS volume double 1
LOOKUP_TABLE default
0.000618259
0.000596603
0.000638642
0.000610802
0.000638729
0.000646455
0.000612119
0.000627091
0.000663695
0.000653991
0.000646013
0.00060147
0.000641593
0.000630176
0.000597415
0.000629745
0.000616054
0.000610471
0.000616032
0.000617853
0.000637427
0.000652876
0.000615681
0.000620386
0.000638237
0.00063041
0.000630015
0.000630001
0.000617656
0.000582472
0.000646189
0.000638242
0.000596572
0.000638904
0.00062302
0.000634244
0.000608801
0.000651531
0.000621536
0.000607444
0.000667222
0.000598435
0.000641062
0.000592701
0.000670148
0.000630136
0.00066544
0.000608467
0.000605757
0.000591029
0.000641042
0.000652456
0.000628431
0.000591406
0.000679827
0.000658806
0.000647326
0.000631505
0.000651958
0.000656596
0.000595004
0.000637942
0.000637367
0.000621143
VECTORS momentum double
-1.0767 0.650424 0 
-0.844899 0.650975 0 
-1.2025 0.290255 0 
-0.934659 0.338978 0 
-0.797169 0.906319 0 
-0.450809 1.03986 0 
-1.05406 0.448725 0 
-0.771874 0.393988 0 
-0.364115 1.15372 0 
-0.474274 0.697553 0 
-0.536966 0.796689 0 
-0.430536 0.656425 0 
0.00335349 0.717614 0 
-0.33467 0.465765 0 
0.204094 0.971147 0 
-0.820029 1.70544 0 
-1.0294 -0.124546 0 
-0.8781 -0.446584 0 
-1.41958 0.474553 0 
-1.16893 0.136519 0 
-0.809083 -0.104591 0 
-0.521757 -0.350675 0 
-1.4871 0.290104 0 
-1.20823 0.0606725 0 
-0.430268 -0.0140011 0 
-0.486592 0.17781 0 
-0.834045 -0.0743472 0 
-1.11517 0.146974 0 
-0.0309087 0.377841 0 
0.0187025 0.398515 0 
-0.518338 0.23932 0 
-0.0240363 0.13905 0 
-0.937866 0.363342 0 
-0.62809 0.174493 0 
-0.957137 0.129604 0 
-0.770845 0.16309 0 
-1.08051 0.320184 0 
-0.94012 0.513449 0 
-1.0539 -0.002004 0 
-0.929955 0.211686 0 
-0.171775 0.399887 0 
-0.922702 0.329266 0 
-0.374037 0.00728287 0 
-0.876271 0.269308 0 
-0.677679 0.233675 0 
-0.6174 0.384344 0 
-0.711954 0.390445 0 
-0.978065 0.544597 0 
-1.17297 0.159049 0 
-1.14248 0.0577848 0 
-1.15796 0.00274825 0 
-1.07693 0.064646 0 
-1.07371 0.0297047 0 
-0.9788 0.131827 0 
-1.3299 0.149602 0 
-1.41013 0.0728324 0 
-0.907708 0.245 0 
-1.10741 0.413211 0 
-1.08378 0.181592 0 
-0.878723 0.19659 0 
-0.468335 0.475674 0 
-0.830792 0.564977 0 
-0.796562 0.39682 0 
-0.995282 0.406401 0 
VECTORS body_force double
0 -9.81 0 
0 -9.81 0 
0 -9.81 0 
0 -9.81 0 
0 -9.81 0 
0 -9.81 0 
0 -9.81 0 
0 -9.81 0 
0 -9.81 0 
0 -9.81 0 
0 -9.81 0 
0 -9.81 0 
0 -9.81 0 
0 -9.81 0 
0 -9.81 0 
0 -9.81 0 
0 -9.81 0 
0 -9.81 0 
0 -9.81 0 
0 -9.81 0 
0 -9.81 0 
0 -9.81 0 
0 -9.81 0 
0 -9.81 0 
0 -9.81 0 
0 -9.81 0 
0 -9.81 0 
0 -9.81 0 
0 -9.81 0 
0 -9.81 0 
0 -9.81 0 
0 -9.81 0 
0 -9.81 0 
0 -9.81 0 
0 -9.81 0 
0 -9.81 0 
0 -9.81 0 
0 -9.81 0 
0 -9.81 0 
0 -9.81 0 
0 -9.81 0 
0 -9.81 0 
0 -9.81 0 
0 -9.81 0 
0 -9.81 0 
0 -9.81 0 
0 -9.81 0 
0 -9.81 0 
0 -9.81 0 
0 -9.81 0 
0 -9.81 0 
0 -9.81 0 
0 -9.81 0 
0 -9.81 0 
0 -9.81 0 
0 -9.81 0 
0 -9.81 0 
0 -9.81 0 
0 -9.81 0 
0 -9.81 0 
0 -9.81 0 
0 -9.81 0 
0 -9.81 0 
0 -9.81 0 
TENSORS cauchy_stress double
-894.466 804.722 0
804.722 -1190.87 0
0 0 -625.6

-2698.07 -3142.28 0
-3142.28 -6244.28 0
0 0 -2682.71

1474.77 1259.96 0
1259.96 2677.58 0
0 0 1245.7

-4249.69 -1137.43 0
-1137.43 -169.431 0
0 0 -1325.74

1758.04 -2378.32 0
-2378.32 2420.64 0
0 0 1253.6

4621.54 -2499.32 0
-2499.32 1869.22 0
0 0 1947.23

-2954.97 -8723.14 0
-8723.14 -1049.72 0
0 0 -1201.41

3177.99 -3585.65 0
-3585.65 -2535.54 0
0 0 192.736

2906.37 -1943.9 0
-1943.9 8645.79 0
0 0 3465.65

-691.036 -1663.48 0
-1663.48 9410.77 0
0 0 2615.92

7300.21 -4011.01 0
-4011.01 -940.953 0
0 0 1907.78

-7239.88 -3979.2 0
-3979.2 -139.924 0
0 0 -2213.94

1920.04 -540.467 0
-540.467 3118.79 0
0 0 1511.65

143.271 944.375 0
944.375 1442.73 0
0 0 475.801

-6100.56 -1486.74 0
-1486.74 -2580.09 0
0 0 -2604.2

3143.27 -5226.42 0
-5226.42 -1688.79 0
0 0 436.344

-538.005 676.851 0
676.851 -2234.59 0
0 0 -831.779

-4672.2 -2546.59 0
-2546.59 149.051 0
0 0 -1356.95

-7280.1 68.5899 0
68.5899 4500.75 0
0 0 -833.805

-3715.2 -2719.39 0
-2719.39 1503.37 0
0 0 -663.546

1618.19 2852.89 0
2852.89 2167.9 0
0 0 1135.83

5313.38 7183.51 0
7183.51 3078.08 0
0 0 2517.44

-5103.94 2374.66 0
2374.66 2215.11 0
0 0 -866.65

2971.86 -1811.08 0
-1811.08 -4396.74 0
0 0 -427.463

4043.56 6440.16 0
6440.16 -13.2288 0
0 0 1209.1

3043.64 -417.096 0
-417.096 -1386.21 0
0 0 497.23

3949.74 -1888.17 0
-1888.17 -2412.82 0
0 0 461.075

5418.75 507.779 0
507.779 -3886.2 0
0 0 459.765

-4179.94 6375.16 0
6375.16 1907.02 0
0 0 -681.878

-14176.9 9828.64 0
9828.64 624.698 0
0 0 -4065.65

4771.75 -1573.79 0
-1573.79 1639.81 0
0 0 1923.47

-2461.75 -4088.32 0
-4088.32 6493.64 0
0 0 1209.57

-9493.67 -4260.28 0
-4260.28 541.333 0
0 0 -2685.7

260.812 -3800.1 0
-3800.1 3970.32 0
0 0 1269.34

-4130.32 1760.01 0
1760.01 3520.06 0
0 0 -183.077

-2216.66 -1199.27 0
-1199.27 5040.19 0
0 0 847.057

-9428.66 -3094.12 0
-3094.12 4378.67 0
0 0 -1515

3560.97 1717.55 0
1717.55 4433.94 0
0 0 2398.47

-253.057 4107.12 0
4107.12 -815.869 0
0 0 -320.678

845.504 4815.57 0
4815.57 -6324.75 0
0 0 -1643.77

7976.21 -5013.96 0
-5013.96 4595.12 0
0 0 3771.4

-2381.04 6592.64 0
6592.64 -5971.65 0
0 0 -2505.81

-3022.27 -1226.84 0
-1226.84 7902.1 0
0 0 1463.95

-3041.24 1429.87 0
1429.87 -7162.85 0
0 0 -3061.23

8949.52 3487.16 0
3487.16 4463.44 0
0 0 4023.89

160.376 4637.24 0
4637.24 1413.41 0
0 0 472.135

8461.23 -5187.31 0
-5187.31 3595.94 0
0 0 3617.15

-4494.35 -7106.27 0
-7106.27 -661.256 0
0 0 -1546.68

-4542.62 2009.19 0
2009.19 -1471.42 0
0 0 -1804.21

-6074.65 -262.435 0
-262.435 -4672.82 0
0 0 -3224.24

2092.07 -210.837 0
-210.837 2781.74 0
0 0 1462.14

4513.39 -1864.44 0
-1864.44 3754.33 0
0 0 2480.31

-2047.56 4559.86 0
4559.86 3100.49 0
0 0 315.879

-9247.14 2804.01 0
2804.01 -1377.78 0
0 0 -3187.48

10533.1 -1632.5 0
-1632.5 5637.33 0
0 0 4851.12

5884.29 1535.51 0
1535.51 4246.04 0
0 0 3039.1

1846.97 -4051.45 0
-4051.45 4902.75 0
0 0 2024.92

-852.754 5241.16 0
5241.16 2843.92 0
0 0 597.35

2033.67 -2454.56 0
-2454.56 6087.29 0
0 0 2436.29

3340.92 -878.791 0
-878.791 6143.25 0
0 0 2845.25

-4681.53 -462.001 0
-462.001 -4776.75 0
0 0 -2837.49

2037.53 763.749 0
763.749 1903.95 0
0 0 1182.44

-304.482 1279.04 0
1279.04 4072.41 0
0 0 1130.38

993.055 -1489.97 0
-1489.97 -2183.51 0
0 0 -357.136

TENSORS velocity_gradient double
2.23555 -7.26657 0
14.7607 -1.73694 0
0 0 0

3.80381 -7.33907 0
17.799 -3.92869 0
0 0 0

2.14496 -5.47266 0
14.6124 1.20055 0
0 0 0

3.80147 -6.28354 0
17.7925 -0.188679 0
0 0 0

4.53321 -7.42881 0
21.517 -5.34351 0
0 0 0

3.86617 -9.07714 0
21.2105 -0.497896 0
0 0 0

4.54115 -6.7599 0
21.5637 -1.40856 0
0 0 0

5.13887 -8.70025 0
23.955 -3.00611 0
0 0 0

2.17554 -9.5502 0
15.5088 1.26846 0
0 0 0

2.88385 -3.14433 0
13.3027 -1.36445 0
0 0 0

5.48017 -9.35825 0
20.3349 -2.97915 0
0 0 0

5.08774 -7.10609 0
16.2849 -4.52513 0
0 0 0

-0.677847 -3.01319 0
5.02832 -0.782274 0
0 0 0

-2.03348 7.74103 0
-5.50914 -0.199425 0
0 0 0

1.60053 -6.10445 0
12.5897 -4.82601 0
0 0 0

-3.01656 0.415631 0
9.32333 -2.76301 0
0 0 0

-0.514945 -3.94687 0
-2.22794 2.76715 0
0 0 0

1.0687 -4.84596 0
-2.07065 0.773076 0
0 0 0

-0.416164 -2.67196 0
-2.19041 3.25151 0
0 0 0

1.38254 -2.8804 0
-2.17991 -1.18934 0
0 0 0

3.48537 -5.46166 0
-3.43455 0.350747 0
0 0 0

5.51568 -8.34463 0
-3.89749 -4.56752 0
0 0 0

3.91334 -3.0418 0
-3.68989 -1.09304 0
0 0 0

5.71246 -8.23914 0
-3.50151 -2.21538 0
0 0 0

6.17211 -8.94093 0
0.740448 -5.70599 0
0 0 0

6.77928 -8.69133 0
5.80979 -6.91138 0
0 0 0

6.33453 -8.28632 0
-0.309747 -2.45746 0
0 0 0

7.70156 -5.63048 0
2.76336 -4.5753 0
0 0 0

7.28119 -8.59287 0
8.14863 -7.29278 0
0 0 0

7.53294 -5.27947 0
8.23222 -4.81395 0
0 0 0

10.9375 -5.94317 0
5.75183 -4.86408 0
0 0 0

14.6502 -3.15968 0
7.4767 -6.17152 0
0 0 0

1.11061 -2.32742 0
3.54981 2.89413 0
0 0 0

0.667237 -1.42289 0
2.66113 -1.60147 0
0 0 0

1.06051 -2.93786 0
3.44534 1.62132 0
0 0 0

0.6894 -1.09861 0
2.71673 -0.787853 0
0 0 0

1.01135 -1.4649 0
3.52452 -1.70687 0
0 0 0

1.74402 -7.28364 0
3.16748 -0.933992 0
0 0 0

1.03104 -1.1478 0
3.57392 -0.911271 0
0 0 0

1.73557 -5.91543 0
3.18236 -3.34286 0
0 0 0

3.15173 -7.34706 0
0.689068 -0.822335 0
0 0 0

4.1103 -2.97285 0
-0.878567 -2.37199 0
0 0 0

3.17575 -5.95362 0
0.64677 -3.27562 0
0 0 0

3.76242 -3.20009 0
-1.28193 -3.68731 0
0 0 0

5.29801 -3.08671 0
-0.556468 -2.43607 0
0 0 0

10.3815 0.463993 0
2.81658 -7.12265 0
0 0 0

3.4736 -3.19378 0
-2.65172 -3.65736 0
0 0 0

5.56956 4.42007 0
-1.98445 -5.20899 0
0 0 0

2.35981 -3.0468 0
2.23214 0.50984 0
0 0 0

3.81974 -0.0132979 0
1.26585 -0.718855 0
0 0 0

2.35009 -2.26616 0
2.24432 -0.469038 0
0 0 0

3.77332 2.42074 0
1.28478 -1.71165 0
0 0 0

6.17404 -0.238106 0
0.305579 -0.627161 0
0 0 0

7.09077 -5.37415 0
0.525531 -4.18268 0
0 0 0

6.24795 2.20897 0
0.275434 -1.62527 0
0 0 0

7.06696 -5.98495 0
0.578915 -2.81363 0
0 0 0

6.4732 -5.35802 0
1.90977 -4.21883 0
0 0 0

5.51776 -3.69864 0
1.41821 -5.11997 0
0 0 0

6.47462 -5.96197 0
1.90657 -2.86515 0
0 0 0

5.43731 -4.8395 0
1.2998 -6.79904 0
0 0 0

4.33177 -3.68968 0
-0.337649 -5.10484 0
0 0 0

4.36916 7.6592 0
-0.367407 -2.77283 0
0 0 0

4.14098 -3.25902 0
-0.365992 -5.60776 0
0 0 0

1.89875 6.1253 0
1.58491 -0.0586642 0
0 0 0

SCALARS active double 1
LOOKUP_TABLE default
1
1
1
1
1
1
1
1
1
1
1
1
1
1
1
1
1
1
1
1
1
1
1
1
1
1
1
1
1
1
1
1
1
1
1
1
1
1
1
1
1
1
1
1
1
1
1
1
1
1
1
1
1
1
1
1
1
1
1
1
1
1
1
1
SCALARS extent double 1
LOOKUP_TABLE default
0.0125
0.0125
0.0125
0.0125
0.0125
0.0125
0.0125
0.0125
0.0125
0.0125
0.0125
0.0125
0.0125
0.0125
0.0125
0.0125
0.0125
0.0125
0.0125
0.0125
0.0125
0.0125
0.0125
0.0125
0.0125
0.0125
0.0125
0.0125
0.0125
0.0125
0.0125
0.0125
0.0125
0.0125
0.0125
0.0125
0.0125
0.0125
0.0125
0.0125
0.0125
0.0125
0.0125
0.0125
0.0125
0.0125
0.0125
0.0125
0.0125
0.0125
0.0125
0.0125
0.0125
0.0125
0.0125
0.0125
0.0125
0.0125
0.0125
0.0125
0.0125
0.0125
0.0125
0.0125
SCALARS pressure double 1
LOOKUP_TABLE default
903.644
3875.02
-1799.35
1914.95
-1810.76
-2812.66
1735.37
-278.397
-5005.94
-3778.55
-2755.68
3197.91
-2183.49
-687.268
3761.62
-630.275
1201.46
1960.03
1204.39
958.456
-1640.64
-3636.3
1251.83
617.447
-1746.48
-718.22
-665.997
-664.105
984.935
5872.6
-2778.34
-1747.15
3879.34
-1833.49
264.445
-1223.53
2188.33
-3464.46
463.201
2374.34
-5447.57
3619.5
-2114.59
4421.77
-5812.28
-681.973
-5224.77
2234.09
2606.08
4657.24
-2111.99
-3582.68
-456.27
4604.13
-7007.18
-4389.81
-2924.88
-862.838
-3519.08
-4109.81
4098.59
-1707.97
-1632.77
515.862
SCALARS density double 1
LOOKUP_TABLE default
1010.9
1047.6
978.639
1023.25
978.505
966.811
1021.04
996.665
941.697
955.67
967.473
1039.12
974.138
991.787
1046.17
992.465
1014.52
1023.8
1014.56
1011.57
980.505
957.303
1015.14
1007.44
979.26
991.418
992.04
992.062
1011.89
1073.01
967.21
979.252
1047.65
978.238
1003.18
985.425
1026.61
959.279
1005.57
1028.9
936.72
1044.39
974.944
1054.49
932.629
991.85
939.228
1027.17
1031.77
1057.48
974.975
957.919
994.54
1056.8
919.352
948.686
965.51
989.699
958.65
951.879
1050.41
979.713
980.597
1006.21
