# vtk DataFile Version 3.0
Frame: 41, Time: 0.684
ASCII
DATASET UNSTRUCTURED_GRID
POINTS 64 double
0.718486 0.504517 0 
0.7298 0.481553 0 
0.694284 0.493032 0 
0.704805 0.469142 0 
0.738969 0.458234 0 
0.750823 0.433729 0 
0.715506 0.44649 0 
0.727472 0.42257 0 
0.762979 0.41102 0 
0.772322 0.387747 0 
0.738901 0.399819 0 
0.748897 0.377237 0 
0.785674 0.366012 0 
0.799688 0.346376 0 
0.762328 0.355427 0 
0.774877 0.333643 0 
0.671341 0.481515 0 
0.681678 0.457955 0 
0.649304 0.471613 0 
0.660574 0.445908 0 
0.69388 0.435241 0 
0.705511 0.412807 0 
0.671917 0.42272 0 
0.682994 0.400976 0 
0.715831 0.388438 0 
0.726199 0.364921 0 
0.693797 0.376952 0 
0.704881 0.353262 0 
0.739432 0.342454 0 
0.753463 0.319868 0 
0.717028 0.331023 0 
0.729935 0.307597 0 
0.626469 0.460449 0 
0.636303 0.435592 0 
0.604423 0.447077 0 
0.614022 0.423004 0 
0.649572 0.412721 0 
0.658865 0.387922 0 
0.627891 0.400547 0 
0.635911 0.37717 0 
0.670476 0.364476 0 
0.683211 0.342546 0 
0.64781 0.353799 0 
0.660577 0.332011 0 
0.694203 0.319039 0 
0.706955 0.294953 0 
0.670354 0.307287 0 
0.684144 0.283508 0 
0.583056 0.435006 0 
0.592435 0.411469 0 
0.557964 0.424294 0 
0.567273 0.400596 0 
0.604623 0.389687 0 
0.614305 0.364847 0 
0.579577 0.378087 0 
0.590088 0.353161 0 
0.626394 0.342195 0 
0.638634 0.319145 0 
0.602207 0.331617 0 
0.615368 0.308353 0 
0.648786 0.294258 0 
0.661382 0.271548 0 
0.625843 0.284457 0 
0.638253 0.261545 0 
CELLS 64 128
1 0
1 1
1 2
1 3
1 4
1 5
1 6
1 7
1 8
1 9
1 10
1 11
1 12
1 13
1 14
1 15
1 16
1 17
1 18
1 19
1 20
1 21
1 22
1 23
1 24
1 25
1 26
1 27
1 28
1 29
1 30
1 31
1 32
1 33
1 34
1 35
1 36
1 37
1 38
1 39
1 40
1 41
1 42
1 43
1 44
1 45
1 46
1 47
1 48
1 49
1 50
1 51
1 52
1 53
1 54
1 55
1 56
1 57
1 58
1 59
1 60
1 61
1 62
1 63
CELL_TYPES 64
1
1
1
1
1
1
1
1
1
1
1
1
1
1
1
1
1
1
1
1
1
1
1
1
1
1
1
1
1
1
1
1
1
1
1
1
1
1
1
1
1
1
1
1
1
1
1
1
1
1
1
1
1
1
1
1
1
1
1
1
1
1
1
1
POINT_DATA 64
VECTORS displacement double
0.205986 -0.107983 0 
0.2173 -0.155947 0 
0.156784 -0.119468 0 
0.167305 -0.168358 0 
0.226469 -0.204266 0 
0.238323 -0.253771 0 
0.178006 -0.21601 0 
0.189972 -0.26493 0 
0.250479 -0.30148 0 
0.259822 -0.349753 0 
0.201401 -0.312681 0 
0.211397 -0.360263 0 
0.273174 -0.396488 0 
0.287188 -0.441124 0 
0.224828 -0.407073 0 
0.237377 -0.453857 0 
0.108841 -0.130985 0 
0.119178 -0.179545 0 
0.0618041 -0.140887 0 
0.0730735 -0.191592 0 
0.13138 -0.227259 0 
0.143011 -0.274693 0 
0.0844174 -0.23978 0 
0.0954938 -0.286524 0 
0.153331 -0.324062 0 
0.163699 -0.372579 0 
0.106297 -0.335548 0 
0.117381 -0.384238 0 
0.176932 -0.420046 0 
0.190963 -0.467632 0 
0.129528 -0.431477 0 
0.142435 -0.479903 0 
0.013969 -0.152051 0 
0.0238032 -0.201908 0 
-0.0330775 -0.165423 0 
-0.0234785 -0.214496 0 
0.0370717 -0.249779 0 
0.0463651 -0.299578 0 
-0.0096086 -0.261953 0 
-0.00158904 -0.31033 0 
0.0579763 -0.348024 0 
0.0707114 -0.394954 0 
0.0103095 -0.358701 0 
0.0230767 -0.405489 0 
0.081703 -0.443461 0 
0.0944545 -0.492547 0 
0.0328544 -0.455213 0 
0.0466439 -0.503992 0 
-0.0794442 -0.177494 0 
-0.0700654 -0.226031 0 
-0.129536 -0.188206 0 
-0.120227 -0.236904 0 
-0.0578771 -0.272813 0 
-0.0481949 -0.322653 0 
-0.107923 -0.284413 0 
-0.0974117 -0.334339 0 
-0.0361064 -0.370305 0 
-0.0238664 -0.418355 0 
-0.0852934 -0.380883 0 
-0.0721316 -0.429147 0 
-0.013714 -0.468242 0 
-0.00111811 -0.515952 0 
-0.0616574 -0.478043 0 
-0.0492467 -0.525955 0 
VECTORS velocity double
-1.31644 -0.54048 0 
-0.878945 -0.552965 0 
-1.31356 -0.582842 0 
-0.9489 -0.19641 0 
-1.35934 -0.445395 0 
-1.11488 -0.654859 0 
-1.63618 -0.107861 0 
-1.2913 -0.383712 0 
-0.550077 0.0799257 0 
-1.23846 -0.0693241 0 
-1.13365 0.099099 0 
-1.55967 -0.0610914 0 
-1.26272 0.170388 0 
-1.00808 0.190119 0 
-0.70454 0.115871 0 
-1.08402 0.556859 0 
-1.30948 -0.682708 0 
-1.34826 -1.00021 0 
-1.69567 -0.554143 0 
-1.6252 -0.191745 0 
-1.39093 -0.487656 0 
-1.17734 -0.666284 0 
-2.00746 0.187974 0 
-1.94419 0.0518563 0 
-1.28457 -0.183688 0 
-1.56216 -0.105371 0 
-1.30866 -0.165169 0 
-1.38925 0.0625022 0 
-1.24624 -0.146626 0 
-0.269812 -0.268409 0 
-1.40926 0.134263 0 
-1.28341 0.522873 0 
-1.53157 -1.12261 0 
-1.05655 -0.593122 0 
-2.01354 -1.38609 0 
-1.43021 -0.898353 0 
-1.37525 -0.480163 0 
-1.48334 -0.549275 0 
-1.60769 -1.15473 0 
-1.58535 -0.925622 0 
-0.414524 -0.346472 0 
-1.14601 -0.143825 0 
-1.0852 -1.13886 0 
-1.66891 -0.467052 0 
-1.18572 -0.474974 0 
-0.815971 -0.229428 0 
-0.888796 -0.7051 0 
-0.784832 -0.328847 0 
-1.79109 -1.13926 0 
-1.52022 -1.09855 0 
-1.84348 -1.47165 0 
-1.38537 -1.39682 0 
-1.40677 -0.642785 0 
-1.10317 -0.088698 0 
-1.48674 -1.35651 0 
-1.55781 -1.27715 0 
-1.06866 -0.225517 0 
-1.50252 -0.231929 0 
-1.3067 -0.982299 0 
-1.15888 -0.829791 0 
-0.455819 -0.226965 0 
-0.976858 -0.129959 0 
-0.98493 -0.388593 0 
-1.11438 -0.571209 0 
SCALARS mass double 1
LOOKUP_TABLE default
0.625
0.625
0.625
0.625
0.625
0.625
0.625
0.625
0.625
0.625
0.625
0.625
0.625
0.625
0.625
0.625
0.625
0.625
0.625
0.625
0.625
0.625
0.625
0.625
0.625
0.625
0.625
0.625
0.625
0.625
0.625
0.625
0.625
0.625
0.625
0.625
0.625
0.625
0.625
0.625
0.625
0.625
0.625
0.625
0.625
0.625
0.625
0.625
0.625
0.625
0.625
0.625
0.625
0.625
0.625
0.625
0.625
0.625
0.625
0.625
0.625
0.625
0.625
0.625
SCALARS volume double 1
LOOKUP_TABLE default
0.000631862
0.000614199
0.000634875
0.000619075
0.000648716
0.00064894
0.00063007
0.000621647
0.000610959
0.000608202
0.000633402
0.000614838
0.000624115
0.000625568
0.00061636
0.0006131
0.000613117
0.000614196
0.000649972
0.000636736
0.000616101
0.000611198
0.000603465
0.000633661
0.000640686
0.000637958
0.000649112
0.000592895
0.000630088
0.000644195
0.000610008
0.000621664
0.000619464
0.000646583
0.000625215
0.000633795
0.000624675
0.000668236
0.000628247
0.000586733
0.00064074
0.000582642
0.000600646
0.000601088
0.00064795
0.0006265
0.000686199
0.00063836
0.000625176
0.000612619
0.000630686
0.000616845
0.000645249
0.000619456
0.000625521
0.000646835
0.000636076
0.000637681
0.000635266
0.000597305
0.000592723
0.000633018
0.00062912
0.000634579
VECTORS momentum double
-0.822776 -0.3378 0 
-0.54934 -0.345603 0 
-0.820973 -0.364276 0 
-0.593062 -0.122757 0 
-0.849585 -0.278372 0 
-0.696799 -0.409287 0 
-1.02261 -0.0674134 0 
-0.807061 -0.23982 0 
-0.343798 0.0499536 0 
-0.774036 -0.0433276 0 
-0.70853 0.0619369 0 
-0.974796 -0.0381821 0 
-0.789201 0.106493 0 
-0.630047 0.118824 0 
-0.440337 0.0724195 0 
-0.677513 0.348037 0 
-0.818427 -0.426693 0 
-0.842664 -0.625133 0 
-1.05979 -0.346339 0 
-1.01575 -0.119841 0 
-0.869331 -0.304785 0 
-0.735837 -0.416427 0 
-1.25466 0.117484 0 
-1.21512 0.0324102 0 
-0.802853 -0.114805 0 
-0.976351 -0.0658572 0 
-0.817913 -0.10323 0 
-0.868278 0.0390639 0 
-0.778897 -0.091641 0 
-0.168633 -0.167756 0 
-0.880786 0.0839146 0 
-0.80213 0.326796 0 
-0.95723 -0.701632 0 
-0.660345 -0.370701 0 
-1.25846 -0.866305 0 
-0.893881 -0.561471 0 
-0.859534 -0.300102 0 
-0.927085 -0.343297 0 
-1.0048 -0.721703 0 
-0.990842 -0.578514 0 
-0.259077 -0.216545 0 
-0.716254 -0.0898905 0 
-0.678251 -0.711785 0 
-1.04307 -0.291908 0 
-0.741077 -0.296859 0 
-0.509982 -0.143392 0 
-0.555498 -0.440687 0 
-0.49052 -0.20553 0 
-1.11943 -0.71204 0 
-0.950139 -0.686594 0 
-1.15217 -0.919781 0 
-0.865856 -0.873012 0 
-0.879234 -0.401741 0 
-0.689479 -0.0554362 0 
-0.929214 -0.847821 0 
-0.97363 -0.798221 0 
-0.667912 -0.140948 0 
-0.939075 -0.144956 0 
-0.81669 -0.613937 0 
-0.724298 -0.51862 0 
-0.284887 -0.141853 0 
-0.610536 -0.0812243 0 
-0.615582 -0.24287 0 
-0.696487 -0.357006 0 
VECTORS body_force double
0 -9.81 0 
0 -9.81 0 
0 -9.81 0 
0 -9.81 0 
0 -9.81 0 
0 -9.81 0 
0 -9.81 0 
0 -9.81 0 
0 -9.81 0 
0 -9.81 0 
0 -9.81 0 
0 -9.81 0 
0 -9.81 0 
0 -9.81 0 
0 -9.81 0 
0 -9.81 0 
0 -9.81 0 
0 -9.81 0 
0 -9.81 0 
0 -9.81 0 
0 -9.81 0 
0 -9.81 0 
0 -9.81 0 
0 -9.81 0 
0 -9.81 0 
0 -9.81 0 
0 -9.81 0 
0 -9.81 0 
0 -9.81 0 
0 -9.81 0 
0 -9.81 0 
0 -9.81 0 
0 -9.81 0 
0 -9.81 0 
0 -9.81 0 
0 -9.81 0 
0 -9.81 0 
0 -9.81 0 
0 -9.81 0 
0 -9.81 0 
0 -9.81 0 
0 -9.81 0 
0 -9.81 0 
0 -9.81 0 
0 -9.81 0 
0 -9.81 0 
0 -9.81 0 
0 -9.81 0 
0 -9.81 0 
0 -9.81 0 
0 -9.81 0 
0 -9.81 0 
0 -9.81 0 
0 -9.81 0 
0 -9.81 0 
0 -9.81 0 
0 -9.81 0 
0 -9.81 0 
0 -9.81 0 
0 -9.81 0 
0 -9.81 0 
0 -9.81 0 
0 -9.81 0 
0 -9.81 0 
TENSORS cauchy_stress double
1971.22 -818.578 0
-818.578 128.751 0
0 0 629.99

1082.34 81.293 0
81.293 -4434.92 0
0 0 -1005.77

949.784 1723.38 0
1723.38 2064.83 0
0 0 904.384

-2503.73 2779.95 0
2779.95 671.953 0
0 0 -549.533

1694.9 -843.505 0
-843.505 5467.22 0
0 0 2148.64

2913.15 78.1045 0
78.1045 4315.38 0
0 0 2168.56

-1254.66 -2553.14 0
-2553.14 2808.4 0
0 0 466.124

-3850.06 652.752 0
652.752 2815.52 0
0 0 -310.36

-628.915 -1651.66 0
-1651.66 -3740.69 0
0 0 -1310.88

-3165.29 -560.77 0
-560.77 -2073.93 0
0 0 -1571.77

2955.66 2465.17 0
2465.17 -387.662 0
0 0 770.398

-3142.26 1642.14 0
1642.14 -10.2999 0
0 0 -945.767

499.138 -594.013 0
-594.013 -771.653 0
0 0 -81.7546

-41.4515 -682.39 0
-682.39 216.232 0
0 0 52.4342

-1821.5 2134.83 0
2134.83 -855.361 0
0 0 -803.058

688.732 681.821 0
681.821 -4385.67 0
0 0 -1109.08

-699.065 407.312 0
407.312 -2992.56 0
0 0 -1107.49

-560.114 -980.945 0
-980.945 -2793.3 0
0 0 -1006.02

383.905 -1756.71 0
-1756.71 7150.14 0
0 0 2260.21

3307.19 -2631.32 0
-2631.32 270.477 0
0 0 1073.3

-2734.31 1188.71 0
1188.71 -23.6315 0
0 0 -827.383

-4192.4 122.118 0
122.118 -101.812 0
0 0 -1288.26

-5235.96 235.574 0
235.574 -1507.08 0
0 0 -2022.91

3524.38 630.169 0
630.169 -877.839 0
0 0 793.963

-2213.75 1859.07 0
1859.07 6980.67 0
0 0 1430.08

1593.36 -637.126 0
-637.126 2352.98 0
0 0 1183.9

2863.9 -3225.35 0
-3225.35 4415.6 0
0 0 2183.85

-4350.8 -3196.57 0
-3196.57 -5790.31 0
0 0 -3042.33

197.661 -432.363 0
-432.363 1361.59 0
0 0 467.775

-1583.14 -439.897 0
-439.897 7400.35 0
0 0 1745.16

-578.014 -2994.99 0
-2994.99 -4091.24 0
0 0 -1400.78

2041.31 -296.066 0
-296.066 -3070.65 0
0 0 -308.802

-1537.18 59.5998 0
59.5998 -173.945 0
0 0 -513.338

3237.27 -189.772 0
-189.772 3291.45 0
0 0 1958.61

219.439 506.225 0
506.225 -153.278 0
0 0 19.8485

1123.18 -2103.97 0
-2103.97 1564.16 0
0 0 806.202

-3147.85 -4081.03 0
-4081.03 3047.89 0
0 0 -29.9886

2187.27 3206.84 0
3206.84 10676.1 0
0 0 3859.01

-1817.12 2921.44 0
2921.44 2813.67 0
0 0 298.965

-4425.01 3312.23 0
3312.23 -7725.33 0
0 0 -3645.1

6065.03 -2134.37 0
-2134.37 -1281.85 0
0 0 1434.95

-10430.3 1544.98 0
1544.98 -3065.5 0
0 0 -4048.74

-5554.12 -5528.27 0
-5528.27 -2089.18 0
0 0 -2292.99

-6726.17 3084.83 0
3084.83 -775.708 0
0 0 -2250.56

-681.082 603.47 0
603.47 7616.09 0
0 0 2080.5

-2480.47 1188.65 0
1188.65 2941.58 0
0 0 138.334

10242.1 -2845.1 0
-2845.1 7722.55 0
0 0 5389.38

3224.68 -1892.75 0
-1892.75 842.715 0
0 0 1220.22

1257.72 -1002.84 0
-1002.84 -1203.69 0
0 0 16.2097

1540.49 636.732 0
636.732 -5388.19 0
0 0 -1154.31

-1172.58 1495.26 0
1495.26 2914.24 0
0 0 522.498

-1859.2 1271.7 0
1271.7 -666.64 0
0 0 -757.751

2698.28 2038.98 0
2038.98 3433.4 0
0 0 1839.5

-456.866 -2397.46 0
-2397.46 -1256.6 0
0 0 -514.039

968.406 1516.85 0
1516.85 -808.191 0
0 0 48.0645

1325.89 1402.19 0
1402.19 5278.02 0
0 0 1981.17

6418.22 -5264.05 0
-5264.05 -3040.08 0
0 0 1013.44

-2540.53 352.816 0
352.816 6403.4 0
0 0 1158.86

1206.87 -682.365 0
-682.365 1926.1 0
0 0 939.892

-5484.92 1883.09 0
1883.09 -3231.3 0
0 0 -2614.87

-4939.23 -2500.72 0
-2500.72 -5257.62 0
0 0 -3059.06

-1990.86 3583.71 0
3583.71 4442.24 0
0 0 735.415

625.661 742.339 0
742.339 637.78 0
0 0 379.032

3012.59 525.647 0
525.647 -87.6795 0
0 0 877.474

TENSORS velocity_gradient double
1.1842 0.518349 0
-0.181533 -0.186446 0
0 0 0

2.47777 1.27812 0
-0.280942 -2.51723 0
0 0 0

3.79248 2.424 0
3.37287 -2.38282 0
0 0 0

3.02211 2.35349 0
-0.160571 -2.37003 0
0 0 0

3.49216 0.880326 0
-0.1418 -2.57179 0
0 0 0

4.36955 0.0916523 0
3.64958 -5.59609 0
0 0 0

3.95287 1.17538 0
0.128376 -3.81106 0
0 0 0

4.75272 0.546053 0
1.23123 -4.85328 0
0 0 0

3.42364 0.430618 0
4.1374 -5.24426 0
0 0 0

2.48375 -0.33858 0
3.46052 -2.96594 0
0 0 0

5.23166 -0.806783 0
2.29204 -4.18372 0
0 0 0

3.18249 -1.3011 0
3.19279 -3.14541 0
0 0 0

1.62131 0.187495 0
3.16066 -2.78303 0
0 0 0

0.586485 -2.26868 0
2.60949 -0.992898 0
0 0 0

1.21669 -0.954004 0
3.01234 -2.97607 0
0 0 0

0.775606 -3.66971 0
2.58322 -1.04632 0
0 0 0

3.75573 1.80503 0
3.90718 -2.56116 0
0 0 0

3.04548 2.1157 0
3.70894 -2.47445 0
0 0 0

3.76724 1.14193 0
6.50394 -2.61658 0
0 0 0

2.59121 0.0177422 0
3.92016 -1.63682 0
0 0 0

2.35968 1.18733 0
3.96452 -3.18839 0
0 0 0

5.07103 1.25759 0
1.70686 -3.79007 0
0 0 0

1.47079 0.170779 0
5.12037 -1.98269 0
0 0 0

0.465175 -1.22188 0
6.27169 -2.0398 0
0 0 0

4.90197 -2.97944 0
2.70615 -2.24107 0
0 0 0

3.66888 -2.44347 0
3.45798 -2.56787 0
0 0 0

0.357024 -3.95306 0
6.68599 -1.5369 0
0 0 0

3.10532 -3.61643 0
3.9191 -1.13667 0
0 0 0

2.91666 -3.97203 0
4.45909 -0.955115 0
0 0 0

0.942838 -3.93718 0
2.82407 -1.43127 0
0 0 0

2.96393 -3.8786 0
5.24278 0.593839 0
0 0 0

3.06203 -3.93193 0
6.86904 -0.290357 0
0 0 0

3.81475 0.428183 0
10.3803 -1.90335 0
0 0 0

2.75235 -1.60595 0
10.371 -1.08774 0
0 0 0

3.30615 -2.19726 0
10.5187 -1.74357 0
0 0 0

2.11533 -2.75102 0
9.96798 -1.81214 0
0 0 0

1.22741 -0.934149 0
7.31319 -0.977935 0
0 0 0

0.0906437 -4.69435 0
6.77728 -0.404109 0
0 0 0

1.13759 -2.98264 0
9.13276 -1.44297 0
0 0 0

1.41205 -4.60354 0
7.58374 -0.991326 0
0 0 0

-0.394755 -4.45714 0
7.54215 -0.777893 0
0 0 0

-0.917891 -4.27327 0
7.30051 0.276603 0
0 0 0

0.900509 -4.79396 0
6.71636 -0.801726 0
0 0 0

-1.23165 -4.95894 0
6.2511 -2.0167 0
0 0 0

-1.04411 -3.97105 0
5.06528 1.2439 0
0 0 0

4.07339 -6.03315 0
6.99161 -0.687522 0
0 0 0

-1.98083 -4.66683 0
3.74538 -1.0397 0
0 0 0

-0.171377 -3.02911 0
3.38518 -1.06923 0
0 0 0

2.04718 -3.92166 0
5.24354 -1.90793 0
0 0 0

1.47725 -3.69437 0
5.95209 -2.15031 0
0 0 0

1.79129 -4.52767 0
5.5287 -1.23259 0
0 0 0

1.2558 -4.16893 0
6.15294 -2.04795 0
0 0 0

1.10779 -3.8641 0
8.48243 -3.24212 0
0 0 0

1.70197 -4.08921 0
6.70128 -2.55688 0
0 0 0

1.03646 -3.84122 0
6.62766 -3.31708 0
0 0 0

0.826668 -3.43109 0
6.98216 -3.66463 0
0 0 0

2.63313 -3.56266 0
5.53831 -3.29761 0
0 0 0

4.44742 -4.5095 0
5.43678 -3.24462 0
0 0 0

2.68807 -1.8486 0
5.45078 -3.54603 0
0 0 0

5.28461 -2.69532 0
5.38993 -3.34615 0
0 0 0

1.86027 0.0562657 0
4.08595 -0.665452 0
0 0 0

1.32359 -0.166138 0
3.68556 -0.493984 0
0 0 0

3.38754 -2.60025 0
4.27411 -1.83456 0
0 0 0

-0.579124 -0.467723 0
2.63008 -0.950707 0
0 0 0

SCALARS active double 1
LOOKUP_TABLE default
1
1
1
1
1
1
1
1
1
1
1
1
1
1
1
1
1
1
1
1
1
1
1
1
1
1
1
1
1
1
1
1
1
1
1
1
1
1
1
1
1
1
1
1
1
1
1
1
1
1
1
1
1
1
1
1
1
1
1
1
1
1
1
1
SCALARS extent double 1
LOOKUP_TABLE default
0.0125
0.0125
0.0125
0.0125
0.0125
0.0125
0.0125
0.0125
0.0125
0.0125
0.0125
0.0125
0.0125
0.0125
0.0125
0.0125
0.0125
0.0125
0.0125
0.0125
0.0125
0.0125
0.0125
0.0125
0.0125
0.0125
0.0125
0.0125
0.0125
0.0125
0.0125
0.0125
0.0125
0.0125
0.0125
0.0125
0.0125
0.0125
0.0125
0.0125
0.0125
0.0125
0.0125
0.0125
0.0125
0.0125
0.0125
0.0125
0.0125
0.0125
0.0125
0.0125
0.0125
0.0125
0.0125
0.0125
0.0125
0.0125
0.0125
0.0125
0.0125
0.0125
0.0125
0.0125
SCALARS pressure double 1
LOOKUP_TABLE default
-909.985
1452.78
-1306.33
793.77
-3103.59
-3132.36
-673.291
448.298
1893.49
2270.33
-1112.8
1366.11
118.09
-75.7383
1159.97
1602.01
1599.7
1453.14
-3264.75
-1550.32
1195.11
1860.82
2921.98
-1146.84
-2065.67
-1710.08
-3154.45
4394.48
-675.675
-2520.79
2023.34
446.048
741.488
-2829.11
-28.6701
-1164.51
43.3169
-5574.12
-431.838
5265.15
-2072.71
5848.18
3312.09
3250.81
-3005.17
-199.816
-7784.66
-1762.54
-23.4141
1667.34
-754.719
1094.53
-2657.06
742.5
-69.4266
-2861.69
-1463.86
-1673.91
-1357.62
3777.03
4418.64
-1062.27
-547.491
-1267.46
SCALARS density double 1
LOOKUP_TABLE default
989.14
1017.59
984.446
1009.57
963.442
963.109
991.953
1005.39
1022.98
1027.62
986.735
1016.53
1001.42
999.092
1014.02
1019.41
1019.38
1017.59
961.58
981.568
1014.44
1022.58
1035.69
986.332
975.517
979.688
962.854
1054.15
991.925
970.203
1024.58
1005.37
1008.94
966.62
999.656
986.123
1000.52
935.299
994.831
1065.22
975.434
1072.7
1040.55
1039.78
964.58
997.605
910.815
979.072
999.719
1020.21
990.984
1013.22
968.618
1008.95
999.167
966.243
982.587
980.114
983.841
1046.37
1054.45
987.334
993.452
984.906
