# vtk DataFile Version 3.0
Frame: 51, Time: 0.85
ASCII
DATASET UNSTRUCTURED_GRID
POINTS 64 double
0.328449 0.100521 0 
0.304166 0.0935302 0 
0.318731 0.124674 0 
0.29432 0.116223 0 
0.279604 0.0853291 0 
0.254877 0.0795196 0 
0.272433 0.108927 0 
0.248467 0.103737 0 
0.233606 0.0719703 0 
0.210347 0.0614862 0 
0.226067 0.0964858 0 
0.203679 0.0864198 0 
0.184191 0.0579878 0 
0.162994 0.0496995 0 
0.177118 0.0813623 0 
0.155918 0.0728051 0 
0.307373 0.14726 0 
0.284926 0.139013 0 
0.301942 0.17102 0 
0.279508 0.164022 0 
0.264444 0.133342 0 
0.241608 0.128587 0 
0.258136 0.159123 0 
0.235373 0.152847 0 
0.218788 0.119054 0 
0.197276 0.109058 0 
0.212306 0.143289 0 
0.189493 0.13535 0 
0.172074 0.105189 0 
0.147462 0.0993375 0 
0.165539 0.129621 0 
0.142223 0.123112 0 
0.298047 0.196929 0 
0.274813 0.188741 0 
0.294709 0.222183 0 
0.270037 0.213755 0 
0.25216 0.183171 0 
0.228397 0.176848 0 
0.247503 0.208244 0 
0.222792 0.202676 0 
0.205678 0.168123 0 
0.183962 0.161181 0 
0.19883 0.192671 0 
0.176721 0.187101 0 
0.160268 0.153047 0 
0.1365 0.145811 0 
0.151728 0.178438 0 
0.126569 0.169519 0 
0.290146 0.246106 0 
0.264801 0.237292 0 
0.279968 0.268839 0 
0.256591 0.261834 0 
0.241076 0.233921 0 
0.216548 0.226483 0 
0.232528 0.259096 0 
0.20837 0.250395 0 
0.192172 0.216751 0 
0.168596 0.211518 0 
0.184444 0.242166 0 
0.160394 0.235375 0 
0.144811 0.201894 0 
0.120132 0.192666 0 
0.137735 0.224683 0 
0.114101 0.217342 0 
CELLS 64 128
1 0
1 1
1 2
1 3
1 4
1 5
1 6
1 7
1 8
1 9
1 10
1 11
1 12
1 13
1 14
1 15
1 16
1 17
1 18
1 19
1 20
1 21
1 22
1 23
1 24
1 25
1 26
1 27
1 28
1 29
1 30
1 31
1 32
1 33
1 34
1 35
1 36
1 37
1 38
1 39
1 40
1 41
1 42
1 43
1 44
1 45
1 46
1 47
1 48
1 49
1 50
1 51
1 52
1 53
1 54
1 55
1 56
1 57
1 58
1 59
1 60
1 61
1 62
1 63
CELL_TYPES 64
1
1
1
1
1
1
1
1
1
1
1
1
1
1
1
1
1
1
1
1
1
1
1
1
1
1
1
1
1
1
1
1
1
1
1
1
1
1
1
1
1
1
1
1
1
1
1
1
1
1
1
1
1
1
1
1
1
1
1
1
1
1
1
1
POINT_DATA 64
VECTORS displacement double
-0.0840506 -0.311979 0 
-0.108334 -0.34397 0 
-0.118769 -0.287826 0 
-0.14318 -0.321277 0 
-0.132896 -0.377171 0 
-0.157623 -0.40798 0 
-0.165067 -0.353573 0 
-0.189033 -0.383763 0 
-0.178894 -0.44053 0 
-0.202153 -0.476014 0 
-0.211433 -0.416014 0 
-0.233821 -0.45108 0 
-0.228309 -0.504512 0 
-0.249506 -0.5378 0 
-0.260382 -0.481138 0 
-0.281582 -0.514695 0 
-0.155127 -0.26524 0 
-0.177574 -0.298487 0 
-0.185558 -0.24148 0 
-0.207992 -0.273478 0 
-0.198056 -0.329158 0 
-0.220892 -0.358913 0 
-0.229364 -0.303377 0 
-0.252127 -0.334653 0 
-0.243712 -0.393446 0 
-0.265224 -0.428442 0 
-0.275194 -0.369211 0 
-0.298007 -0.40215 0 
-0.290426 -0.457311 0 
-0.315038 -0.488162 0 
-0.321961 -0.432879 0 
-0.345277 -0.464388 0 
-0.214453 -0.215571 0 
-0.237687 -0.248759 0 
-0.242791 -0.190317 0 
-0.267463 -0.223745 0 
-0.26034 -0.279329 0 
-0.284103 -0.310652 0 
-0.289997 -0.254256 0 
-0.314708 -0.284824 0 
-0.306822 -0.344377 0 
-0.328538 -0.376319 0 
-0.33867 -0.319829 0 
-0.360779 -0.350399 0 
-0.352232 -0.409453 0 
-0.376 -0.441689 0 
-0.385772 -0.384062 0 
-0.410931 -0.417981 0 
-0.272354 -0.166394 0 
-0.297699 -0.200208 0 
-0.307532 -0.143661 0 
-0.330909 -0.175666 0 
-0.321424 -0.228579 0 
-0.345952 -0.261017 0 
-0.354972 -0.203404 0 
-0.37913 -0.237105 0 
-0.370328 -0.295749 0 
-0.393904 -0.325982 0 
-0.403056 -0.270334 0 
-0.427106 -0.302125 0 
-0.417689 -0.360606 0 
-0.442368 -0.394834 0 
-0.449765 -0.337817 0 
-0.473399 -0.370158 0 
VECTORS velocity double
-1.2679 -1.48407 0 
-1.55916 -1.2765 0 
-1.36486 -1.28235 0 
-1.32467 -1.0829 0 
-1.39024 -1.55736 0 
-1.94501 -1.1146 0 
-1.50726 -1.55965 0 
-1.91531 -0.927679 0 
-0.776311 -1.42404 0 
-1.343 -1.33311 0 
-0.731647 -1.09401 0 
-1.47974 -0.890587 0 
-0.91323 -1.03929 0 
-0.970859 -1.24216 0 
-1.25781 -0.55209 0 
-1.22842 -1.29274 0 
-1.24396 -1.70161 0 
-1.36337 -1.11885 0 
-1.17303 -1.52706 0 
-1.06117 -0.87391 0 
-1.15996 -1.05333 0 
-1.11674 -0.869677 0 
-0.926078 -0.779818 0 
-1.32629 -0.883721 0 
-0.724406 -1.36555 0 
-1.02781 -1.39929 0 
-1.23063 -0.985011 0 
-1.35113 -0.705807 0 
-0.955062 -0.962126 0 
-0.936194 -1.45484 0 
-0.837094 -0.294117 0 
-0.858333 -1.02246 0 
-0.520232 -1.19238 0 
-0.561047 -0.75333 0 
-0.531912 -1.34993 0 
-0.665807 -0.96026 0 
-0.694026 -0.98034 0 
-0.924056 -1.25123 0 
-1.20325 -1.17065 0 
-1.35092 -1.1688 0 
-0.723099 -1.11151 0 
-0.801903 -0.795147 0 
-1.11647 -0.970063 0 
-1.34502 -0.866633 0 
-0.938493 -1.20837 0 
-0.875802 -1.54165 0 
-1.26283 -0.724422 0 
-0.760022 -0.984667 0 
-0.902684 -1.13655 0 
-0.793503 -1.22606 0 
-0.851897 -1.05398 0 
-0.663114 -1.06796 0 
-0.806775 -1.20678 0 
-0.566375 -0.608199 0 
-0.77372 -0.861947 0 
-0.692063 -0.815538 0 
-0.548274 -0.758924 0 
-0.987624 -1.08863 0 
-0.857377 -1.25476 0 
-0.67509 -0.761138 0 
-0.629171 -0.857174 0 
-0.870959 -1.00462 0 
-0.902242 -0.766174 0 
-0.674281 -0.827021 0 
SCALARS mass double 1
LOOKUP_TABLE default
0.625
0.625
0.625
0.625
0.625
0.625
0.625
0.625
0.625
0.625
0.625
0.625
0.625
0.625
0.625
0.625
0.625
0.625
0.625
0.625
0.625
0.625
0.625
0.625
0.625
0.625
0.625
0.625
0.625
0.625
0.625
0.625
0.625
0.625
0.625
0.625
0.625
0.625
0.625
0.625
0.625
0.625
0.625
0.625
0.625
0.625
0.625
0.625
0.625
0.625
0.625
0.625
0.625
0.625
0.625
0.625
0.625
0.625
0.625
0.625
0.625
0.625
0.625
0.625
SCALARS volume double 1
LOOKUP_TABLE default
0.000600623
0.000628683
0.000594403
0.00063367
0.000615799
0.000628383
0.000585831
0.000613524
0.000599829
0.000627396
0.000585996
0.000614182
0.000625086
0.000605141
0.00060281
0.000619756
0.000579018
0.00060828
0.000566004
0.000644727
0.000593749
0.000628032
0.000589603
0.000598544
0.000627791
0.000621214
0.000600189
0.00063015
0.000629742
0.000606044
0.000581823
0.000621996
0.000583073
0.000614679
0.000632875
0.000613442
0.000645293
0.000642518
0.000614283
0.000611112
0.000619987
0.000630511
0.000618661
0.000619826
0.000608571
0.000620429
0.000661807
0.000613335
0.000635119
0.000657684
0.000632615
0.000611142
0.000629062
0.000631444
0.000629715
0.000638299
0.000631692
0.000625589
0.000623483
0.000642541
0.000614888
0.000621483
0.000625963
0.000626496
VECTORS momentum double
-0.792438 -0.927543 0 
-0.974474 -0.797813 0 
-0.853036 -0.801467 0 
-0.827921 -0.676812 0 
-0.868902 -0.973351 0 
-1.21563 -0.696624 0 
-0.942035 -0.974781 0 
-1.19707 -0.5798 0 
-0.485194 -0.890028 0 
-0.839374 -0.833192 0 
-0.45728 -0.683754 0 
-0.924836 -0.556617 0 
-0.570769 -0.649555 0 
-0.606787 -0.776352 0 
-0.786131 -0.345056 0 
-0.767764 -0.807965 0 
-0.777473 -1.06351 0 
-0.852108 -0.699279 0 
-0.733144 -0.954414 0 
-0.663231 -0.546194 0 
-0.724973 -0.658329 0 
-0.697963 -0.543548 0 
-0.578799 -0.487386 0 
-0.828932 -0.552325 0 
-0.452754 -0.853467 0 
-0.64238 -0.874557 0 
-0.769146 -0.615632 0 
-0.844455 -0.441129 0 
-0.596914 -0.601329 0 
-0.585121 -0.909276 0 
-0.523184 -0.183823 0 
-0.536458 -0.639038 0 
-0.325145 -0.745239 0 
-0.350654 -0.470831 0 
-0.332445 -0.843705 0 
-0.416129 -0.600162 0 
-0.433766 -0.612713 0 
-0.577535 -0.782018 0 
-0.752029 -0.731657 0 
-0.844326 -0.730498 0 
-0.451937 -0.694691 0 
-0.50119 -0.496967 0 
-0.697794 -0.606289 0 
-0.84064 -0.541645 0 
-0.586558 -0.755231 0 
-0.547376 -0.963534 0 
-0.789266 -0.452764 0 
-0.475014 -0.615417 0 
-0.564177 -0.710341 0 
-0.49594 -0.766288 0 
-0.532435 -0.65874 0 
-0.414446 -0.667477 0 
-0.504235 -0.754239 0 
-0.353984 -0.380124 0 
-0.483575 -0.538717 0 
-0.43254 -0.509711 0 
-0.342671 -0.474327 0 
-0.617265 -0.680391 0 
-0.535861 -0.784223 0 
-0.421931 -0.475711 0 
-0.393232 -0.535734 0 
-0.544349 -0.627887 0 
-0.563901 -0.478859 0 
-0.421426 -0.516888 0 
VECTORS body_force double
0 -9.81 0 
0 -9.81 0 
0 -9.81 0 
0 -9.81 0 
0 -9.81 0 
0 -9.81 0 
0 -9.81 0 
0 -9.81 0 
0 -9.81 0 
0 -9.81 0 
0 -9.81 0 
0 -9.81 0 
0 -9.81 0 
0 -9.81 0 
0 -9.81 0 
0 -9.81 0 
0 -9.81 0 
0 -9.81 0 
0 -9.81 0 
0 -9.81 0 
0 -9.81 0 
0 -9.81 0 
0 -9.81 0 
0 -9.81 0 
0 -9.81 0 
0 -9.81 0 
0 -9.81 0 
0 -9.81 0 
0 -9.81 0 
0 -9.81 0 
0 -9.81 0 
0 -9.81 0 
0 -9.81 0 
0 -9.81 0 
0 -9.81 0 
0 -9.81 0 
0 -9.81 0 
0 -9.81 0 
0 -9.81 0 
0 -9.81 0 
0 -9.81 0 
0 -9.81 0 
0 -9.81 0 
0 -9.81 0 
0 -9.81 0 
0 -9.81 0 
0 -9.81 0 
0 -9.81 0 
0 -9.81 0 
0 -9.81 0 
0 -9.81 0 
0 -9.81 0 
0 -9.81 0 
0 -9.81 0 
0 -9.81 0 
0 -9.81 0 
0 -9.81 0 
0 -9.81 0 
0 -9.81 0 
0 -9.81 0 
0 -9.81 0 
0 -9.81 0 
0 -9.81 0 
0 -9.81 0 
TENSORS cauchy_stress double
-5844.23 -4837.82 0
-4837.82 -1806.57 0
0 0 -2295.24

1891.33 -833.051 0
-833.051 -761.31 0
0 0 339.006

-4975.95 -4919.81 0
-4919.81 -4676.74 0
0 0 -2895.81

666.855 1106.39 0
1106.39 1982.64 0
0 0 794.847

-2006.63 -1286.9 0
-1286.9 -845.392 0
0 0 -855.607

1595.05 -1106.02 0
-1106.02 -556.915 0
0 0 311.441

-11223.4 1446.93 0
1446.93 -1222.74 0
0 0 -3733.84

-2458.84 -5945.86 0
-5945.86 -1105.12 0
0 0 -1069.19

-7531.82 -897.482 0
-897.482 -373.467 0
0 0 -2371.59

538.11 -2104.06 0
-2104.06 197.636 0
0 0 220.724

-10555.3 3052.71 0
3052.71 -1836.67 0
0 0 -3717.59

-1002.56 -1905.22 0
-1905.22 -2355.06 0
0 0 -1007.28

1438.3 -2243.05 0
-2243.05 -1411.78 0
0 0 7.95797

-2472.3 -1746.61 0
-1746.61 -3737.39 0
0 0 -1862.91

-3925 1248.28 0
1248.28 -3026.82 0
0 0 -2085.55

-5418.89 1473.94 0
1473.94 3798.67 0
0 0 -486.064

-12421.1 -6020.87 0
-6020.87 -2274.61 0
0 0 -4408.72

-2329.54 -4667.73 0
-4667.73 -2885.24 0
0 0 -1564.43

-13899.1 -8251.58 0
-8251.58 -5168.38 0
0 0 -5720.23

1437.63 -2832.57 0
-2832.57 4538.38 0
0 0 1792.8

-11202.2 -2974.19 0
-2974.19 1337.66 0
0 0 -2959.37

-2280.76 -4401.94 0
-4401.94 3211.37 0
0 0 279.184

-10581.6 -1617.76 0
-1617.76 -630.286 0
0 0 -3363.57

-4188.44 1070.53 0
1070.53 -4129.19 0
0 0 -2495.29

894.417 -3869.57 0
-3869.57 -37.4668 0
0 0 257.085

-4285.48 -6024.76 0
-6024.76 3117.14 0
0 0 -350.502

-8838 2279.95 0
2279.95 1048.3 0
0 0 -2336.91

-545.913 -1411.9 0
-1411.9 2124.05 0
0 0 473.442

413.468 1403.14 0
1403.14 1040.14 0
0 0 436.081

-4133.11 686.144 0
686.144 -1789.84 0
0 0 -1776.88

-7906.57 2850.84 0
2850.84 -5859.98 0
0 0 -4129.97

-533.219 1888.44 0
1888.44 -393.238 0
0 0 -277.937

-14518.9 -1487.26 0
-1487.26 1165.21 0
0 0 -4006.1

-4442.06 2615.13 0
2615.13 1239.97 0
0 0 -960.627

835.519 -1615.7 0
-1615.7 1572.31 0
0 0 722.349

-2567.95 510.452 0
510.452 -1021.8 0
0 0 -1076.92

1504.55 -1941.95 0
-1941.95 4640.09 0
0 0 1843.39

2309.3 -6081.03 0
-6081.03 3006.62 0
0 0 1594.78

-2719.93 -74.6389 0
-74.6389 -606.07 0
0 0 -997.801

-3437.98 5841.46 0
5841.46 -883.373 0
0 0 -1296.41

1214.52 -3842.81 0
-3842.81 -2763.28 0
0 0 -464.629

473.355 -7752.22 0
-7752.22 1214.77 0
0 0 506.439

-3754.14 5023.12 0
5023.12 1793.82 0
0 0 -588.095

-4540.61 1197.67 0
1197.67 2942.07 0
0 0 -479.564

-1421.29 -689.725 0
-689.725 -3701.29 0
0 0 -1536.78

-179.43 2090.11 0
2090.11 -1232.31 0
0 0 -423.522

7129.39 6219.91 0
6219.91 3874.83 0
0 0 3301.27

-687.462 158.497 0
158.497 -2935.82 0
0 0 -1086.98

1582.54 -1464.02 0
-1464.02 1506.08 0
0 0 926.585

6531.93 1566.47 0
1566.47 3270.64 0
0 0 2940.77

491.767 -643.429 0
-643.429 1837.25 0
0 0 698.706

-1569.4 -1504.78 0
-1504.78 -2742.69 0
0 0 -1293.63

622.321 -395.226 0
-395.226 623.631 0
0 0 373.786

262.843 -2369.01 0
-2369.01 1709.92 0
0 0 591.828

9.78453 -929.102 0
-929.102 1435.43 0
0 0 433.565

3311.41 1181.56 0
1181.56 737.708 0
0 0 1214.74

1708.67 -831.783 0
-831.783 339.467 0
0 0 614.441

921.003 -475.262 0
-475.262 -739.891 0
0 0 54.3336

-217.161 -195.999 0
-195.999 -250.135 0
0 0 -140.189

3895.9 1871.83 0
1871.83 1427.08 0
0 0 1596.9

2095.17 58.1238 0
58.1238 -5232 0
0 0 -941.048

-768.965 500.744 0
500.744 -316.188 0
0 0 -325.546

-380.082 -596.664 0
-596.664 676.18 0
0 0 88.8292

-1165.41 1794.56 0
1794.56 1625.25 0
0 0 137.953

TENSORS velocity_gradient double
2.38082 4.36109 0
0.361146 -0.483236 0
0 0 0

1.95349 5.30459 0
0.548666 2.57309 0
0 0 0

0.763388 2.62399 0
-3.27313 -1.07111 0
0 0 0

-0.862345 4.44703 0
-4.25525 2.27777 0
0 0 0

-2.7397 1.93326 0
-4.08703 2.75795 0
0 0 0

-3.56231 -1.52318 0
-3.99022 3.15737 0
0 0 0

-1.11766 5.02773 0
-4.52837 2.9059 0
0 0 0

-3.17307 4.46896 0
-3.13105 3.23254 0
0 0 0

-4.04528 -1.50089 0
-2.67232 2.95062 0
0 0 0

-3.4247 -0.123271 0
-2.88603 2.47621 0
0 0 0

-5.20971 0.391664 0
-2.14068 2.7231 0
0 0 0

-4.54665 0.244838 0
-2.00045 2.3398 0
0 0 0

-1.28257 0.874383 0
0.334536 1.93541 0
0 0 0

-1.10178 -8.77068 0
0.20967 -9.24137 0
0 0 0

-1.7886 1.02848 0
0.821792 1.78703 0
0 0 0

-1.60367 1.48876 0
0.643715 1.34383 0
0 0 0

-1.09369 6.36288 0
-6.99989 0.957975 0
0 0 0

-1.82994 4.73478 0
-5.19848 2.6303 0
0 0 0

-1.17028 10.5812 0
-8.51118 1.49821 0
0 0 0

0.0600392 8.21548 0
-4.22723 0.707051 0
0 0 0

-1.69348 5.22023 0
-5.07009 3.087 0
0 0 0

-3.1068 4.97842 0
-0.97805 3.15682 0
0 0 0

-0.639684 5.22511 0
-4.61948 -0.96929 0
0 0 0

-1.24318 3.53042 0
-0.396763 -0.44695 0
0 0 0

-3.9185 3.032 0
-1.3479 2.26992 0
0 0 0

-3.08092 1.50088 0
0.109371 1.58543 0
0 0 0

-1.87006 2.46372 0
-0.428185 1.91123 0
0 0 0

-1.89301 1.2624 0
1.19248 1.49525 0
0 0 0

-2.12158 1.13009 0
1.18886 1.49322 0
0 0 0

0.498203 1.6646 0
1.27802 1.65106 0
0 0 0

-1.93625 1.08014 0
1.1918 1.49238 0
0 0 0

-0.225417 1.59123 0
1.44847 1.28857 0
0 0 0

1.45301 5.86774 0
-6.41093 0.93917 0
0 0 0

3.51902 7.53173 0
-2.28819 0.323756 0
0 0 0

1.85848 -2.43453 0
-3.10252 -0.443247 0
0 0 0

3.33982 0.0945939 0
-1.62633 -0.296837 0
0 0 0

2.09651 4.51956 0
-2.36888 -1.27388 0
0 0 0

-0.0906883 2.98732 0
-1.0845 -1.02799 0
0 0 0

1.81631 2.24765 0
-1.84775 -0.0380124 0
0 0 0

0.676692 3.23453 0
-1.86894 0.213279 0
0 0 0

-0.493343 1.94276 0
-0.802515 -0.296457 0
0 0 0

-1.52643 1.3098 0
0.566781 0.695755 0
0 0 0

-0.129902 1.70429 0
-1.31697 -0.0115725 0
0 0 0

-0.966273 1.15231 0
-0.770191 1.07167 0
0 0 0

-1.68628 0.839544 0
0.928212 1.84492 0
0 0 0

-2.21942 1.77673 0
1.9874 1.63693 0
0 0 0

-1.68393 0.671997 0
-0.0676136 2.37119 0
0 0 0

-2.88951 0.828799 0
1.06314 3.76601 0
0 0 0

-0.00977128 -1.21829 0
-1.89918 0.123357 0
0 0 0

0.798509 0.659816 0
-1.84246 -0.248768 0
0 0 0

-0.911706 1.22916 0
-1.85067 1.63396 0
0 0 0

-0.75088 1.76365 0
-1.88546 1.51834 0
0 0 0

-0.429468 2.65959 0
-2.58657 0.0772434 0
0 0 0

-0.138195 3.6119 0
-2.41754 0.62987 0
0 0 0

-0.614995 1.27185 0
-2.42232 0.649047 0
0 0 0

-0.768621 1.73796 0
-2.68123 -0.016384 0
0 0 0

-0.346707 4.14534 0
-1.23974 0.963802 0
0 0 0

-0.45403 3.66437 0
-1.28359 0.767287 0
0 0 0

0.171387 3.98548 0
-1.02806 0.898488 0
0 0 0

0.0323621 3.49518 0
-1.08486 0.698161 0
0 0 0

-2.4848 2.21229 0
-0.565848 1.15575 0
0 0 0

-3.17056 0.907731 0
-0.230372 4.12929 0
0 0 0

-0.961218 2.24249 0
-0.271798 0.461889 0
0 0 0

-1.61874 0.125112 0
-0.363558 0.166401 0
0 0 0

SCALARS active double 1
LOOKUP_TABLE default
1
1
1
1
1
1
1
1
1
1
1
1
1
1
1
1
1
1
1
1
1
1
1
1
1
1
1
1
1
1
1
1
1
1
1
1
1
1
1
1
1
1
1
1
1
1
1
1
1
1
1
1
1
1
1
1
1
1
1
1
1
1
1
1
SCALARS extent double 1
LOOKUP_TABLE default
0.0125
0.0125
0.0125
0.0125
0.0125
0.0125
0.0125
0.0125
0.0125
0.0125
0.0125
0.0125
0.0125
0.0125
0.0125
0.0125
0.0125
0.0125
0.0125
0.0125
0.0125
0.0125
0.0125
0.0125
0.0125
0.0125
0.0125
0.0125
0.0125
0.0125
0.0125
0.0125
0.0125
0.0125
0.0125
0.0125
0.0125
0.0125
0.0125
0.0125
0.0125
0.0125
0.0125
0.0125
0.0125
0.0125
0.0125
0.0125
0.0125
0.0125
0.0125
0.0125
0.0125
0.0125
0.0125
0.0125
0.0125
0.0125
0.0125
0.0125
0.0125
0.0125
0.0125
0.0125
SCALARS pressure double 1
LOOKUP_TABLE default
3315.35
-489.675
4182.83
-1148.11
1235.88
-449.859
5393.32
1544.38
3425.62
-318.823
5369.85
1454.97
-11.4948
2690.87
3012.45
702.092
6368.15
2259.74
8262.56
-2589.61
4274.64
-403.266
4858.49
3604.3
-371.345
506.281
3375.54
-683.861
-629.895
2566.61
5965.51
401.465
5786.59
1387.57
-1043.39
1555.56
-2662.68
-2303.56
1441.27
1872.59
671.13
-731.523
849.47
692.704
2219.79
611.754
-4768.5
1570.09
-1338.4
-4247.78
-1009.24
1868.57
-539.913
-854.862
-626.261
-1754.62
-887.526
-78.4819
202.495
-2306.63
1359.29
470.233
-128.309
-199.266
SCALARS density double 1
LOOKUP_TABLE default
1040.59
994.141
1051.48
986.317
1014.94
994.616
1066.86
1018.71
1041.96
996.181
1066.56
1017.61
999.862
1032.82
1036.81
1008.46
1079.41
1027.49
1104.23
969.403
1052.63
995.172
1060.03
1044.2
995.554
1006.09
1041.34
991.827
992.47
1031.28
1074.21
1004.83
1071.91
1016.79
987.557
1018.84
968.553
972.736
1017.45
1022.73
1008.09
991.26
1010.25
1008.35
1027
1007.37
944.384
1019.02
984.067
950.304
987.962
1022.68
993.542
989.794
992.513
979.165
989.406
999.059
1002.43
972.7
1016.45
1005.66
998.461
997.612
