# vtk DataFile Version 3.0
Frame: 27, Time: 0.45
ASCII
DATASET UNSTRUCTURED_GRID
POINTS 64 double
0.806361 0.443483 0 
0.823559 0.424929 0 
0.786417 0.425718 0 
0.804549 0.406393 0 
0.841273 0.407663 0 
0.860019 0.389375 0 
0.822871 0.389219 0 
0.840995 0.371035 0 
0.875888 0.370164 0 
0.892352 0.351454 0 
0.856585 0.351538 0 
0.873277 0.333608 0 
0.909913 0.333533 0 
0.927026 0.314923 0 
0.891198 0.316102 0 
0.908365 0.296946 0 
0.768877 0.406575 0 
0.78675 0.388872 0 
0.750722 0.388544 0 
0.768917 0.370283 0 
0.80474 0.371359 0 
0.822318 0.354007 0 
0.786233 0.352223 0 
0.803822 0.334547 0 
0.837192 0.333463 0 
0.853555 0.315497 0 
0.818946 0.31447 0 
0.834827 0.295652 0 
0.871864 0.298473 0 
0.888956 0.279916 0 
0.852942 0.279731 0 
0.871005 0.261523 0 
0.732929 0.371065 0 
0.749488 0.351982 0 
0.713804 0.354088 0 
0.731352 0.334514 0 
0.767756 0.334377 0 
0.785006 0.31552 0 
0.749208 0.316368 0 
0.764197 0.298575 0 
0.800593 0.296039 0 
0.817116 0.277656 0 
0.78113 0.27944 0 
0.798221 0.260158 0 
0.834142 0.260101 0 
0.852169 0.242138 0 
0.814858 0.241712 0 
0.833459 0.223433 0 
0.695627 0.336317 0 
0.713007 0.317907 0 
0.675809 0.318649 0 
0.692831 0.300368 0 
0.72949 0.299147 0 
0.745303 0.279872 0 
0.70938 0.282012 0 
0.725453 0.262595 0 
0.762508 0.261031 0 
0.779444 0.241798 0 
0.741875 0.24529 0 
0.759358 0.225591 0 
0.796467 0.222997 0 
0.815581 0.206062 0 
0.778086 0.206281 0 
0.796946 0.188416 0 
CELLS 64 128
1 0
1 1
1 2
1 3
1 4
1 5
1 6
1 7
1 8
1 9
1 10
1 11
1 12
1 13
1 14
1 15
1 16
1 17
1 18
1 19
1 20
1 21
1 22
1 23
1 24
1 25
1 26
1 27
1 28
1 29
1 30
1 31
1 32
1 33
1 34
1 35
1 36
1 37
1 38
1 39
1 40
1 41
1 42
1 43
1 44
1 45
1 46
1 47
1 48
1 49
1 50
1 51
1 52
1 53
1 54
1 55
1 56
1 57
1 58
1 59
1 60
1 61
1 62
1 63
CELL_TYPES 64
1
1
1
1
1
1
1
1
1
1
1
1
1
1
1
1
1
1
1
1
1
1
1
1
1
1
1
1
1
1
1
1
1
1
1
1
1
1
1
1
1
1
1
1
1
1
1
1
1
1
1
1
1
1
1
1
1
1
1
1
1
1
1
1
POINT_DATA 64
VECTORS displacement double
0.293861 -0.169017 0 
0.311059 -0.212571 0 
0.248917 -0.186782 0 
0.267049 -0.231107 0 
0.328773 -0.254837 0 
0.347519 -0.298125 0 
0.285371 -0.273281 0 
0.303495 -0.316465 0 
0.363388 -0.342336 0 
0.379852 -0.386046 0 
0.319085 -0.360962 0 
0.335777 -0.403892 0 
0.397413 -0.428967 0 
0.414526 -0.472577 0 
0.353698 -0.446398 0 
0.370865 -0.490554 0 
0.206377 -0.205925 0 
0.22425 -0.248628 0 
0.163222 -0.223956 0 
0.181417 -0.267217 0 
0.24224 -0.291141 0 
0.259818 -0.333493 0 
0.198733 -0.310277 0 
0.216322 -0.352953 0 
0.274692 -0.379037 0 
0.291055 -0.422003 0 
0.231446 -0.39803 0 
0.247327 -0.441848 0 
0.309364 -0.464027 0 
0.326456 -0.507584 0 
0.265442 -0.482769 0 
0.283505 -0.525977 0 
0.120429 -0.241435 0 
0.136988 -0.285518 0 
0.0763036 -0.258412 0 
0.0938515 -0.302986 0 
0.155256 -0.328123 0 
0.172506 -0.37198 0 
0.111708 -0.346132 0 
0.126697 -0.388925 0 
0.188093 -0.416461 0 
0.204616 -0.459844 0 
0.14363 -0.43306 0 
0.160721 -0.477342 0 
0.221642 -0.502399 0 
0.239669 -0.545362 0 
0.177358 -0.520788 0 
0.195959 -0.564067 0 
0.0331269 -0.276183 0 
0.0505066 -0.319593 0 
-0.0116914 -0.293851 0 
0.00533086 -0.337132 0 
0.0669897 -0.363353 0 
0.0828034 -0.407628 0 
0.02188 -0.380488 0 
0.0379533 -0.424905 0 
0.100008 -0.451469 0 
0.116944 -0.495702 0 
0.0543748 -0.46721 0 
0.0718578 -0.511909 0 
0.133967 -0.539503 0 
0.153081 -0.581438 0 
0.0905862 -0.556219 0 
0.109446 -0.599084 0 
VECTORS velocity double
4.60519 0.159677 0 
4.14204 -0.846624 0 
3.83919 0.951336 0 
3.07953 0.10034 0 
3.71795 -0.664771 0 
3.46962 -0.880102 0 
2.50821 0.111803 0 
2.11075 -0.695146 0 
3.17315 -1.35266 0 
3.0446 -1.73578 0 
1.89962 -0.618783 0 
1.792 -0.689182 0 
2.89812 -1.49369 0 
1.59949 -2.72247 0 
1.68944 -0.705395 0 
1.05181 -1.84221 0 
3.65636 0.909879 0 
3.11589 -0.25237 0 
3.35769 1.58741 0 
2.57018 0.0308584 0 
2.90177 0.211931 0 
2.67892 -0.458319 0 
2.01304 -0.0477871 0 
1.8536 -0.0486397 0 
2.08836 -0.292825 0 
1.94058 -0.221165 0 
1.31732 -0.280413 0 
1.21065 -0.345973 0 
1.92447 -0.240033 0 
0.732096 -1.67032 0 
1.55119 -0.181665 0 
0.582547 -1.53216 0 
3.09278 1.96659 0 
1.94341 0.696056 0 
2.51005 2.39205 0 
1.28962 1.30201 0 
1.46676 0.534359 0 
1.3005 0.785295 0 
1.05626 0.966141 0 
0.702181 0.869454 0 
1.25367 0.179639 0 
0.816966 -0.0413836 0 
0.619222 -0.214303 0 
0.59279 0.300299 0 
0.614271 0.15367 0 
0.552636 -0.632225 0 
0.219185 0.88334 0 
-0.417732 -0.198784 0 
2.31009 2.61121 0 
1.14975 1.34372 0 
1.21637 3.26716 0 
0.382134 2.11017 0 
1.23598 1.20319 0 
0.782263 1.14244 0 
0.35404 1.97798 0 
-0.293549 1.63205 0 
0.458838 0.726366 0 
0.74418 1.18041 0 
-0.564314 1.27728 0 
-0.0302159 1.23739 0 
0.761238 1.28753 0 
-0.356233 -0.54224 0 
-0.417171 1.51731 0 
-1.00667 0.501281 0 
SCALARS mass double 1
LOOKUP_TABLE default
0.625
0.625
0.625
0.625
0.625
0.625
0.625
0.625
0.625
0.625
0.625
0.625
0.625
0.625
0.625
0.625
0.625
0.625
0.625
0.625
0.625
0.625
0.625
0.625
0.625
0.625
0.625
0.625
0.625
0.625
0.625
0.625
0.625
0.625
0.625
0.625
0.625
0.625
0.625
0.625
0.625
0.625
0.625
0.625
0.625
0.625
0.625
0.625
0.625
0.625
0.625
0.625
0.625
0.625
0.625
0.625
0.625
0.625
0.625
0.625
0.625
0.625
0.625
0.625
SCALARS volume double 1
LOOKUP_TABLE default
0.000637297
0.000622157
0.000641131
0.000632973
0.000634977
0.000651099
0.000630065
0.000637034
0.00063126
0.00063482
0.000629436
0.000615713
0.000635026
0.000615184
0.000620118
0.000647723
0.000622965
0.000616414
0.00063275
0.000643909
0.000616373
0.000629437
0.000648437
0.000639666
0.000616602
0.000656996
0.000657905
0.000631516
0.000618235
0.000621016
0.000647686
0.000660734
0.000616089
0.000640254
0.000636347
0.000637659
0.000624648
0.000647883
0.000606755
0.000632835
0.000597432
0.000580163
0.000662456
0.000625977
0.000637197
0.00064325
0.000643518
0.000632062
0.000641895
0.000633754
0.000647712
0.000616073
0.000626839
0.000613667
0.000622062
0.000616841
0.000645295
0.000639398
0.000630952
0.000624258
0.000615464
0.00062835
0.000625379
0.000631954
VECTORS momentum double
2.87824 0.0997982 0 
2.58878 -0.52914 0 
2.39949 0.594585 0 
1.92471 0.0627126 0 
2.32372 -0.415482 0 
2.16851 -0.550064 0 
1.56763 0.0698771 0 
1.31922 -0.434466 0 
1.98322 -0.845411 0 
1.90287 -1.08486 0 
1.18726 -0.386739 0 
1.12 -0.430739 0 
1.81133 -0.933558 0 
0.999684 -1.70154 0 
1.0559 -0.440872 0 
0.657383 -1.15138 0 
2.28523 0.568674 0 
1.94743 -0.157731 0 
2.09856 0.992129 0 
1.60636 0.0192865 0 
1.81361 0.132457 0 
1.67433 -0.286449 0 
1.25815 -0.0298669 0 
1.1585 -0.0303998 0 
1.30522 -0.183016 0 
1.21286 -0.138228 0 
0.823323 -0.175258 0 
0.756659 -0.216233 0 
1.2028 -0.150021 0 
0.45756 -1.04395 0 
0.969493 -0.11354 0 
0.364092 -0.9576 0 
1.93299 1.22912 0 
1.21463 0.435035 0 
1.56878 1.49503 0 
0.806014 0.813758 0 
0.916728 0.333974 0 
0.812813 0.490809 0 
0.660165 0.603838 0 
0.438863 0.543409 0 
0.783541 0.112274 0 
0.510604 -0.0258647 0 
0.387014 -0.133939 0 
0.370494 0.187687 0 
0.383919 0.0960438 0 
0.345398 -0.39514 0 
0.136991 0.552087 0 
-0.261083 -0.12424 0 
1.44381 1.63201 0 
0.718597 0.839828 0 
0.760229 2.04198 0 
0.238834 1.31886 0 
0.77249 0.751992 0 
0.488915 0.714026 0 
0.221275 1.23624 0 
-0.183468 1.02003 0 
0.286774 0.453979 0 
0.465112 0.737759 0 
-0.352696 0.7983 0 
-0.018885 0.773371 0 
0.475774 0.804709 0 
-0.222646 -0.3389 0 
-0.260732 0.948318 0 
-0.629166 0.313301 0 
VECTORS body_force double
0 -9.81 0 
0 -9.81 0 
0 -9.81 0 
0 -9.81 0 
0 -9.81 0 
0 -9.81 0 
0 -9.81 0 
0 -9.81 0 
0 -9.81 0 
0 -9.81 0 
0 -9.81 0 
0 -9.81 0 
0 -9.81 0 
0 -9.81 0 
0 -9.81 0 
0 -9.81 0 
0 -9.81 0 
0 -9.81 0 
0 -9.81 0 
0 -9.81 0 
0 -9.81 0 
0 -9.81 0 
0 -9.81 0 
0 -9.81 0 
0 -9.81 0 
0 -9.81 0 
0 -9.81 0 
0 -9.81 0 
0 -9.81 0 
0 -9.81 0 
0 -9.81 0 
0 -9.81 0 
0 -9.81 0 
0 -9.81 0 
0 -9.81 0 
0 -9.81 0 
0 -9.81 0 
0 -9.81 0 
0 -9.81 0 
0 -9.81 0 
0 -9.81 0 
0 -9.81 0 
0 -9.81 0 
0 -9.81 0 
0 -9.81 0 
0 -9.81 0 
0 -9.81 0 
0 -9.81 0 
0 -9.81 0 
0 -9.81 0 
0 -9.81 0 
0 -9.81 0 
0 -9.81 0 
0 -9.81 0 
0 -9.81 0 
0 -9.81 0 
0 -9.81 0 
0 -9.81 0 
0 -9.81 0 
0 -9.81 0 
0 -9.81 0 
0 -9.81 0 
0 -9.81 0 
0 -9.81 0 
TENSORS cauchy_stress double
3713.21 1538.28 0
1538.28 33.777 0
0 0 1124.1

-1221.95 1097.51 0
1097.51 345.044 0
0 0 -263.073

5877.46 -52.8963 0
-52.8963 -977.17 0
0 0 1470.09

-2502.4 -1095.86 0
-1095.86 4940.2 0
0 0 731.338

1432.85 -202.514 0
-202.514 1612.62 0
0 0 913.643

3578.99 2127 0
2127 4288.47 0
0 0 2360.24

4542.83 690.777 0
690.777 -2990.73 0
0 0 465.63

-847.279 351.239 0
351.239 4514.96 0
0 0 1100.3

-829.735 1834.82 0
1834.82 2746.26 0
0 0 574.959

3221.39 1679.37 0
1679.37 -223.35 0
0 0 899.411

-3553.64 4624.54 0
4624.54 4913.79 0
0 0 408.044

-3123.14 1172.9 0
1172.9 244.205 0
0 0 -863.68

-246.647 1730.86 0
1730.86 3307.03 0
0 0 918.115

-2688.97 -413.998 0
-413.998 -355.332 0
0 0 -913.29

-2024.25 524.907 0
524.907 516.265 0
0 0 -452.397

6805.42 1443.93 0
1443.93 62.034 0
0 0 2060.24

1267.46 2701.98 0
2701.98 -1894.71 0
0 0 -188.175

-2084.76 -712.901 0
-712.901 -575.367 0
0 0 -798.039

3613.39 -754.183 0
-754.183 -1243.52 0
0 0 710.961

2469.82 3462.39 0
3462.39 3261.98 0
0 0 1719.54

-615.625 3165 0
3165 -2057.37 0
0 0 -801.899

-5278.89 1506 0
1506 6639.35 0
0 0 408.139

2250.12 530.018 0
530.018 4829.29 0
0 0 2123.82

-31.6174 3997.41 0
3997.41 4492.23 0
0 0 1338.18

-8246.17 2511.79 0
2511.79 5644.76 0
0 0 -780.423

8524.19 4107.29 0
4107.29 1077.15 0
0 0 2880.4

130.16 2338.43 0
2338.43 9736.94 0
0 0 2960.13

1547.56 3364.33 0
3364.33 447.065 0
0 0 598.387

1435.67 1651.26 0
1651.26 -3528.49 0
0 0 -627.846

2088.62 -1147.37 0
-1147.37 -3318.37 0
0 0 -368.924

3668.61 4613.64 0
4613.64 3188.08 0
0 0 2057.01

4589.09 -513.845 0
-513.845 6103.03 0
0 0 3207.64

1368.86 92.1293 0
92.1293 -4130.3 0
0 0 -828.433

2269.47 162.867 0
162.867 2367.76 0
0 0 1391.17

4323.29 -1921.78 0
-1921.78 -863.143 0
0 0 1038.05

3852.26 -3974.61 0
-3974.61 3.81104 0
0 0 1156.82

2786.51 -798.57 0
-798.57 -2895 0
0 0 -32.547

2748.76 2349.34 0
2349.34 4166.41 0
0 0 2074.55

-3550.8 4954.27 0
4954.27 -2146.59 0
0 0 -1709.22

1160.18 7843.84 0
7843.84 1235.54 0
0 0 718.714

-5774.24 77.7879 0
77.7879 -2901.02 0
0 0 -2602.58

-8951.94 228.29 0
228.29 -5363.86 0
0 0 -4294.74

1016.57 -2662.83 0
-2662.83 10176.2 0
0 0 3357.84

-2304.08 4018.22 0
4018.22 2604.44 0
0 0 90.1076

1653.53 2993.22 0
2993.22 2063.31 0
0 0 1115.05

3185.98 2919.57 0
2919.57 2349.01 0
0 0 1660.5

5652.09 1420.28 0
1420.28 -36.9721 0
0 0 1684.53

3588.29 -2356.89 0
-2356.89 -1427.48 0
0 0 648.244

6965.22 1521 0
1521 -1835.69 0
0 0 1538.86

4678.31 2218.64 0
2218.64 -2003.53 0
0 0 802.432

3199.64 -292.555 0
-292.555 3664.76 0
0 0 2059.32

-4903.34 2948.44 0
2948.44 2136.67 0
0 0 -830.001

780.081 1940.01 0
1940.01 -214.924 0
0 0 169.547

36.8002 -582.778 0
-582.778 -3555.99 0
0 0 -1055.76

-1004.38 2965.53 0
2965.53 98.1487 0
0 0 -271.871

-1409.24 2452.41 0
2452.41 -1117.7 0
0 0 -758.083

6118.11 -359.093 0
-359.093 27.3557 0
0 0 1843.64

2479.22 13.7758 0
13.7758 1900.62 0
0 0 1313.95

-211.071 1017.81 0
1017.81 2033.87 0
0 0 546.839

766.815 -1944.51 0
-1944.51 -995.164 0
0 0 -68.5049

-165.825 1611.13 0
1611.13 -2790.99 0
0 0 -887.043

673.862 649.439 0
649.439 354.285 0
0 0 308.444

-1877.41 -3014.43 0
-3014.43 1994.12 0
0 0 35.0141

1717.44 3212.11 0
3212.11 410.293 0
0 0 638.32

TENSORS velocity_gradient double
-1.06701 19.0759 0
-16.1701 0.83286 0
0 0 0

-1.83656 18.3045 0
-15.514 0.654492 0
0 0 0

1.28508 17.8254 0
-17.3817 0.615218 0
0 0 0

-0.641582 19.0554 0
-16.2506 0.830452 0
0 0 0

-0.785617 17.1881 0
-15.2814 0.407338 0
0 0 0

-2.55801 16.9369 0
-15.7242 -1.86334 0
0 0 0

0.436413 20.3878 0
-14.1549 0.907817 0
0 0 0

1.65617 19.1326 0
-12.4281 -0.869155 0
0 0 0

1.23582 13.7058 0
-16.0712 -1.56782 0
0 0 0

4.34129 13.0165 0
-16.4975 -1.38843 0
0 0 0

4.14594 16.6901 0
-15.5939 -2.53499 0
0 0 0

3.45713 17.2485 0
-17.5166 -2.98017 0
0 0 0

-6.65023 19.8138 0
-18.7084 -0.52076 0
0 0 0

-3.87571 17.1498 0
-19.8655 0.5902 0
0 0 0

1.22644 19.6061 0
-18.6924 -1.73754 0
0 0 0

-2.06886 19.0007 0
-20.009 0.539964 0
0 0 0

-0.609821 16.3518 0
-17.737 0.335329 0
0 0 0

-0.435354 22.8547 0
-18.321 2.13961 0
0 0 0

-0.00895483 24.8849 0
-20.8592 0.636012 0
0 0 0

0.862825 24.0501 0
-19.1147 1.40868 0
0 0 0

1.36301 21.5952 0
-14.5911 2.33114 0
0 0 0

2.86171 19.9301 0
-10.8691 0.0243675 0
0 0 0

2.00843 21.9109 0
-19.5741 0.286452 0
0 0 0

4.03098 19.2367 0
-13.2095 -4.51094 0
0 0 0

4.75959 16.0074 0
-10.455 -4.51456 0
0 0 0

3.02965 15.2553 0
-15.8414 -4.16391 0
0 0 0

6.71333 17.8141 0
-10.5725 -4.62321 0
0 0 0

7.47945 16.4449 0
-11.568 -2.66294 0
0 0 0

-0.609224 17.7032 0
-19.8222 -0.549214 0
0 0 0

-0.760203 17.9108 0
-20.6181 2.0963 0
0 0 0

1.63089 18.1014 0
-18.3187 0.373081 0
0 0 0

-0.510264 18.146 0
-21.356 1.40203 0
0 0 0

-0.489562 24.4645 0
-22.7464 -0.0554984 0
0 0 0

-0.0726259 23.4548 0
-22.1113 0.349658 0
0 0 0

-0.966382 23.528 0
-23.2041 0.328396 0
0 0 0

-0.491505 22.2196 0
-22.2342 1.35841 0
0 0 0

2.79342 20.788 0
-18.4672 -1.6507 0
0 0 0

3.45575 20.1619 0
-16.7815 -3.24423 0
0 0 0

1.32538 21.4613 0
-19.5145 -0.0669388 0
0 0 0

4.09614 16.3326 0
-15.128 -3.21757 0
0 0 0

5.6904 14.1306 0
-13.3858 -6.8078 0
0 0 0

5.58331 14.4879 0
-14.5994 -5.32584 0
0 0 0

4.86614 13.4208 0
-13.073 -5.9915 0
0 0 0

4.99375 13.0135 0
-13.0447 -7.34552 0
0 0 0

3.57039 16.4859 0
-17.6411 -2.30669 0
0 0 0

1.88855 16.7628 0
-19.6814 -3.77161 0
0 0 0

1.9536 16.2361 0
-19.0375 -1.28639 0
0 0 0

1.04861 17.1871 0
-18.2173 -2.14836 0
0 0 0

1.55859 22.7255 0
-18.5814 2.96189 0
0 0 0

0.226637 22.9802 0
-20.9363 2.73311 0
0 0 0

-0.595776 20.3839 0
-20.46 0.893097 0
0 0 0

-2.37401 18.7853 0
-21.7659 3.66964 0
0 0 0

1.01183 17.7601 0
-19.3071 0.547967 0
0 0 0

2.06749 14.9049 0
-16.6728 -1.94671 0
0 0 0

1.77591 16.4795 0
-17.1591 2.67436 0
0 0 0

2.61594 15.7616 0
-14.6912 0.565283 0
0 0 0

5.63672 14.1727 0
-11.0066 -3.97534 0
0 0 0

4.8886 12.813 0
-10.6332 -2.34727 0
0 0 0

3.37616 9.56555 0
-12.8655 -4.13825 0
0 0 0

2.75599 10.2486 0
-11.9949 -3.98476 0
0 0 0

2.16498 14.9367 0
-13.4389 -1.09403 0
0 0 0

0.155046 16.1098 0
-17.394 -1.26212 0
0 0 0

0.304547 12.4516 0
-13.532 -2.07175 0
0 0 0

-1.17922 10.5519 0
-14.4131 2.17252 0
0 0 0

SCALARS active double 1
LOOKUP_TABLE default
1
1
1
1
1
1
1
1
1
1
1
1
1
1
1
1
1
1
1
1
1
1
1
1
1
1
1
1
1
1
1
1
1
1
1
1
1
1
1
1
1
1
1
1
1
1
1
1
1
1
1
1
1
1
1
1
1
1
1
1
1
1
1
1
SCALARS extent double 1
LOOKUP_TABLE default
0.0125
0.0125
0.0125
0.0125
0.0125
0.0125
0.0125
0.0125
0.0125
0.0125
0.0125
0.0125
0.0125
0.0125
0.0125
0.0125
0.0125
0.0125
0.0125
0.0125
0.0125
0.0125
0.0125
0.0125
0.0125
0.0125
0.0125
0.0125
0.0125
0.0125
0.0125
0.0125
0.0125
0.0125
0.0125
0.0125
0.0125
0.0125
0.0125
0.0125
0.0125
0.0125
0.0125
0.0125
0.0125
0.0125
0.0125
0.0125
0.0125
0.0125
0.0125
0.0125
0.0125
0.0125
0.0125
0.0125
0.0125
0.0125
0.0125
0.0125
0.0125
0.0125
0.0125
0.0125
SCALARS pressure double 1
LOOKUP_TABLE default
-1623.69
379.995
-2123.46
-1056.38
-1319.71
-3409.23
-672.576
-1589.33
-830.496
-1299.15
-589.396
1247.54
-1326.17
1319.2
653.462
-2975.9
271.809
1152.72
-1026.94
-2483.78
1158.3
-589.535
-3067.74
-1932.93
1127.28
-4160.58
-4275.74
-864.336
906.889
532.89
-2971.23
-4633.25
1196.63
-2009.47
-1499.4
-1670.97
47.0123
-2996.57
2468.87
-1038.14
3759.28
6203.52
-4850.21
-130.155
-1610.63
-2398.49
-2433.22
-936.353
-2222.79
-1159.07
-2974.57
1198.89
-244.901
1524.98
392.702
1095.01
-2663.04
-1897.93
-789.878
98.9516
1281.28
-445.53
-50.576
-922.018
SCALARS density double 1
LOOKUP_TABLE default
980.704
1004.57
974.84
987.403
984.288
959.915
991.962
981.109
990.084
984.531
992.952
1015.08
984.212
1015.96
1007.87
964.919
1003.27
1013.93
987.752
970.634
1014
992.951
963.856
977.072
1013.62
951.299
949.985
989.682
1010.94
1006.42
964.973
945.918
1014.46
976.175
982.168
980.148
1000.56
964.68
1030.07
987.62
1046.14
1077.28
943.459
998.439
980.858
971.628
971.224
988.827
973.679
986.187
964.935
1014.49
997.066
1018.47
1004.72
1013.23
968.549
977.482
990.566
1001.19
1015.49
994.668
999.393
988.997
