# vtk DataFile Version 3.0
Frame: 14, Time: 0.234
ASCII
DATASET UNSTRUCTURED_GRID
POINTS 64 double
0.4125 0.140469 0 
0.4125 0.165469 0 
0.4375 0.140469 0 
0.4375 0.165469 0 
0.4125 0.190469 0 
0.4125 0.215469 0 
0.4375 0.190469 0 
0.4375 0.215469 0 
0.4125 0.240469 0 
0.4125 0.265469 0 
0.4375 0.240469 0 
0.4375 0.265469 0 
0.4125 0.290469 0 
0.4125 0.315469 0 
0.4375 0.290469 0 
0.4375 0.315469 0 
0.4625 0.140469 0 
0.4625 0.165469 0 
0.4875 0.140469 0 
0.4875 0.165469 0 
0.4625 0.190469 0 
0.4625 0.215469 0 
0.4875 0.190469 0 
0.4875 0.215469 0 
0.4625 0.240469 0 
0.4625 0.265469 0 
0.4875 0.240469 0 
0.4875 0.265469 0 
0.4625 0.290469 0 
0.4625 0.315469 0 
0.4875 0.290469 0 
0.4875 0.315469 0 
0.5125 0.140469 0 
0.5125 0.165469 0 
0.5375 0.140469 0 
0.5375 0.165469 0 
0.5125 0.190469 0 
0.5125 0.215469 0 
0.5375 0.190469 0 
0.5375 0.215469 0 
0.5125 0.240469 0 
0.5125 0.265469 0 
0.5375 0.240469 0 
0.5375 0.265469 0 
0.5125 0.290469 0 
0.5125 0.315469 0 
0.5375 0.290469 0 
0.5375 0.315469 0 
0.5625 0.140469 0 
0.5625 0.165469 0 
0.5875 0.140469 0 
0.5875 0.165469 0 
0.5625 0.190469 0 
0.5625 0.215469 0 
0.5875 0.190469 0 
0.5875 0.215469 0 
0.5625 0.240469 0 
0.5625 0.265469 0 
0.5875 0.240469 0 
0.5875 0.265469 0 
0.5625 0.290469 0 
0.5625 0.315469 0 
0.5875 0.290469 0 
0.5875 0.315469 0 
CELLS 64 128
1 0
1 1
1 2
1 3
1 4
1 5
1 6
1 7
1 8
1 9
1 10
1 11
1 12
1 13
1 14
1 15
1 16
1 17
1 18
1 19
1 20
1 21
1 22
1 23
1 24
1 25
1 26
1 27
1 28
1 29
1 30
1 31
1 32
1 33
1 34
1 35
1 36
1 37
1 38
1 39
1 40
1 41
1 42
1 43
1 44
1 45
1 46
1 47
1 48
1 49
1 50
1 51
1 52
1 53
1 54
1 55
1 56
1 57
1 58
1 59
1 60
1 61
1 62
1 63
CELL_TYPES 64
1
1
1
1
1
1
1
1
1
1
1
1
1
1
1
1
1
1
1
1
1
1
1
1
1
1
1
1
1
1
1
1
1
1
1
1
1
1
1
1
1
1
1
1
1
1
1
1
1
1
1
1
1
1
1
1
1
1
1
1
1
1
1
1
POINT_DATA 64
VECTORS displacement double
-1.52092e-16 -0.272031 0 
-1.269e-16 -0.272031 0 
-1.47217e-16 -0.272031 0 
-1.20178e-16 -0.272031 0 
-9.52418e-17 -0.272031 0 
-6.83807e-17 -0.272031 0 
-9.21738e-17 -0.272031 0 
-7.02687e-17 -0.272031 0 
-5.55585e-17 -0.272031 0 
-5.81001e-17 -0.272031 0 
-5.77547e-17 -0.272031 0 
-5.65068e-17 -0.272031 0 
-5.17909e-17 -0.272031 0 
-5.30122e-17 -0.272031 0 
-5.15406e-17 -0.272031 0 
-4.95396e-17 -0.272031 0 
-1.38037e-16 -0.272031 0 
-1.13813e-16 -0.272031 0 
-1.24552e-16 -0.272031 0 
-1.07804e-16 -0.272031 0 
-9.16056e-17 -0.272031 0 
-7.39892e-17 -0.272031 0 
-9.3537e-17 -0.272031 0 
-7.95423e-17 -0.272031 0 
-6.17623e-17 -0.272031 0 
-5.70559e-17 -0.272031 0 
-6.75814e-17 -0.272031 0 
-5.97474e-17 -0.272031 0 
-5.23231e-17 -0.272031 0 
-4.69934e-17 -0.272031 0 
-5.41383e-17 -0.272031 0 
-4.53738e-17 -0.272031 0 
-1.0699e-16 -0.272031 0 
-1.00646e-16 -0.272031 0 
-8.53533e-17 -0.272031 0 
-9.23391e-17 -0.272031 0 
-9.46623e-17 -0.272031 0 
-8.54948e-17 -0.272031 0 
-9.49815e-17 -0.272031 0 
-9.18469e-17 -0.272031 0 
-7.40465e-17 -0.272031 0 
-6.25276e-17 -0.272031 0 
-8.11576e-17 -0.272031 0 
-6.53964e-17 -0.272031 0 
-5.51959e-17 -0.272031 0 
-4.51345e-17 -0.272031 0 
-5.54958e-17 -0.272031 0 
-4.62754e-17 -0.272031 0 
-7.11099e-17 -0.272031 0 
-8.48669e-17 -0.272031 0 
-6.42602e-17 -0.272031 0 
-7.82298e-17 -0.272031 0 
-9.32827e-17 -0.272031 0 
-9.53774e-17 -0.272031 0 
-8.9566e-17 -0.272031 0 
-9.60863e-17 -0.272031 0 
-8.52814e-17 -0.272031 0 
-6.69582e-17 -0.272031 0 
-8.6418e-17 -0.272031 0 
-6.72129e-17 -0.272031 0 
-5.71111e-17 -0.272031 0 
-4.62339e-17 -0.272031 0 
-6.00419e-17 -0.272031 0 
-4.50099e-17 -0.272031 0 
VECTORS velocity double
5.83702e-15 -2.30535 0 
-3.03114e-15 -2.30535 0 
3.95416e-16 -2.30535 0 
-1.69386e-15 -2.30535 0 
-6.06146e-15 -2.30535 0 
-1.26819e-15 -2.30535 0 
-2.63594e-15 -2.30535 0 
-3.33235e-16 -2.30535 0 
2.36045e-15 -2.30535 0 
1.15311e-15 -2.30535 0 
1.44378e-15 -2.30535 0 
1.30037e-15 -2.30535 0 
-7.45745e-16 -2.30535 0 
-3.91764e-15 -2.30535 0 
-8.60653e-17 -2.30535 0 
-1.66847e-15 -2.30535 0 
-1.71632e-15 -2.30535 0 
-8.10187e-16 -2.30535 0 
-4.98175e-16 -2.30535 0 
-3.80135e-16 -2.30535 0 
-1.00926e-15 -2.30535 0 
-1.76714e-16 -2.30535 0 
-1.18144e-15 -2.30535 0 
-7.98621e-16 -2.30535 0 
5.78024e-16 -2.30535 0 
8.69114e-16 -2.30535 0 
-2.36819e-16 -2.30535 0 
-1.40645e-16 -2.30535 0 
2.14418e-16 -2.30535 0 
-2.27506e-16 -2.30535 0 
1.55706e-16 -2.30535 0 
4.05242e-16 -2.30535 0 
7.02792e-16 -2.30535 0 
-2.65592e-16 -2.30535 0 
1.88659e-15 -2.30535 0 
-4.66559e-16 -2.30535 0 
-1.0754e-15 -2.30535 0 
-1.18003e-15 -2.30535 0 
-6.91142e-16 -2.30535 0 
-1.32093e-15 -2.30535 0 
-9.51305e-16 -2.30535 0 
-9.90372e-16 -2.30535 0 
-1.56543e-15 -2.30535 0 
-1.68007e-15 -2.30535 0 
6.09253e-17 -2.30535 0 
4.80629e-16 -2.30535 0 
-6.9923e-17 -2.30535 0 
-1.34697e-18 -2.30535 0 
-5.15529e-16 -2.30535 0 
4.34328e-16 -2.30535 0 
-6.50355e-15 -2.30535 0 
2.43707e-15 -2.30535 0 
1.52291e-15 -2.30535 0 
-7.39837e-16 -2.30535 0 
5.56676e-15 -2.30535 0 
5.63264e-16 -2.30535 0 
-2.20771e-15 -2.30535 0 
-2.04224e-15 -2.30535 0 
-2.87813e-15 -2.30535 0 
-2.0769e-15 -2.30535 0 
-8.30563e-16 -2.30535 0 
4.4743e-16 -2.30535 0 
-2.22099e-15 -2.30535 0 
1.82696e-15 -2.30535 0 
SCALARS mass double 1
LOOKUP_TABLE default
0.625
0.625
0.625
0.625
0.625
0.625
0.625
0.625
0.625
0.625
0.625
0.625
0.625
0.625
0.625
0.625
0.625
0.625
0.625
0.625
0.625
0.625
0.625
0.625
0.625
0.625
0.625
0.625
0.625
0.625
0.625
0.625
0.625
0.625
0.625
0.625
0.625
0.625
0.625
0.625
0.625
0.625
0.625
0.625
0.625
0.625
0.625
0.625
0.625
0.625
0.625
0.625
0.625
0.625
0.625
0.625
0.625
0.625
0.625
0.625
0.625
0.625
0.625
0.625
SCALARS volume double 1
LOOKUP_TABLE default
0.000625
0.000625
0.000625
0.000625
0.000625
0.000625
0.000625
0.000625
0.000625
0.000625
0.000625
0.000625
0.000625
0.000625
0.000625
0.000625
0.000625
0.000625
0.000625
0.000625
0.000625
0.000625
0.000625
0.000625
0.000625
0.000625
0.000625
0.000625
0.000625
0.000625
0.000625
0.000625
0.000625
0.000625
0.000625
0.000625
0.000625
0.000625
0.000625
0.000625
0.000625
0.000625
0.000625
0.000625
0.000625
0.000625
0.000625
0.000625
0.000625
0.000625
0.000625
0.000625
0.000625
0.000625
0.000625
0.000625
0.000625
0.000625
0.000625
0.000625
0.000625
0.000625
0.000625
0.000625
VECTORS momentum double
3.64814e-15 -1.44084 0 
-1.89447e-15 -1.44084 0 
2.47135e-16 -1.44084 0 
-1.05866e-15 -1.44084 0 
-3.78841e-15 -1.44084 0 
-7.92616e-16 -1.44084 0 
-1.64746e-15 -1.44084 0 
-2.08272e-16 -1.44084 0 
1.47528e-15 -1.44084 0 
7.20696e-16 -1.44084 0 
9.02363e-16 -1.44084 0 
8.12729e-16 -1.44084 0 
-4.66091e-16 -1.44084 0 
-2.44852e-15 -1.44084 0 
-5.37908e-17 -1.44084 0 
-1.04279e-15 -1.44084 0 
-1.0727e-15 -1.44084 0 
-5.06367e-16 -1.44084 0 
-3.1136e-16 -1.44084 0 
-2.37584e-16 -1.44084 0 
-6.30789e-16 -1.44084 0 
-1.10446e-16 -1.44084 0 
-7.384e-16 -1.44084 0 
-4.99138e-16 -1.44084 0 
3.61265e-16 -1.44084 0 
5.43196e-16 -1.44084 0 
-1.48012e-16 -1.44084 0 
-8.79028e-17 -1.44084 0 
1.34011e-16 -1.44084 0 
-1.42191e-16 -1.44084 0 
9.73161e-17 -1.44084 0 
2.53277e-16 -1.44084 0 
4.39245e-16 -1.44084 0 
-1.65995e-16 -1.44084 0 
1.17912e-15 -1.44084 0 
-2.91599e-16 -1.44084 0 
-6.72125e-16 -1.44084 0 
-7.37517e-16 -1.44084 0 
-4.31964e-16 -1.44084 0 
-8.25583e-16 -1.44084 0 
-5.94566e-16 -1.44084 0 
-6.18982e-16 -1.44084 0 
-9.78396e-16 -1.44084 0 
-1.05004e-15 -1.44084 0 
3.80783e-17 -1.44084 0 
3.00393e-16 -1.44084 0 
-4.37019e-17 -1.44084 0 
-8.41858e-19 -1.44084 0 
-3.22206e-16 -1.44084 0 
2.71455e-16 -1.44084 0 
-4.06472e-15 -1.44084 0 
1.52317e-15 -1.44084 0 
9.51818e-16 -1.44084 0 
-4.62398e-16 -1.44084 0 
3.47922e-15 -1.44084 0 
3.5204e-16 -1.44084 0 
-1.37982e-15 -1.44084 0 
-1.2764e-15 -1.44084 0 
-1.79883e-15 -1.44084 0 
-1.29806e-15 -1.44084 0 
-5.19102e-16 -1.44084 0 
2.79644e-16 -1.44084 0 
-1.38812e-15 -1.44084 0 
1.14185e-15 -1.44084 0 
VECTORS body_force double
0 -9.81 0 
0 -9.81 0 
0 -9.81 0 
0 -9.81 0 
0 -9.81 0 
0 -9.81 0 
0 -9.81 0 
0 -9.81 0 
0 -9.81 0 
0 -9.81 0 
0 -9.81 0 
0 -9.81 0 
0 -9.81 0 
0 -9.81 0 
0 -9.81 0 
0 -9.81 0 
0 -9.81 0 
0 -9.81 0 
0 -9.81 0 
0 -9.81 0 
0 -9.81 0 
0 -9.81 0 
0 -9.81 0 
0 -9.81 0 
0 -9.81 0 
0 -9.81 0 
0 -9.81 0 
0 -9.81 0 
0 -9.81 0 
0 -9.81 0 
0 -9.81 0 
0 -9.81 0 
0 -9.81 0 
0 -9.81 0 
0 -9.81 0 
0 -9.81 0 
0 -9.81 0 
0 -9.81 0 
0 -9.81 0 
0 -9.81 0 
0 -9.81 0 
0 -9.81 0 
0 -9.81 0 
0 -9.81 0 
0 -9.81 0 
0 -9.81 0 
0 -9.81 0 
0 -9.81 0 
0 -9.81 0 
0 -9.81 0 
0 -9.81 0 
0 -9.81 0 
0 -9.81 0 
0 -9.81 0 
0 -9.81 0 
0 -9.81 0 
0 -9.81 0 
0 -9.81 0 
0 -9.81 0 
0 -9.81 0 
0 -9.81 0 
0 -9.81 0 
0 -9.81 0 
0 -9.81 0 
TENSORS cauchy_stress double
2.07419e-11 -1.77421e-11 0
-1.77421e-11 -1.59824e-12 0
0 0 5.74311e-12

3.46266e-11 -1.253e-13 0
-1.253e-13 1.1854e-11 0
0 0 1.39442e-11

3.89413e-11 -1.52931e-11 0
-1.52931e-11 4.0867e-11 0
0 0 2.39425e-11

3.63608e-11 -1.49052e-11 0
-1.49052e-11 1.59004e-11 0
0 0 1.56784e-11

-6.3684e-11 6.0932e-12 0
6.0932e-12 -1.80062e-10 0
0 0 -7.31239e-11

-5.14326e-11 -5.40972e-12 0
-5.40972e-12 -1.00646e-10 0
0 0 -4.56235e-11

-1.49013e-11 -8.23703e-12 0
-8.23703e-12 -6.62361e-11 0
0 0 -2.43412e-11

-1.16583e-11 -7.21234e-12 0
-7.21234e-12 -7.83908e-12 0
0 0 -5.84922e-12

4.49408e-11 -1.76891e-12 0
-1.76891e-12 1.27387e-10 0
0 0 5.16984e-11

-5.26236e-12 -4.96513e-12 0
-4.96513e-12 -2.862e-11 0
0 0 -1.01647e-11

5.69884e-11 -5.00938e-12 0
-5.00938e-12 1.55499e-10 0
0 0 6.37461e-11

2.04767e-11 -5.33887e-12 0
-5.33887e-12 3.14377e-11 0
0 0 1.55743e-11

-3.25252e-11 2.5621e-12 0
2.5621e-12 -7.84597e-11 0
0 0 -3.32955e-11

6.90561e-12 -2.91272e-12 0
-2.91272e-12 -1.95042e-11 0
0 0 -3.77957e-12

-3.3271e-11 -9.25832e-12 0
-9.25832e-12 -8.01999e-11 0
0 0 -3.40413e-11

1.84685e-11 7.94844e-12 0
7.94844e-12 7.47585e-12 0
0 0 7.7833e-12

7.0819e-11 1.03051e-11 0
1.03051e-11 2.69326e-11 0
0 0 2.93255e-11

5.28638e-11 -1.12176e-12 0
-1.12176e-12 6.17242e-11 0
0 0 3.43764e-11

9.79211e-11 -1.25393e-11 0
-1.25393e-11 9.01709e-11 0
0 0 5.64276e-11

3.71984e-11 -1.80889e-12 0
-1.80889e-12 2.51717e-11 0
0 0 1.8711e-11

-1.0288e-11 -5.22881e-12 0
-5.22881e-12 -4.19563e-12 0
0 0 -4.34508e-12

-4.43239e-11 -3.47211e-12 0
-3.47211e-12 -4.64679e-11 0
0 0 -2.72375e-11

-4.21143e-11 -4.83386e-12 0
-4.83386e-12 -7.8457e-11 0
0 0 -3.61714e-11

-3.69532e-11 -1.37311e-11 0
-1.37311e-11 -2.92696e-11 0
0 0 -1.98668e-11

4.95075e-11 -1.93452e-11 0
-1.93452e-11 1.752e-10 0
0 0 6.74122e-11

-2.50628e-11 -5.73681e-12 0
-5.73681e-12 -3.08746e-11 0
0 0 -1.67812e-11

6.87781e-11 -1.01403e-11 0
-1.01403e-11 2.20165e-10 0
0 0 8.66829e-11

1.37091e-11 1.54538e-12 0
1.54538e-12 5.9593e-11 0
0 0 2.19906e-11

-5.11027e-11 3.48115e-12 0
3.48115e-12 -1.00622e-10 0
0 0 -4.55173e-11

-3.62828e-12 -6.86425e-12 0
-6.86425e-12 -2.50771e-11 0
0 0 -8.61161e-12

-2.378e-11 4.40925e-12 0
4.40925e-12 -3.68688e-11 0
0 0 -1.81946e-11

8.53506e-12 1.00146e-11 0
1.00146e-11 3.30408e-12 0
0 0 3.55174e-12

9.30193e-11 -2.42056e-13 0
-2.42056e-13 -4.8729e-12 0
0 0 2.64439e-11

5.92282e-11 -6.7775e-12 0
-6.7775e-12 5.29958e-11 0
0 0 3.36672e-11

1.02296e-10 -2.00232e-11 0
-2.00232e-11 1.67735e-11 0
0 0 3.5721e-11

4.61153e-11 -1.00302e-11 0
-1.00302e-11 2.2399e-11 0
0 0 2.05543e-11

-2.21341e-11 8.39225e-12 0
8.39225e-12 -4.83728e-11 0
0 0 -2.11521e-11

-3.29866e-11 5.94875e-12 0
5.94875e-12 -1.18191e-11 0
0 0 -1.34417e-11

-4.59131e-11 1.1951e-11 0
1.1951e-11 -1.03857e-10 0
0 0 -4.49311e-11

-4.621e-11 6.57351e-12 0
6.57351e-12 -4.26737e-11 0
0 0 -2.66651e-11

5.88717e-11 8.79744e-12 0
8.79744e-12 2.10302e-10 0
0 0 8.0752e-11

3.65276e-13 -1.48058e-11 0
-1.48058e-11 3.02759e-11 0
0 0 9.19236e-12

5.40698e-11 1.27604e-11 0
1.27604e-11 1.99097e-10 0
0 0 7.59502e-11

-9.19919e-12 -2.96204e-12 0
-2.96204e-12 7.95884e-12 0
0 0 -3.72106e-13

-4.1556e-11 -1.59255e-11 0
-1.59255e-11 -9.38882e-11 0
0 0 -4.06333e-11

-4.3851e-12 -2.75893e-12 0
-2.75893e-12 1.46964e-12 0
0 0 -8.74637e-13

-4.82594e-11 -7.82109e-12 0
-7.82109e-12 -1.09529e-10 0
0 0 -4.73366e-11

-5.48424e-13 -6.46596e-12 0
-6.46596e-12 1.04219e-11 0
0 0 2.96204e-12

5.58178e-11 2.30046e-11 0
2.30046e-11 5.99874e-11 0
0 0 3.47415e-11

3.98179e-11 2.18572e-11 0
2.18572e-11 2.48364e-11 0
0 0 1.93963e-11

3.25151e-11 1.76045e-11 0
1.76045e-11 5.61446e-12 0
0 0 1.14389e-11

3.7384e-11 5.3158e-12 0
5.3158e-12 1.91572e-11 0
0 0 1.69623e-11

-5.46835e-12 1.09097e-11 0
1.09097e-11 -5.08792e-11 0
0 0 -1.69043e-11

-3.19197e-11 5.30412e-12 0
5.30412e-12 -6.72085e-11 0
0 0 -2.97385e-11

-6.86526e-11 5.3372e-12 0
5.3372e-12 -1.98309e-10 0
0 0 -8.00885e-11

-3.86035e-11 -9.90938e-14 0
-9.90938e-14 -8.28039e-11 0
0 0 -3.64222e-11

5.34208e-11 4.79926e-12 0
4.79926e-12 1.36306e-10 0
0 0 5.6918e-11

-3.29492e-12 -5.6436e-12 0
-5.6436e-12 -5.07523e-12 0
0 0 -2.51105e-12

7.06061e-11 1.10727e-12 0
1.10727e-12 1.76405e-10 0
0 0 7.41034e-11

-5.85217e-12 6.71566e-12 0
6.71566e-12 -1.10421e-11 0
0 0 -5.0683e-12

-4.80815e-11 7.74658e-13 0
7.74658e-13 -8.21307e-11 0
0 0 -3.90637e-11

1.27429e-12 -6.22377e-12 0
-6.22377e-12 -9.58009e-12 0
0 0 -2.49174e-12

-4.61767e-11 -8.75449e-12 0
-8.75449e-12 -7.76863e-11 0
0 0 -3.71589e-11

-6.99794e-12 -8.8585e-13 0
-8.8585e-13 -2.8882e-11 0
0 0 -1.0764e-11

TENSORS velocity_gradient double
-3.91207e-14 -1.41213e-14 0
4.9738e-14 1.63425e-13 0
0 0 0

-6.35019e-15 -8.29045e-14 0
-3.55271e-15 1.24345e-13 0
0 0 0

-3.91207e-14 -8.27092e-15 0
2.84217e-14 1.56319e-13 0
0 0 0

-6.35019e-15 -3.91897e-14 0
-2.13163e-14 1.20792e-13 0
0 0 0

3.73646e-14 -8.29045e-14 0
-1.42109e-14 1.42109e-13 0
0 0 0

2.42424e-14 9.34389e-14 0
2.84217e-14 -2.13163e-13 0
0 0 0

3.73646e-14 -3.91897e-14 0
-1.42109e-14 1.56319e-13 0
0 0 0

2.42424e-14 5.72099e-14 0
2.13163e-14 -2.20268e-13 0
0 0 0

-1.19866e-14 9.34389e-14 0
4.26326e-14 -2.27374e-13 0
0 0 0

-4.07011e-15 -5.65937e-14 0
4.61853e-14 1.1724e-13 0
0 0 0

-1.19866e-14 5.72099e-14 0
8.52651e-14 -1.7053e-13 0
0 0 0

-4.07011e-15 -3.073e-14 0
5.68434e-14 1.42109e-13 0
0 0 0

2.17936e-14 -5.65937e-14 0
4.26326e-14 1.27898e-13 0
0 0 0

2.96469e-14 -2.10403e-14 0
3.55271e-14 7.10543e-15 0
0 0 0

2.17936e-14 -3.073e-14 0
0 1.13687e-13 0
0 0 0

2.96469e-14 -2.0509e-14 0
1.42109e-14 -4.26326e-14 0
0 0 0

5.86141e-15 -1.8409e-15 0
0 7.10543e-14 0
0 0 0

7.63042e-15 -1.75131e-14 0
-2.84217e-14 1.42109e-13 0
0 0 0

5.86141e-15 5.16876e-15 0
-2.84217e-14 1.42109e-13 0
0 0 0

7.63042e-15 -1.78746e-14 0
-6.39488e-14 9.23706e-14 0
0 0 0

7.26888e-15 -1.75131e-14 0
-7.10543e-14 1.27898e-13 0
0 0 0

-4.4229e-15 3.09463e-14 0
-7.4607e-14 -1.88294e-13 0
0 0 0

7.26888e-15 -1.78746e-14 0
-7.10543e-14 5.68434e-14 0
0 0 0

-4.4229e-15 1.46483e-14 0
-7.10543e-14 -1.84741e-13 0
0 0 0

-2.07209e-14 3.09463e-14 0
-1.13687e-13 -1.42109e-13 0
0 0 0

-1.40377e-14 -9.78514e-15 0
-6.03961e-14 8.17124e-14 0
0 0 0

-2.07209e-14 1.46483e-14 0
-1.13687e-13 -2.13163e-13 0
0 0 0

-1.40377e-14 6.24095e-15 0
-6.39488e-14 2.06057e-13 0
0 0 0

1.98835e-15 -9.78514e-15 0
2.13163e-14 1.06581e-13 0
0 0 0

1.45177e-14 -1.46895e-14 0
3.55271e-15 -8.17124e-14 0
0 0 0

1.98835e-15 6.24095e-15 0
-1.42109e-14 1.56319e-13 0
0 0 0

1.45177e-14 -3.5818e-15 0
2.13163e-14 -3.55271e-14 0
0 0 0

-7.82287e-16 6.93073e-15 0
-7.10543e-15 1.06581e-13 0
0 0 0

5.65422e-15 -1.28202e-14 0
1.77636e-14 1.3145e-13 0
0 0 0

-7.82287e-16 3.44502e-15 0
-4.26326e-14 5.68434e-14 0
0 0 0

5.65422e-15 -2.3499e-15 0
-7.10543e-15 1.35003e-13 0
0 0 0

1.61246e-14 -1.28202e-14 0
2.13163e-14 1.20792e-13 0
0 0 0

5.54804e-15 -3.0672e-15 0
2.13163e-14 -1.77636e-13 0
0 0 0

1.61246e-14 -2.3499e-15 0
2.84217e-14 8.52651e-14 0
0 0 0

5.54804e-15 -2.22002e-14 0
7.10543e-15 -2.4869e-13 0
0 0 0

-1.3585e-14 -3.0672e-15 0
2.84217e-14 -1.98952e-13 0
0 0 0

-1.72979e-14 1.5532e-14 0
-1.42109e-14 1.56319e-13 0
0 0 0

-1.3585e-14 -2.22002e-14 0
1.42109e-14 -1.98952e-13 0
0 0 0

-1.72979e-14 1.8088e-14 0
0 1.27898e-13 0
0 0 0

-1.47419e-14 1.5532e-14 0
-7.10543e-14 1.56319e-13 0
0 0 0

-5.53723e-15 7.9259e-15 0
-1.06581e-14 -5.32907e-14 0
0 0 0

-1.47419e-14 1.8088e-14 0
-7.10543e-14 1.56319e-13 0
0 0 0

-5.53723e-15 1.98336e-14 0
-2.84217e-14 0 0
0 0 0

-4.37236e-14 7.13878e-15 0
0 1.27898e-13 0
0 0 0

-5.3197e-15 2.76835e-14 0
1.77636e-14 1.45661e-13 0
0 0 0

-4.37236e-14 1.8012e-14 0
-1.42109e-14 1.13687e-13 0
0 0 0

-5.3197e-15 7.72799e-14 0
7.10543e-15 2.06057e-13 0
0 0 0

4.42767e-14 2.76835e-14 0
6.39488e-14 1.63425e-13 0
0 0 0

3.03615e-14 -5.16344e-14 0
2.13163e-14 -2.06057e-13 0
0 0 0

4.42767e-14 7.72799e-14 0
4.26326e-14 1.42109e-13 0
0 0 0

3.03615e-14 -9.13699e-14 0
1.42109e-14 -2.70006e-13 0
0 0 0

-9.37392e-15 -5.16344e-14 0
-7.10543e-15 -2.34479e-13 0
0 0 0

-1.17893e-14 2.57445e-14 0
-7.10543e-15 1.20792e-13 0
0 0 0

-9.37392e-15 -9.13699e-14 0
-2.84217e-14 -2.98428e-13 0
0 0 0

-1.17893e-14 3.85014e-14 0
-2.13163e-14 1.06581e-13 0
0 0 0

9.6759e-16 2.57445e-14 0
-2.84217e-14 1.7053e-13 0
0 0 0

8.56672e-15 2.85385e-14 0
-1.42109e-14 -7.10543e-14 0
0 0 0

9.6759e-16 3.85014e-14 0
-2.84217e-14 1.56319e-13 0
0 0 0

8.56672e-15 3.40408e-14 0
7.10543e-15 -4.9738e-14 0
0 0 0

SCALARS active double 1
LOOKUP_TABLE default
1
1
1
1
1
1
1
1
1
1
1
1
1
1
1
1
1
1
1
1
1
1
1
1
1
1
1
1
1
1
1
1
1
1
1
1
1
1
1
1
1
1
1
1
1
1
1
1
1
1
1
1
1
1
1
1
1
1
1
1
1
1
1
1
SCALARS extent double 1
LOOKUP_TABLE default
0.0125
0.0125
0.0125
0.0125
0.0125
0.0125
0.0125
0.0125
0.0125
0.0125
0.0125
0.0125
0.0125
0.0125
0.0125
0.0125
0.0125
0.0125
0.0125
0.0125
0.0125
0.0125
0.0125
0.0125
0.0125
0.0125
0.0125
0.0125
0.0125
0.0125
0.0125
0.0125
0.0125
0.0125
0.0125
0.0125
0.0125
0.0125
0.0125
0.0125
0.0125
0.0125
0.0125
0.0125
0.0125
0.0125
0.0125
0.0125
0.0125
0.0125
0.0125
0.0125
0.0125
0.0125
0.0125
0.0125
0.0125
0.0125
0.0125
0.0125
0.0125
0.0125
0.0125
0.0125
SCALARS pressure double 1
LOOKUP_TABLE default
-8.29561e-12
-2.01416e-11
-3.45836e-11
-2.26465e-11
1.05623e-10
6.59006e-11
3.51596e-11
8.44887e-12
-7.46755e-11
1.46824e-11
-9.20777e-11
-2.24962e-11
4.80935e-11
5.45938e-12
4.91707e-11
-1.12425e-11
-4.2359e-11
-4.96548e-11
-8.15065e-11
-2.70271e-11
6.27623e-12
3.93431e-11
5.22476e-11
2.86965e-11
-9.73732e-11
2.42395e-11
-1.25209e-10
-3.17643e-11
6.57473e-11
1.2439e-11
2.62812e-11
-5.13029e-12
-3.81968e-11
-4.86304e-11
-5.15969e-11
-2.96895e-11
3.0553e-11
1.94158e-11
6.49005e-11
3.85163e-11
-1.16642e-10
-1.32779e-11
-1.09706e-10
5.37486e-13
5.86925e-11
1.26336e-12
6.83752e-11
-4.2785e-12
-5.01822e-11
-2.80169e-11
-1.65228e-11
-2.45012e-11
2.44173e-11
4.29555e-11
1.15683e-10
5.26099e-11
-8.22149e-11
3.62707e-12
-1.07038e-10
7.32087e-12
5.64253e-11
3.59918e-12
5.3674e-11
1.5548e-11
SCALARS density double 1
LOOKUP_TABLE default
1000
1000
1000
1000
1000
1000
1000
1000
1000
1000
1000
1000
1000
1000
1000
1000
1000
1000
1000
1000
1000
1000
1000
1000
1000
1000
1000
1000
1000
1000
1000
1000
1000
1000
1000
1000
1000
1000
1000
1000
1000
1000
1000
1000
1000
1000
1000
1000
1000
1000
1000
1000
1000
1000
1000
1000
1000
1000
1000
1000
1000
1000
1000
1000
