# vtk DataFile Version 3.0
Frame: 48, Time: 0.8
ASCII
DATASET UNSTRUCTURED_GRID
POINTS 64 double
0.366957 0.135029 0 
0.342401 0.12753 0 
0.357868 0.158502 0 
0.332738 0.149872 0 
0.317373 0.11916 0 
0.291442 0.113271 0 
0.31001 0.142583 0 
0.285005 0.137249 0 
0.268793 0.105192 0 
0.245167 0.0929091 0 
0.261692 0.129419 0 
0.239046 0.117325 0 
0.21864 0.0881377 0 
0.196672 0.080351 0 
0.212485 0.111353 0 
0.190124 0.103952 0 
0.348199 0.180718 0 
0.323745 0.172264 0 
0.34381 0.203612 0 
0.318952 0.195971 0 
0.301581 0.166591 0 
0.277409 0.161777 0 
0.296033 0.19122 0 
0.271854 0.185301 0 
0.253931 0.151496 0 
0.232285 0.139411 0 
0.247547 0.175021 0 
0.223919 0.165201 0 
0.206749 0.135004 0 
0.181079 0.130185 0 
0.199409 0.159524 0 
0.175585 0.153751 0 
0.339182 0.228309 0 
0.314983 0.21991 0 
0.334971 0.253198 0 
0.310045 0.245113 0 
0.29139 0.214631 0 
0.266387 0.20884 0 
0.286832 0.239318 0 
0.261246 0.233883 0 
0.242318 0.199445 0 
0.219592 0.19133 0 
0.236458 0.223537 0 
0.213638 0.217903 0 
0.195268 0.183756 0 
0.171 0.177483 0 
0.188851 0.210288 0 
0.163508 0.202765 0 
0.33015 0.276861 0 
0.304499 0.268356 0 
0.320648 0.299415 0 
0.296421 0.292094 0 
0.280009 0.264262 0 
0.254604 0.257041 0 
0.271598 0.288892 0 
0.246903 0.280781 0 
0.229411 0.247573 0 
0.205651 0.243167 0 
0.222511 0.273262 0 
0.198224 0.267652 0 
0.182658 0.234415 0 
0.158047 0.226531 0 
0.175562 0.257701 0 
0.151803 0.251412 0 
CELLS 64 128
1 0
1 1
1 2
1 3
1 4
1 5
1 6
1 7
1 8
1 9
1 10
1 11
1 12
1 13
1 14
1 15
1 16
1 17
1 18
1 19
1 20
1 21
1 22
1 23
1 24
1 25
1 26
1 27
1 28
1 29
1 30
1 31
1 32
1 33
1 34
1 35
1 36
1 37
1 38
1 39
1 40
1 41
1 42
1 43
1 44
1 45
1 46
1 47
1 48
1 49
1 50
1 51
1 52
1 53
1 54
1 55
1 56
1 57
1 58
1 59
1 60
1 61
1 62
1 63
CELL_TYPES 64
1
1
1
1
1
1
1
1
1
1
1
1
1
1
1
1
1
1
1
1
1
1
1
1
1
1
1
1
1
1
1
1
1
1
1
1
1
1
1
1
1
1
1
1
1
1
1
1
1
1
1
1
1
1
1
1
1
1
1
1
1
1
1
1
POINT_DATA 64
VECTORS displacement double
-0.0455428 -0.277471 0 
-0.0700994 -0.30997 0 
-0.0796322 -0.253998 0 
-0.104762 -0.287628 0 
-0.0951266 -0.34334 0 
-0.121058 -0.374229 0 
-0.12749 -0.319917 0 
-0.152495 -0.350251 0 
-0.143707 -0.407308 0 
-0.167333 -0.444591 0 
-0.175808 -0.383081 0 
-0.198454 -0.420175 0 
-0.19386 -0.474362 0 
-0.215828 -0.507149 0 
-0.225015 -0.451147 0 
-0.247376 -0.483548 0 
-0.114301 -0.231782 0 
-0.138755 -0.265236 0 
-0.14369 -0.208888 0 
-0.168548 -0.241529 0 
-0.160919 -0.295909 0 
-0.185091 -0.325723 0 
-0.191467 -0.27128 0 
-0.215646 -0.302199 0 
-0.208569 -0.361004 0 
-0.230215 -0.398089 0 
-0.239953 -0.337479 0 
-0.263581 -0.372299 0 
-0.255751 -0.427496 0 
-0.281421 -0.457315 0 
-0.288091 -0.402976 0 
-0.311915 -0.433749 0 
-0.173318 -0.184191 0 
-0.197517 -0.21759 0 
-0.202529 -0.159302 0 
-0.227455 -0.192387 0 
-0.22111 -0.247869 0 
-0.246113 -0.27866 0 
-0.250668 -0.223182 0 
-0.276254 -0.253617 0 
-0.270182 -0.313055 0 
-0.292908 -0.34617 0 
-0.301042 -0.288963 0 
-0.323862 -0.319597 0 
-0.317232 -0.378744 0 
-0.3415 -0.410017 0 
-0.348649 -0.352212 0 
-0.373992 -0.384735 0 
-0.23235 -0.135639 0 
-0.258001 -0.169144 0 
-0.266852 -0.113085 0 
-0.291079 -0.145406 0 
-0.282491 -0.198238 0 
-0.307896 -0.230459 0 
-0.315902 -0.173608 0 
-0.340597 -0.206719 0 
-0.333089 -0.264927 0 
-0.356849 -0.294333 0 
-0.364989 -0.239238 0 
-0.389276 -0.269848 0 
-0.379842 -0.328085 0 
-0.404453 -0.360969 0 
-0.411938 -0.304799 0 
-0.435697 -0.336088 0 
VECTORS velocity double
-0.502846 -0.312712 0 
-0.809438 -0.164013 0 
-0.98707 -0.236884 0 
-0.722642 -0.276414 0 
-0.0922891 -0.504607 0 
-0.816611 0.0210768 0 
-0.625664 -0.7212 0 
-1.12481 -0.0134357 0 
-0.00675953 -0.326874 0 
-0.510575 -0.496012 0 
0.0106628 -0.177818 0 
-0.67155 -0.529417 0 
-0.208277 -0.480013 0 
-0.255003 -0.636662 0 
-0.512065 -0.529256 0 
-0.375396 -0.682624 0 
-0.668327 -0.388476 0 
-0.679594 -0.365051 0 
-0.958016 -0.112034 0 
-0.723703 -0.32789 0 
-0.507713 -0.141777 0 
-0.803571 0.0858642 0 
-0.478716 0.00332802 0 
-0.990001 -0.0245934 0 
-0.504987 -0.463919 0 
-0.618634 -1.03715 0 
-0.945402 -0.208805 0 
-1.00083 -0.256526 0 
-0.467859 -0.730112 0 
-0.176998 -0.587187 0 
-0.552082 0.113864 0 
-0.533868 -0.419598 0 
-0.75802 0.0191428 0 
-0.632969 -0.135549 0 
-0.501668 0.028051 0 
-0.59108 0.248542 0 
-0.416711 -0.087302 0 
-0.486019 -0.392413 0 
-0.948469 -0.101165 0 
-0.956852 -0.385844 0 
-0.258144 -0.437879 0 
-0.339092 -0.40539 0 
-0.605411 -0.315115 0 
-0.845336 -0.431329 0 
-0.584195 -0.802236 0 
-0.664812 -0.811129 0 
-0.717691 -0.216665 0 
-0.41658 0.091533 0 
-0.86405 0.191469 0 
-0.561546 0.184517 0 
-1.06163 0.16663 0 
-0.685908 0.0368808 0 
-0.551692 -0.331307 0 
-0.240085 -0.031026 0 
-0.99509 -0.136009 0 
-0.89937 -0.0631945 0 
-0.126351 -0.105687 0 
-0.565006 -0.533674 0 
-0.821083 -0.493281 0 
-0.580004 -0.177847 0 
-0.0615275 -0.378573 0 
-0.514266 -0.213508 0 
-0.699798 -0.366515 0 
-0.352905 -0.0642446 0 
SCALARS mass double 1
LOOKUP_TABLE default
0.625
0.625
0.625
0.625
0.625
0.625
0.625
0.625
0.625
0.625
0.625
0.625
0.625
0.625
0.625
0.625
0.625
0.625
0.625
0.625
0.625
0.625
0.625
0.625
0.625
0.625
0.625
0.625
0.625
0.625
0.625
0.625
0.625
0.625
0.625
0.625
0.625
0.625
0.625
0.625
0.625
0.625
0.625
0.625
0.625
0.625
0.625
0.625
0.625
0.625
0.625
0.625
0.625
0.625
0.625
0.625
0.625
0.625
0.625
0.625
0.625
0.625
0.625
0.625
SCALARS volume double 1
LOOKUP_TABLE default
0.000637073
0.000615261
0.00061729
0.000637609
0.000636186
0.000650519
0.000614846
0.000634609
0.000610521
0.000634645
0.000601528
0.00061759
0.000628059
0.00062126
0.000602552
0.000641682
0.000615264
0.000619655
0.000612317
0.000657806
0.000610247
0.000648181
0.000597299
0.000606442
0.00064315
0.000627503
0.000607354
0.000643858
0.000650865
0.000616918
0.00060474
0.000628004
0.000610944
0.000625704
0.000637735
0.000624286
0.000650918
0.000643228
0.000628063
0.00061474
0.000641547
0.00065568
0.000640891
0.0006281
0.00062666
0.000636509
0.000662834
0.000624867
0.000621134
0.000666905
0.000627807
0.00061761
0.000639698
0.000635298
0.000626626
0.000640384
0.000654642
0.000627049
0.000618385
0.000638152
0.000606607
0.000614208
0.000625475
0.000614444
VECTORS momentum double
-0.314279 -0.195445 0 
-0.505899 -0.102508 0 
-0.616919 -0.148052 0 
-0.451651 -0.172759 0 
-0.0576807 -0.315379 0 
-0.510382 0.013173 0 
-0.39104 -0.45075 0 
-0.703005 -0.00839729 0 
-0.00422471 -0.204296 0 
-0.319109 -0.310008 0 
0.00666425 -0.111136 0 
-0.419719 -0.330885 0 
-0.130173 -0.300008 0 
-0.159377 -0.397914 0 
-0.32004 -0.330785 0 
-0.234622 -0.42664 0 
-0.417704 -0.242798 0 
-0.424747 -0.228157 0 
-0.59876 -0.0700213 0 
-0.452314 -0.204931 0 
-0.317321 -0.0886106 0 
-0.502232 0.0536651 0 
-0.299197 0.00208001 0 
-0.618751 -0.0153709 0 
-0.315617 -0.289949 0 
-0.386646 -0.64822 0 
-0.590876 -0.130503 0 
-0.625518 -0.160329 0 
-0.292412 -0.45632 0 
-0.110624 -0.366992 0 
-0.345051 0.0711648 0 
-0.333667 -0.262249 0 
-0.473762 0.0119643 0 
-0.395606 -0.084718 0 
-0.313543 0.0175318 0 
-0.369425 0.155339 0 
-0.260445 -0.0545638 0 
-0.303762 -0.245258 0 
-0.592793 -0.063228 0 
-0.598032 -0.241152 0 
-0.16134 -0.273675 0 
-0.211933 -0.253369 0 
-0.378382 -0.196947 0 
-0.528335 -0.269581 0 
-0.365122 -0.501397 0 
-0.415508 -0.506956 0 
-0.448557 -0.135416 0 
-0.260363 0.0572081 0 
-0.540031 0.119668 0 
-0.350966 0.115323 0 
-0.66352 0.104143 0 
-0.428693 0.0230505 0 
-0.344808 -0.207067 0 
-0.150053 -0.0193913 0 
-0.621931 -0.0850055 0 
-0.562106 -0.0394966 0 
-0.0789694 -0.0660545 0 
-0.353129 -0.333546 0 
-0.513177 -0.308301 0 
-0.362503 -0.111154 0 
-0.0384547 -0.236608 0 
-0.321416 -0.133442 0 
-0.437374 -0.229072 0 
-0.220566 -0.0401529 0 
VECTORS body_force double
0 -9.81 0 
0 -9.81 0 
0 -9.81 0 
0 -9.81 0 
0 -9.81 0 
0 -9.81 0 
0 -9.81 0 
0 -9.81 0 
0 -9.81 0 
0 -9.81 0 
0 -9.81 0 
0 -9.81 0 
0 -9.81 0 
0 -9.81 0 
0 -9.81 0 
0 -9.81 0 
0 -9.81 0 
0 -9.81 0 
0 -9.81 0 
0 -9.81 0 
0 -9.81 0 
0 -9.81 0 
0 -9.81 0 
0 -9.81 0 
0 -9.81 0 
0 -9.81 0 
0 -9.81 0 
0 -9.81 0 
0 -9.81 0 
0 -9.81 0 
0 -9.81 0 
0 -9.81 0 
0 -9.81 0 
0 -9.81 0 
0 -9.81 0 
0 -9.81 0 
0 -9.81 0 
0 -9.81 0 
0 -9.81 0 
0 -9.81 0 
0 -9.81 0 
0 -9.81 0 
0 -9.81 0 
0 -9.81 0 
0 -9.81 0 
0 -9.81 0 
0 -9.81 0 
0 -9.81 0 
0 -9.81 0 
0 -9.81 0 
0 -9.81 0 
0 -9.81 0 
0 -9.81 0 
0 -9.81 0 
0 -9.81 0 
0 -9.81 0 
0 -9.81 0 
0 -9.81 0 
0 -9.81 0 
0 -9.81 0 
0 -9.81 0 
0 -9.81 0 
0 -9.81 0 
0 -9.81 0 
TENSORS cauchy_stress double
1984.21 842.222 0
842.222 1695.03 0
0 0 1103.77

402.266 -129.812 0
-129.812 -3422.54 0
0 0 -906.084

-1824.68 -709.083 0
-709.083 -562.331 0
0 0 -716.104

2510.71 1264.12 0
1264.12 1330.22 0
0 0 1152.28

3614.42 -1762.08 0
-1762.08 -202.873 0
0 0 1023.47

7193.11 -338.146 0
-338.146 502.766 0
0 0 2308.76

-4483.87 1885.58 0
1885.58 1333.85 0
0 0 -945.006

2842.37 -6211.97 0
-6211.97 91.7475 0
0 0 880.236

-5929.46 3244.31 0
3244.31 1422.04 0
0 0 -1352.23

1753.02 2256.17 0
2256.17 1192.07 0
0 0 883.527

-7504.56 5453.28 0
5453.28 143.175 0
0 0 -2208.42

-488.663 1501.37 0
1501.37 -1804.99 0
0 0 -688.096

2139.13 -349.837 0
-349.837 -1200.32 0
0 0 281.644

-1830.49 -1022.53 0
-1022.53 676.126 0
0 0 -346.31

-2032.25 270.132 0
270.132 -5001.87 0
0 0 -2110.24

996.545 237.539 0
237.539 4069.19 0
0 0 1519.72

-3798.93 -1052.9 0
-1052.9 779.569 0
0 0 -905.807

3492.31 -2536.42 0
-2536.42 -5144.09 0
0 0 -495.532

-1456.12 -1979.71 0
-1979.71 -2486.36 0
0 0 -1182.74

8041.75 -1675.4 0
-1675.4 1796.49 0
0 0 2951.47

-5007.92 -711.96 0
-711.96 414.127 0
0 0 -1378.14

3418.36 -4618.42 0
-4618.42 3585.12 0
0 0 2101.04

-6019.38 329.617 0
329.617 -2698.71 0
0 0 -2615.43

-685.708 3059.51 0
3059.51 -5110.99 0
0 0 -1739.01

4160.71 -1285.61 0
-1285.61 1344.45 0
0 0 1651.55

-2271.61 -3804.08 0
-3804.08 3040.25 0
0 0 230.592

-6534.3 7793.11 0
7793.11 1026.62 0
0 0 -1652.3

2089.28 1144.78 0
1144.78 3627.42 0
0 0 1715.01

5703.5 -1130.8 0
-1130.8 2094.82 0
0 0 2339.49

7.08411 -1106.01 0
-1106.01 -2510.06 0
0 0 -750.893

-3824.75 1432.71 0
1432.71 -2512.5 0
0 0 -1901.17

922.364 187.474 0
187.474 -0.266925 0
0 0 276.629

-6661.24 -1401.96 0
-1401.96 2287.07 0
0 0 -1312.25

-1314.82 1267.27 0
1267.27 1531.27 0
0 0 64.9346

3017.13 -3078.2 0
-3078.2 861.82 0
0 0 1163.68

-864.662 1087.27 0
1087.27 644.789 0
0 0 -65.9621

4651.07 -374.552 0
-374.552 3162.92 0
0 0 2344.2

4544.34 -3283.52 0
-3283.52 984.031 0
0 0 1658.51

1533.53 257.939 0
257.939 -593.292 0
0 0 282.07

-375.854 5219.1 0
5219.1 -2807.35 0
0 0 -954.961

5297.65 1336.18 0
1336.18 -272.553 0
0 0 1507.53

3550.49 -5228.22 0
-5228.22 5665.27 0
0 0 2764.73

967.646 6810.4 0
6810.4 3860.71 0
0 0 1448.51

-3910.23 1242.72 0
1242.72 4861.7 0
0 0 285.441

11.0968 1082.45 0
1082.45 498.95 0
0 0 153.014

798.055 2332.02 0
2332.02 2710.93 0
0 0 1052.7

5666.62 6790.35 0
6790.35 5635.98 0
0 0 3390.78

-72.5776 -935.55 0
-935.55 31.5649 0
0 0 -12.3038

678.765 -2652.39 0
-2652.39 -1872.01 0
0 0 -357.972

9021.69 3002.69 0
3002.69 3458.29 0
0 0 3743.99

903.496 43.375 0
43.375 -41.8672 0
0 0 258.489

1790.62 777.326 0
777.326 -4077.99 0
0 0 -686.211

4602.6 139.744 0
139.744 -132.408 0
0 0 1341.06

2960.95 -2390.78 0
-2390.78 181.705 0
0 0 942.797

659.755 -116.451 0
-116.451 -159.999 0
0 0 149.927

4304.97 2386.65 0
2386.65 371.175 0
0 0 1402.84

6150.35 -1544.28 0
-1544.28 2760.7 0
0 0 2673.31

-294.198 -3374.02 0
-3374.02 923.634 0
0 0 188.831

-1620.44 362.422 0
362.422 -425.813 0
0 0 -613.876

2725.35 2345.86 0
2345.86 1279.54 0
0 0 1201.47

-712.341 -2002.14 0
-2002.14 -5032.09 0
0 0 -1723.33

-834.343 -2927.7 0
-2927.7 -2515.32 0
0 0 -1004.9

-699.621 -1956.17 0
-1956.17 845.855 0
0 0 43.87

-2676.64 -1516.65 0
-1516.65 -599.102 0
0 0 -982.722

TENSORS velocity_gradient double
1.17841 -3.08548 0
0.190619 -0.532936 0
0 0 0

-1.2812 -3.58194 0
-1.17492 -0.0190346 0
0 0 0

-0.418567 -2.99558 0
-3.17822 -0.194969 0
0 0 0

-1.09915 -2.01002 0
-1.13436 1.29922 0
0 0 0

-1.42721 -4.0181 0
-1.18386 -0.0457481 0
0 0 0

-0.91339 -4.28595 0
3.36555 0.1409 0
0 0 0

-1.02022 -4.14458 0
-1.15893 -0.0534943 0
0 0 0

-1.04466 -4.25125 0
2.75214 0.30302 0
0 0 0

-0.801913 -4.33877 0
3.53035 0.79668 0
0 0 0

-0.673861 -3.56376 0
3.37401 0.33417 0
0 0 0

-1.00221 -4.12339 0
2.95049 0.900503 0
0 0 0

-1.24573 -3.91512 0
3.03709 1.52952 0
0 0 0

-0.771135 -2.85224 0
3.30327 -0.355501 0
0 0 0

1.18905 -1.75073 0
2.47332 -0.672699 0
0 0 0

-1.16648 -3.55624 0
3.21436 2.33231 0
0 0 0

-1.09984 -3.04558 0
1.71983 2.49509 0
0 0 0

-3.54659 -1.52438 0
-4.95707 1.77946 0
0 0 0

-1.9521 0.0697372 0
-1.00936 2.50864 0
0 0 0

-3.32424 0.976841 0
-1.71115 3.913 0
0 0 0

-2.93564 0.243961 0
-0.79905 2.57731 0
0 0 0

-1.36785 0.96867 0
0.182867 2.33916 0
0 0 0

-0.812898 0.671882 0
2.68595 1.89459 0
0 0 0

-0.725348 1.03033 0
2.32412 2.2631 0
0 0 0

-0.228172 0.53323 0
3.17815 1.77788 0
0 0 0

-1.08013 -1.3724 0
2.51153 1.31042 0
0 0 0

-1.54329 -3.82498 0
2.37148 1.73117 0
0 0 0

-1.00241 -0.0340651 0
2.30589 1.3721 0
0 0 0

-1.43807 -0.422202 0
1.99195 1.42609 0
0 0 0

-1.48483 -3.47992 0
2.50224 2.50302 0
0 0 0

-1.25357 -3.36879 0
1.01337 3.22415 0
0 0 0

-1.4094 -0.745931 0
0.890222 1.75026 0
0 0 0

-1.28125 -1.16338 0
0.143853 3.26412 0
0 0 0

-1.54066 1.2414 0
0.79951 4.16742 0
0 0 0

-2.04292 -0.215453 0
0.317608 2.76962 0
0 0 0

-0.576906 -2.86346 0
2.00222 2.57454 0
0 0 0

-0.609603 -0.7701 0
1.73391 2.42003 0
0 0 0

-0.413419 -0.861744 0
3.54993 1.82955 0
0 0 0

-0.203361 0.0613528 0
3.52326 1.71237 0
0 0 0

-1.32345 -0.694077 0
3.66545 1.80827 0
0 0 0

-1.12667 0.251346 0
3.64047 1.68825 0
0 0 0

-0.99095 0.302383 0
1.8791 1.44382 0
0 0 0

-1.03268 -0.489304 0
1.87003 1.44627 0
0 0 0

-1.19538 0.847462 0
2.09032 1.49189 0
0 0 0

-1.1271 1.12698 0
2.02966 1.24358 0
0 0 0

-1.32648 -0.772304 0
-1.30479 1.9069 0
0 0 0

-1.34433 -0.724329 0
-1.49565 3.56876 0
0 0 0

-1.39191 1.28749 0
-3.06267 1.0801 0
0 0 0

-1.39504 0.754234 0
-2.95388 1.83738 0
0 0 0

-1.63069 -3.88324 0
2.29586 2.08699 0
0 0 0

-1.1852 -2.59138 0
2.35655 1.84834 0
0 0 0

-2.60448 -3.65141 0
2.33097 1.7163 0
0 0 0

-0.890787 -2.51704 0
3.67271 1.77041 0
0 0 0

-1.23434 -2.92166 0
3.86068 1.60441 0
0 0 0

-1.47684 -3.75471 0
3.67831 1.34628 0
0 0 0

-0.411237 -3.20053 0
4.11069 1.5197 0
0 0 0

-1.2995 -3.87457 0
3.08567 1.27197 0
0 0 0

-1.46825 -0.652917 0
2.3483 1.31362 0
0 0 0

-1.43562 1.22473 0
2.27411 1.15667 0
0 0 0

-1.56189 -3.89474 0
2.59485 1.04166 0
0 0 0

-2.74156 -3.39662 0
-0.530068 0.761717 0
0 0 0

-1.36162 1.27965 0
-3.04214 1.07479 0
0 0 0

-1.37162 1.24867 0
-3.04892 1.05379 0
0 0 0

-2.32047 -0.908934 0
-2.84312 0.265982 0
0 0 0

1.13168 1.69086 0
-1.317 0.319133 0
0 0 0

SCALARS active double 1
LOOKUP_TABLE default
1
1
1
1
1
1
1
1
1
1
1
1
1
1
1
1
1
1
1
1
1
1
1
1
1
1
1
1
1
1
1
1
1
1
1
1
1
1
1
1
1
1
1
1
1
1
1
1
1
1
1
1
1
1
1
1
1
1
1
1
1
1
1
1
SCALARS extent double 1
LOOKUP_TABLE default
0.0125
0.0125
0.0125
0.0125
0.0125
0.0125
0.0125
0.0125
0.0125
0.0125
0.0125
0.0125
0.0125
0.0125
0.0125
0.0125
0.0125
0.0125
0.0125
0.0125
0.0125
0.0125
0.0125
0.0125
0.0125
0.0125
0.0125
0.0125
0.0125
0.0125
0.0125
0.0125
0.0125
0.0125
0.0125
0.0125
0.0125
0.0125
0.0125
0.0125
0.0125
0.0125
0.0125
0.0125
0.0125
0.0125
0.0125
0.0125
0.0125
0.0125
0.0125
0.0125
0.0125
0.0125
0.0125
0.0125
0.0125
0.0125
0.0125
0.0125
0.0125
0.0125
0.0125
0.0125
SCALARS pressure double 1
LOOKUP_TABLE default
-1594.34
1308.79
1034.37
-1664.41
-1478.34
-3334.88
1365.01
-1271.45
1953.22
-1276.21
3189.94
993.916
-406.819
500.226
3048.12
-2195.15
1308.39
715.768
1708.41
-4263.24
1990.65
-3034.84
3777.84
2511.9
-2385.57
-333.078
2386.66
-2477.24
-3379.27
1084.62
2746.14
-399.576
1895.47
-93.7944
-1680.88
95.2785
-3386.06
-2395.63
-407.435
1379.39
-2177.54
-3993.5
-2092.29
-412.304
-221.02
-1520.56
-4897.79
17.7722
517.071
-5407.99
-373.372
991.193
-1937.08
-1361.82
-216.561
-2026.33
-3861.45
-272.756
886.709
-1735.45
2489.25
1451.52
-63.3678
1419.49
SCALARS density double 1
LOOKUP_TABLE default
981.05
1015.83
1012.49
980.225
982.416
960.772
1016.51
984.858
1023.72
984.802
1039.02
1012
995.13
1006.02
1037.25
974.002
1015.82
1008.63
1020.71
950.128
1024.18
964.237
1046.38
1030.6
971.779
996.011
1029.05
970.711
960.26
1013.1
1033.5
995.217
1023.01
998.875
980.032
1001.14
960.182
971.662
995.123
1016.69
974.208
953.208
975.205
995.065
997.351
981.919
942.92
1000.21
1006.22
937.165
995.53
1011.97
977.023
983.791
997.405
975.977
954.72
996.732
1010.7
979.39
1030.32
1017.57
999.24
1017.18
