# vtk DataFile Version 3.0
Frame: 37, Time: 0.617
ASCII
DATASET UNSTRUCTURED_GRID
POINTS 64 double
0.446268 0.0386812 0 
0.419529 0.0407284 0 
0.447193 0.061232 0 
0.421114 0.0637098 0 
0.393783 0.0417398 0 
0.367711 0.0418399 0 
0.397222 0.0636646 0 
0.371382 0.0636632 0 
0.34322 0.0428121 0 
0.318216 0.0402658 0 
0.345217 0.066247 0 
0.319894 0.0637962 0 
0.291896 0.0420405 0 
0.267872 0.0419759 0 
0.293486 0.0656295 0 
0.269728 0.0652197 0 
0.445744 0.0845397 0 
0.420666 0.0860395 0 
0.451129 0.105764 0 
0.42445 0.107273 0 
0.396453 0.0858822 0 
0.37181 0.0866865 0 
0.399336 0.108804 0 
0.374758 0.110329 0 
0.345979 0.08828 0 
0.321196 0.0858194 0 
0.349323 0.112009 0 
0.323474 0.111185 0 
0.296231 0.0897378 0 
0.270384 0.0933644 0 
0.298188 0.114767 0 
0.273612 0.118226 0 
0.454406 0.128993 0 
0.427911 0.128844 0 
0.45575 0.152177 0 
0.429827 0.153151 0 
0.402583 0.130764 0 
0.377593 0.134364 0 
0.406162 0.155217 0 
0.380822 0.159943 0 
0.352489 0.13669 0 
0.327742 0.136254 0 
0.354121 0.161497 0 
0.330733 0.162901 0 
0.302121 0.138971 0 
0.27693 0.142104 0 
0.3055 0.166265 0 
0.278973 0.168186 0 
0.459744 0.17463 0 
0.43349 0.176497 0 
0.459746 0.198839 0 
0.435036 0.202249 0 
0.409819 0.180664 0 
0.383532 0.183154 0 
0.410681 0.206526 0 
0.384751 0.208112 0 
0.356848 0.185174 0 
0.333013 0.189176 0 
0.359633 0.21205 0 
0.335491 0.216173 0 
0.308649 0.191359 0 
0.282243 0.19261 0 
0.310688 0.216631 0 
0.285411 0.218302 0 
CELLS 64 128
1 0
1 1
1 2
1 3
1 4
1 5
1 6
1 7
1 8
1 9
1 10
1 11
1 12
1 13
1 14
1 15
1 16
1 17
1 18
1 19
1 20
1 21
1 22
1 23
1 24
1 25
1 26
1 27
1 28
1 29
1 30
1 31
1 32
1 33
1 34
1 35
1 36
1 37
1 38
1 39
1 40
1 41
1 42
1 43
1 44
1 45
1 46
1 47
1 48
1 49
1 50
1 51
1 52
1 53
1 54
1 55
1 56
1 57
1 58
1 59
1 60
1 61
1 62
1 63
CELL_TYPES 64
1
1
1
1
1
1
1
1
1
1
1
1
1
1
1
1
1
1
1
1
1
1
1
1
1
1
1
1
1
1
1
1
1
1
1
1
1
1
1
1
1
1
1
1
1
1
1
1
1
1
1
1
1
1
1
1
1
1
1
1
1
1
1
1
POINT_DATA 64
VECTORS displacement double
0.0337681 -0.373819 0 
0.00702949 -0.396772 0 
0.00969264 -0.351268 0 
-0.0163857 -0.37379 0 
-0.0187172 -0.42076 0 
-0.0447894 -0.44566 0 
-0.0402778 -0.398835 0 
-0.0661178 -0.423837 0 
-0.06928 -0.469688 0 
-0.0942835 -0.497234 0 
-0.0922832 -0.446253 0 
-0.117606 -0.473704 0 
-0.120604 -0.520459 0 
-0.144628 -0.545524 0 
-0.144014 -0.496871 0 
-0.167772 -0.52228 0 
-0.0167561 -0.32796 0 
-0.0418337 -0.35146 0 
-0.0363711 -0.306736 0 
-0.0630498 -0.330227 0 
-0.0660472 -0.376618 0 
-0.0906901 -0.400814 0 
-0.0881636 -0.353696 0 
-0.112742 -0.377171 0 
-0.116521 -0.42422 0 
-0.141304 -0.451681 0 
-0.138177 -0.400491 0 
-0.164026 -0.426315 0 
-0.166269 -0.472762 0 
-0.192116 -0.494136 0 
-0.189312 -0.447733 0 
-0.213888 -0.469274 0 
-0.058094 -0.283507 0 
-0.0845891 -0.308656 0 
-0.0817504 -0.260323 0 
-0.107673 -0.284349 0 
-0.109917 -0.331736 0 
-0.134907 -0.353136 0 
-0.131338 -0.307283 0 
-0.156678 -0.327557 0 
-0.160011 -0.37581 0 
-0.184758 -0.401246 0 
-0.183379 -0.351003 0 
-0.206767 -0.374599 0 
-0.210379 -0.423529 0 
-0.23557 -0.445396 0 
-0.232 -0.396235 0 
-0.258527 -0.419314 0 
-0.102756 -0.23787 0 
-0.12901 -0.261003 0 
-0.127754 -0.213661 0 
-0.152464 -0.235251 0 
-0.152681 -0.281836 0 
-0.178968 -0.304346 0 
-0.176819 -0.255974 0 
-0.202749 -0.279388 0 
-0.205652 -0.327326 0 
-0.229487 -0.348324 0 
-0.227867 -0.30045 0 
-0.252009 -0.321327 0 
-0.253851 -0.371141 0 
-0.280257 -0.39489 0 
-0.276812 -0.345869 0 
-0.302089 -0.369198 0 
VECTORS velocity double
0.670985 -0.29922 0 
-0.32195 0.0462779 0 
0.542034 -0.495676 0 
-0.289359 -0.363475 0 
0.387218 -0.0855852 0 
-1.21916 -0.251089 0 
0.526505 -0.682901 0 
-0.024741 -0.263799 0 
-0.208439 -0.669004 0 
-0.0386461 -0.528117 0 
0.36657 -0.222807 0 
-0.334948 -0.288345 0 
-0.380427 -0.696427 0 
-0.347126 -1.35323 0 
-0.532107 -0.782771 0 
-0.839653 -1.6291 0 
0.220757 -0.335642 0 
-0.225146 -0.657495 0 
0.0396059 -0.251307 0 
-0.352238 -1.13464 0 
0.362066 -0.679559 0 
0.169286 -0.693289 0 
-0.107254 -0.88124 0 
-0.685873 -1.03323 0 
-0.207406 -1.03228 0 
-0.722236 -1.22572 0 
-0.78393 -1.49997 0 
-0.860785 -1.36814 0 
-0.395821 -1.10839 0 
-0.301554 -1.87287 0 
-0.278782 -0.634371 0 
-0.644396 -1.64401 0 
2.77517e-05 -0.28161 0 
-0.359689 -1.02536 0 
-0.533434 -0.589145 0 
-0.607724 -0.542786 0 
-0.19998 -0.930632 0 
-0.433178 -1.11154 0 
-0.976259 -1.03895 0 
-1.1298 -1.0792 0 
-0.162723 -1.50027 0 
-0.324739 -1.66877 0 
-0.788037 -1.01852 0 
-1.22615 -1.46695 0 
-0.632826 -1.69619 0 
-0.78937 -2.08755 0 
-1.06414 -1.1951 0 
-0.609926 -1.4285 0 
-0.685984 -0.360569 0 
-0.832503 -0.722571 0 
-1.22568 -0.372143 0 
-1.35143 -0.852331 0 
-0.80715 -1.30641 0 
-0.529264 -1.0021 0 
-1.15189 -0.772298 0 
-1.05314 -1.01764 0 
-0.5178 -0.958241 0 
-0.834309 -1.67032 0 
-1.32013 -1.29666 0 
-1.28313 -1.20287 0 
-0.306512 -1.46619 0 
-1.01872 -1.88216 0 
-1.37554 -1.35357 0 
-1.22105 -1.61287 0 
SCALARS mass double 1
LOOKUP_TABLE default
0.625
0.625
0.625
0.625
0.625
0.625
0.625
0.625
0.625
0.625
0.625
0.625
0.625
0.625
0.625
0.625
0.625
0.625
0.625
0.625
0.625
0.625
0.625
0.625
0.625
0.625
0.625
0.625
0.625
0.625
0.625
0.625
0.625
0.625
0.625
0.625
0.625
0.625
0.625
0.625
0.625
0.625
0.625
0.625
0.625
0.625
0.625
0.625
0.625
0.625
0.625
0.625
0.625
0.625
0.625
0.625
0.625
0.625
0.625
0.625
0.625
0.625
0.625
0.625
SCALARS volume double 1
LOOKUP_TABLE default
0.000574486
0.000527399
0.000620901
0.000583629
0.000534749
0.000559311
0.000541732
0.000587476
0.000517944
0.000515243
0.000571361
0.000583198
0.000547453
0.000529271
0.000616602
0.000617754
0.000551591
0.00055476
0.000617069
0.000613677
0.000563822
0.000625856
0.000569423
0.000579368
0.000617594
0.000578522
0.00059727
0.000624508
0.00063129
0.000613418
0.00060121
0.000616784
0.000611374
0.00060582
0.000614335
0.000603284
0.000625899
0.000618437
0.000637865
0.000603844
0.000641196
0.000653277
0.000617202
0.000620251
0.000629616
0.000630492
0.000659057
0.000632611
0.000618754
0.000629078
0.000628519
0.000617451
0.000625887
0.000622399
0.000623942
0.000616473
0.000637086
0.000636102
0.00064561
0.000608846
0.00063709
0.000626569
0.000638982
0.000634142
VECTORS momentum double
0.419366 -0.187012 0 
-0.201219 0.0289237 0 
0.338771 -0.309797 0 
-0.18085 -0.227172 0 
0.242011 -0.0534908 0 
-0.761978 -0.15693 0 
0.329065 -0.426813 0 
-0.0154631 -0.164874 0 
-0.130274 -0.418128 0 
-0.0241538 -0.330073 0 
0.229106 -0.139254 0 
-0.209343 -0.180216 0 
-0.237767 -0.435267 0 
-0.216954 -0.845772 0 
-0.332567 -0.489232 0 
-0.524783 -1.01819 0 
0.137973 -0.209776 0 
-0.140716 -0.410934 0 
0.0247537 -0.157067 0 
-0.220149 -0.709149 0 
0.226291 -0.424724 0 
0.105804 -0.433306 0 
-0.0670339 -0.550775 0 
-0.42867 -0.645769 0 
-0.129628 -0.645174 0 
-0.451397 -0.766074 0 
-0.489956 -0.93748 0 
-0.537991 -0.855087 0 
-0.247388 -0.692744 0 
-0.188472 -1.17055 0 
-0.174239 -0.396482 0 
-0.402747 -1.02751 0 
1.73448e-05 -0.176006 0 
-0.224806 -0.640853 0 
-0.333396 -0.368216 0 
-0.379828 -0.339241 0 
-0.124987 -0.581645 0 
-0.270736 -0.694715 0 
-0.610162 -0.649346 0 
-0.706123 -0.674503 0 
-0.101702 -0.937669 0 
-0.202962 -1.04298 0 
-0.492523 -0.636574 0 
-0.766343 -0.916844 0 
-0.395516 -1.06012 0 
-0.493356 -1.30472 0 
-0.665087 -0.746937 0 
-0.381204 -0.892813 0 
-0.42874 -0.225356 0 
-0.520315 -0.451607 0 
-0.76605 -0.232589 0 
-0.844645 -0.532707 0 
-0.504469 -0.816506 0 
-0.33079 -0.626311 0 
-0.719929 -0.482687 0 
-0.658215 -0.636025 0 
-0.323625 -0.5989 0 
-0.521443 -1.04395 0 
-0.82508 -0.81041 0 
-0.801956 -0.751792 0 
-0.19157 -0.91637 0 
-0.636702 -1.17635 0 
-0.859713 -0.84598 0 
-0.763159 -1.00804 0 
VECTORS body_force double
0 -9.81 0 
0 -9.81 0 
0 -9.81 0 
0 -9.81 0 
0 -9.81 0 
0 -9.81 0 
0 -9.81 0 
0 -9.81 0 
0 -9.81 0 
0 -9.81 0 
0 -9.81 0 
0 -9.81 0 
0 -9.81 0 
0 -9.81 0 
0 -9.81 0 
0 -9.81 0 
0 -9.81 0 
0 -9.81 0 
0 -9.81 0 
0 -9.81 0 
0 -9.81 0 
0 -9.81 0 
0 -9.81 0 
0 -9.81 0 
0 -9.81 0 
0 -9.81 0 
0 -9.81 0 
0 -9.81 0 
0 -9.81 0 
0 -9.81 0 
0 -9.81 0 
0 -9.81 0 
0 -9.81 0 
0 -9.81 0 
0 -9.81 0 
0 -9.81 0 
0 -9.81 0 
0 -9.81 0 
0 -9.81 0 
0 -9.81 0 
0 -9.81 0 
0 -9.81 0 
0 -9.81 0 
0 -9.81 0 
0 -9.81 0 
0 -9.81 0 
0 -9.81 0 
0 -9.81 0 
0 -9.81 0 
0 -9.81 0 
0 -9.81 0 
0 -9.81 0 
0 -9.81 0 
0 -9.81 0 
0 -9.81 0 
0 -9.81 0 
0 -9.81 0 
0 -9.81 0 
0 -9.81 0 
0 -9.81 0 
0 -9.81 0 
0 -9.81 0 
0 -9.81 0 
0 -9.81 0 
TENSORS cauchy_stress double
8984.46 11930.2 0
11930.2 -25191.5 0
0 0 -4862.12

-10147.4 2219.92 0
2219.92 -22505.4 0
0 0 -9795.84

1274.91 -1460.53 0
-1460.53 -2540.3 0
0 0 -379.617

-4533.92 1380.65 0
1380.65 -8636.37 0
0 0 -3951.09

-7843.76 7999.28 0
7999.28 -22147.6 0
0 0 -8997.4

-1642.81 2223.44 0
2223.44 -19712.1 0
0 0 -6406.48

-9872.97 7618.02 0
7618.02 -17623.1 0
0 0 -8248.81

-735.665 -6884.14 0
-6884.14 -11171.2 0
0 0 -3572.05

-15786.8 3024.34 0
3024.34 -20344.9 0
0 0 -10839.5

-10174.7 2813.74 0
2813.74 -26962.5 0
0 0 -11141.1

-4220.51 1896.91 0
1896.91 -13035.2 0
0 0 -5176.71

-4590.96 1726.98 0
1726.98 -8721.62 0
0 0 -3993.78

-5717.44 1948.61 0
1948.61 -19758.7 0
0 0 -7642.83

-11528.7 1360.87 0
1360.87 -20442.7 0
0 0 -9591.43

-772.019 80.1465 0
80.1465 -1829.39 0
0 0 -780.422

-3739.44 3616.53 0
3616.53 1496.89 0
0 0 -672.766

-12426.4 1189.52 0
1189.52 -11601.4 0
0 0 -7208.33

-4122.25 -2167.62 0
-2167.62 -18804 0
0 0 -6877.87

1911.53 -492.908 0
-492.908 -4367.35 0
0 0 -736.745

6278.7 -3587.45 0
-3587.45 -9794.69 0
0 0 -1054.8

-6973.35 4985.55 0
4985.55 -12837 0
0 0 -5943.11

-1327.68 -6687.25 0
-6687.25 1590.77 0
0 0 78.9276

-4596.75 4080.15 0
4080.15 -13312.6 0
0 0 -5372.81

-5598.86 -1570.02 0
-1570.02 -8980.8 0
0 0 -4373.9

18.0813 -3872.2 0
-3872.2 -2310.58 0
0 0 -687.751

-9576.83 4274.61 0
4274.61 -5283.85 0
0 0 -4458.21

-2260.67 7356.78 0
7356.78 -6466.68 0
0 0 -2618.21

3969.83 4129.36 0
4129.36 -4121.32 0
0 0 -45.448

2825.14 -747.535 0
-747.535 -899.572 0
0 0 577.672

-3214.01 2637.25 0
2637.25 -382.987 0
0 0 -1079.1

-2398.86 402.674 0
402.674 -5064.2 0
0 0 -2238.92

-658.428 475.105 0
475.105 -1886.45 0
0 0 -763.462

-936.873 -3039.83 0
-3039.83 -3302.02 0
0 0 -1271.67

1048.55 -1999.01 0
-1999.01 -7042.59 0
0 0 -1798.21

-198.758 -2030.88 0
-2030.88 -3111.23 0
0 0 -992.997

-3114.9 792.489 0
792.489 -3685.73 0
0 0 -2040.19

3883.48 -334.044 0
-334.044 -3607.08 0
0 0 82.9197

-4334.93 -5683.48 0
-5683.48 2304.81 0
0 0 -609.035

2889.61 2136.66 0
2136.66 1028.59 0
0 0 1175.46

1476.07 1780.77 0
1780.77 -8098.22 0
0 0 -1986.64

5279.41 -2943.76 0
-2943.76 -359.463 0
0 0 1475.99

3298.06 -5480.29 0
-5480.29 5211.39 0
0 0 2552.84

2988.34 6742.03 0
6742.03 -5402.84 0
0 0 -724.352

-3592.62 3455.11 0
3455.11 2125.93 0
0 0 -440.005

336.317 -2225.11 0
-2225.11 1078.74 0
0 0 424.518

2229.4 1213.71 0
1213.71 -547.051 0
0 0 504.705

8365.51 3840.05 0
3840.05 1838.04 0
0 0 3061.06

1126.11 -882.932 0
-882.932 1201.61 0
0 0 698.318

1188.77 -1211.75 0
-1211.75 -3120.2 0
0 0 -579.428

2328.4 -279.046 0
-279.046 -1077.73 0
0 0 375.2

1078.45 71.9764 0
71.9764 1.37972 0
0 0 323.949

-842.866 96.9349 0
96.9349 -1493.95 0
0 0 -701.044

2374.08 -48.3612 0
-48.3612 -2101.35 0
0 0 81.8207

-775.302 -5798 0
-5798 -26.5915 0
0 0 -240.568

1191 1253.44 0
1253.44 -1516.89 0
0 0 -97.7675

-1558.32 -2059.07 0
-2059.07 -1083.5 0
0 0 -792.547

3343.88 -686.587 0
-686.587 339.313 0
0 0 1104.96

-4502.97 -5016 0
-5016 7888.96 0
0 0 1015.8

4602.52 4423.88 0
4423.88 1636.64 0
0 0 1871.75

-2018.77 545.997 0
545.997 -3017.2 0
0 0 -1510.79

1481.62 -1903.42 0
-1903.42 2202.95 0
0 0 1105.37

-373.717 -1351.98 0
-1351.98 855.969 0
0 0 144.676

1094.67 2537.61 0
2537.61 3160.18 0
0 0 1276.45

-47.2201 -427.875 0
-427.875 2839.87 0
0 0 837.794

TENSORS velocity_gradient double
2.75052 5.30976 0
-1.55081 -7.43391 0
0 0 0

4.38397 2.68927 0
-0.161043 -7.10513 0
0 0 0

2.52521 -5.90112 0
-0.81209 -3.3626 0
0 0 0

4.24481 -4.22596 0
1.32391 -6.50045 0
0 0 0

3.87923 0.0405457 0
1.707 -7.28276 0
0 0 0

3.89113 -2.35487 0
1.7176 -8.33933 0
0 0 0

4.62042 -2.77827 0
2.52895 -8.87707 0
0 0 0

4.76666 -2.90462 0
3.00139 -10.6924 0
0 0 0

2.97141 -4.45007 0
5.68056 -9.92976 0
0 0 0

2.80397 -6.16417 0
5.36045 -13.2067 0
0 0 0

3.47951 -3.0768 0
5.12322 -11.7348 0
0 0 0

3.29079 -2.84395 0
5.59176 -10.1621 0
0 0 0

4.14554 -8.18482 0
7.82866 -17.0521 0
0 0 0

4.15769 -10.5037 0
7.85161 -21.4312 0
0 0 0

3.40624 -2.11011 0
9.34891 -8.90667 0
0 0 0

3.42451 -0.0671662 0
9.40048 -9.25767 0
0 0 0

2.24148 -5.93672 0
3.23337 -3.64422 0
0 0 0

2.50013 -4.19863 0
3.73749 -6.53825 0
0 0 0

1.77011 -9.71084 0
6.01484 -1.91118 0
0 0 0

1.6265 -10.04 0
5.44339 -2.80091 0
0 0 0

4.45196 -2.75477 0
4.343 -8.93882 0
0 0 0

5.02088 -2.89924 0
4.58151 -10.6589 0
0 0 0

3.07707 -10.1887 0
5.61206 -3.63575 0
0 0 0

4.15303 -8.33158 0
5.75691 -4.35684 0
0 0 0

3.45437 -3.07639 0
4.09813 -11.7344 0
0 0 0

3.0697 -2.85748 0
4.1031 -10.2532 0
0 0 0

3.12194 -6.21633 0
4.51168 -5.01612 0
0 0 0

2.35344 -4.87336 0
3.30659 -5.25799 0
0 0 0

1.71299 -2.24473 0
8.36292 -8.97894 0
0 0 0

1.00714 -0.408257 0
9.77137 -8.68433 0
0 0 0

1.07938 -3.8195 0
6.3707 -5.05172 0
0 0 0

0.308243 -3.46709 0
8.05101 -2.99643 0
0 0 0

1.13668 -9.74139 0
7.01342 -1.79963 0
0 0 0

2.07128 -9.96441 0
6.17857 -2.67605 0
0 0 0

0.204667 -10.602 0
7.56225 -0.953641 0
0 0 0

2.05145 -9.3358 0
6.81926 -0.8226 0
0 0 0

2.17397 -10.3069 0
6.27399 -3.52684 0
0 0 0

2.00954 -8.60088 0
6.45305 -4.26939 0
0 0 0

1.983 -7.29453 0
6.85399 -0.370705 0
0 0 0

0.310982 -6.03461 0
6.53777 0.237247 0
0 0 0

1.62506 -6.44196 0
5.75074 -4.95698 0
0 0 0

1.16387 -5.08048 0
3.47816 -5.22812 0
0 0 0

0.283441 -5.08477 0
6.20914 1.00224 0
0 0 0

0.561579 -4.86247 0
4.08567 0.51817 0
0 0 0

0.768356 -3.93589 0
4.22477 -5.22706 0
0 0 0

0.0538854 -3.50324 0
5.80211 -3.316 0
0 0 0

0.557751 -4.83466 0
4.21274 -0.405058 0
0 0 0

0.115207 -4.95902 0
4.74585 -0.160734 0
0 0 0

-0.269741 -11.0138 0
7.03792 -0.762899 0
0 0 0

0.259464 -9.51914 0
6.79479 -0.42432 0
0 0 0

-0.679653 -8.4664 0
6.25732 -0.315294 0
0 0 0

-1.48019 -6.51914 0
6.70622 0.640192 0
0 0 0

-0.0952796 -7.58268 0
6.78224 -0.35582 0
0 0 0

-0.536047 -6.13874 0
5.83204 0.15049 0
0 0 0

-1.61907 -5.36311 0
6.68489 1.16198 0
0 0 0

-0.358599 -6.5123 0
5.49348 1.01134 0
0 0 0

-0.61545 -5.1639 0
5.76588 0.962702 0
0 0 0

0.53261 -4.86513 0
5.04726 0.606321 0
0 0 0

-0.023703 -8.57527 0
5.55636 0.624029 0
0 0 0

0.131062 -9.15162 0
5.23181 0.584331 0
0 0 0

0.530064 -4.83827 0
5.13176 -0.28533 0
0 0 0

0.255799 -5.01573 0
4.18343 -0.209556 0
0 0 0

0.117933 -8.59719 0
5.22635 0.814855 0
0 0 0

-1.12498 -7.35771 0
4.41182 0.670201 0
0 0 0

SCALARS active double 1
LOOKUP_TABLE default
1
1
1
1
1
1
1
1
1
1
1
1
1
1
1
1
1
1
1
1
1
1
1
1
1
1
1
1
1
1
1
1
1
1
1
1
1
1
1
1
1
1
1
1
1
1
1
1
1
1
1
1
1
1
1
1
1
1
1
1
1
1
1
1
SCALARS extent double 1
LOOKUP_TABLE default
0.0125
0.0125
0.0125
0.0125
0.0125
0.0125
0.0125
0.0125
0.0125
0.0125
0.0125
0.0125
0.0125
0.0125
0.0125
0.0125
0.0125
0.0125
0.0125
0.0125
0.0125
0.0125
0.0125
0.0125
0.0125
0.0125
0.0125
0.0125
0.0125
0.0125
0.0125
0.0125
0.0125
0.0125
0.0125
0.0125
0.0125
0.0125
0.0125
0.0125
0.0125
0.0125
0.0125
0.0125
0.0125
0.0125
0.0125
0.0125
0.0125
0.0125
0.0125
0.0125
0.0125
0.0125
0.0125
0.0125
0.0125
0.0125
0.0125
0.0125
0.0125
0.0125
0.0125
0.0125
SCALARS pressure double 1
LOOKUP_TABLE default
7023.06
14149.5
548.336
5707.13
12996.2
9253.8
11914.9
5159.62
15657.1
16092.8
7477.46
5768.79
11039.6
13854.3
1127.28
971.773
10412
9934.7
1064.19
1523.59
8584.49
-114.007
7760.73
6317.85
993.418
6439.63
3781.85
65.6472
-834.414
1558.7
3233.99
1102.78
1836.85
2597.42
1434.33
2946.94
-119.773
879.718
-1697.89
2869.6
-2131.98
-3687.43
1046.29
635.563
-613.192
-729.019
-4421.54
-1008.68
836.952
-541.956
-467.927
1012.62
-118.185
347.487
141.22
1144.79
-1596.05
-1467.27
-2703.64
2182.25
-1596.65
-208.976
-1843.77
-1210.15
SCALARS density double 1
LOOKUP_TABLE default
1087.93
1185.06
1006.6
1070.89
1168.77
1117.45
1153.71
1063.87
1206.69
1213.02
1093.88
1071.68
1141.65
1180.87
1013.62
1011.73
1133.09
1126.61
1012.85
1018.45
1108.51
998.633
1097.6
1078.76
1011.99
1080.34
1046.43
1000.79
990.037
1018.88
1039.57
1013.32
1022.29
1031.66
1017.36
1036
998.564
1010.61
979.832
1035.03
974.741
956.716
1012.63
1007.66
992.669
991.29
948.325
987.969
1010.09
993.518
994.401
1012.23
998.583
1004.18
1001.7
1013.83
981.03
982.547
968.077
1026.53
981.023
997.495
978.118
985.583
