# vtk DataFile Version 3.0
Frame: 34, Time: 0.567
ASCII
DATASET UNSTRUCTURED_GRID
POINTS 64 double
0.922444 0.456746 0 
0.918921 0.431094 0 
0.89551 0.461452 0 
0.892131 0.435276 0 
0.915461 0.405091 0 
0.914697 0.37755 0 
0.890432 0.409349 0 
0.889381 0.382802 0 
0.912362 0.351195 0 
0.908188 0.325549 0 
0.887187 0.357107 0 
0.884862 0.331569 0 
0.909763 0.300463 0 
0.915043 0.278294 0 
0.885075 0.304712 0 
0.885322 0.278949 0 
0.868796 0.462386 0 
0.867077 0.437437 0 
0.841856 0.460901 0 
0.841263 0.434191 0 
0.866304 0.411766 0 
0.864875 0.386486 0 
0.840235 0.408464 0 
0.838705 0.383394 0 
0.862218 0.36052 0 
0.861269 0.334917 0 
0.836962 0.358493 0 
0.836762 0.333689 0 
0.860683 0.307443 0 
0.859611 0.279941 0 
0.837507 0.307956 0 
0.838245 0.27982 0 
0.815225 0.460912 0 
0.8135 0.435234 0 
0.788694 0.460199 0 
0.786473 0.434477 0 
0.816148 0.409531 0 
0.812364 0.383717 0 
0.790461 0.408973 0 
0.786409 0.384737 0 
0.810217 0.357654 0 
0.811576 0.332513 0 
0.784751 0.357798 0 
0.786735 0.331741 0 
0.812508 0.307269 0 
0.815068 0.280203 0 
0.786453 0.305658 0 
0.791397 0.278794 0 
0.763163 0.457489 0 
0.761791 0.432486 0 
0.73652 0.458756 0 
0.735592 0.433403 0 
0.764577 0.407725 0 
0.761394 0.380942 0 
0.738685 0.406931 0 
0.736502 0.379881 0 
0.76073 0.354742 0 
0.76248 0.327729 0 
0.735945 0.355072 0 
0.737409 0.326567 0 
0.7618 0.300295 0 
0.767954 0.274533 0 
0.737638 0.297954 0 
0.744211 0.27139 0 
CELLS 64 128
1 0
1 1
1 2
1 3
1 4
1 5
1 6
1 7
1 8
1 9
1 10
1 11
1 12
1 13
1 14
1 15
1 16
1 17
1 18
1 19
1 20
1 21
1 22
1 23
1 24
1 25
1 26
1 27
1 28
1 29
1 30
1 31
1 32
1 33
1 34
1 35
1 36
1 37
1 38
1 39
1 40
1 41
1 42
1 43
1 44
1 45
1 46
1 47
1 48
1 49
1 50
1 51
1 52
1 53
1 54
1 55
1 56
1 57
1 58
1 59
1 60
1 61
1 62
1 63
CELL_TYPES 64
1
1
1
1
1
1
1
1
1
1
1
1
1
1
1
1
1
1
1
1
1
1
1
1
1
1
1
1
1
1
1
1
1
1
1
1
1
1
1
1
1
1
1
1
1
1
1
1
1
1
1
1
1
1
1
1
1
1
1
1
1
1
1
1
POINT_DATA 64
VECTORS displacement double
0.409944 -0.155754 0 
0.406421 -0.206406 0 
0.35801 -0.151048 0 
0.354631 -0.202224 0 
0.402961 -0.257409 0 
0.402197 -0.30995 0 
0.352932 -0.253151 0 
0.351881 -0.304698 0 
0.399862 -0.361305 0 
0.395688 -0.411951 0 
0.349687 -0.355393 0 
0.347362 -0.405931 0 
0.397263 -0.462037 0 
0.402543 -0.509206 0 
0.347575 -0.457788 0 
0.347822 -0.508551 0 
0.306296 -0.150114 0 
0.304577 -0.200063 0 
0.254356 -0.151599 0 
0.253763 -0.203309 0 
0.303804 -0.250734 0 
0.302375 -0.301014 0 
0.252735 -0.254036 0 
0.251205 -0.304106 0 
0.299718 -0.35198 0 
0.298769 -0.402583 0 
0.249462 -0.354007 0 
0.249262 -0.403811 0 
0.298183 -0.455057 0 
0.297111 -0.507559 0 
0.250007 -0.454544 0 
0.250745 -0.50768 0 
0.202725 -0.151588 0 
0.201 -0.202266 0 
0.151194 -0.152301 0 
0.148973 -0.203023 0 
0.203648 -0.252969 0 
0.199864 -0.303783 0 
0.152961 -0.253527 0 
0.148909 -0.302763 0 
0.197717 -0.354846 0 
0.199076 -0.404987 0 
0.147251 -0.354702 0 
0.149235 -0.405759 0 
0.200008 -0.455231 0 
0.202568 -0.507297 0 
0.148953 -0.456842 0 
0.153897 -0.508706 0 
0.100663 -0.155011 0 
0.0992906 -0.205014 0 
0.0490196 -0.153744 0 
0.0480921 -0.204097 0 
0.102077 -0.254775 0 
0.0988943 -0.306558 0 
0.0511846 -0.255569 0 
0.0490017 -0.307619 0 
0.0982301 -0.357758 0 
0.0999802 -0.409771 0 
0.0484449 -0.357428 0 
0.0499093 -0.410933 0 
0.0992996 -0.462205 0 
0.105454 -0.512967 0 
0.0501376 -0.464546 0 
0.0567107 -0.51611 0 
VECTORS velocity double
-2.28223 2.01957 0 
-2.51255 1.52395 0 
-2.12742 1.70223 0 
-2.17291 1.74026 0 
-1.95774 1.25137 0 
-1.02305 0.873307 0 
-2.1045 1.38205 0 
-1.39904 0.933297 0 
-1.09309 0.829194 0 
-1.5802 0.526809 0 
-1.13916 1.43294 0 
-1.26012 1.15813 0 
-1.04466 0.777157 0 
-1.05325 0.0554653 0 
-0.783752 1.4612 0 
-2.78794 1.8863 0 
-1.8006 0.67875 0 
-1.6589 0.470773 0 
-2.62698 1.34497 0 
-2.10154 1.01675 0 
-1.36664 0.663623 0 
-0.76722 0.129057 0 
-2.32719 0.784656 0 
-1.87824 0.307183 0 
-0.748032 0.793251 0 
-0.990701 1.06707 0 
-1.56424 0.274098 0 
-2.05943 0.683493 0 
-0.563002 1.12756 0 
-1.37913 0.453819 0 
-1.02006 0.782119 0 
-0.569099 -0.0846006 0 
-2.06085 1.11216 0 
-1.42736 0.982971 0 
-1.41375 0.469397 0 
-1.21779 0.722061 0 
-1.66818 0.651564 0 
-1.47265 0.694085 0 
-1.23019 0.247319 0 
-0.968492 0.445748 0 
-0.750601 0.536981 0 
-1.8816 0.546391 0 
-0.505279 0.0340992 0 
-1.50637 0.419975 0 
-1.0694 0.574947 0 
-0.193596 0.0583249 0 
-1.19976 0.673246 0 
-0.354651 0.330616 0 
-1.09319 0.103603 0 
-1.22916 0.222849 0 
-1.39668 0.44334 0 
-1.21278 0.713727 0 
-0.666875 0.276974 0 
-0.443031 0.443071 0 
-0.724682 0.686703 0 
-0.722974 0.594025 0 
-0.5861 0.5713 0 
-1.39829 0.576202 0 
-0.473601 0.826102 0 
-0.73377 0.121907 0 
-0.77816 0.397299 0 
-0.00844665 0.323115 0 
-1.07537 -0.35071 0 
-0.18323 0.0846652 0 
SCALARS mass double 1
LOOKUP_TABLE default
0.625
0.625
0.625
0.625
0.625
0.625
0.625
0.625
0.625
0.625
0.625
0.625
0.625
0.625
0.625
0.625
0.625
0.625
0.625
0.625
0.625
0.625
0.625
0.625
0.625
0.625
0.625
0.625
0.625
0.625
0.625
0.625
0.625
0.625
0.625
0.625
0.625
0.625
0.625
0.625
0.625
0.625
0.625
0.625
0.625
0.625
0.625
0.625
0.625
0.625
0.625
0.625
0.625
0.625
0.625
0.625
0.625
0.625
0.625
0.625
0.625
0.625
0.625
0.625
SCALARS volume double 1
LOOKUP_TABLE default
0.00063866
0.000628149
0.000650308
0.000627848
0.000660479
0.000629627
0.000610831
0.000617802
0.000644128
0.000611118
0.000626857
0.000573215
0.000630627
0.000636739
0.00058588
0.000661278
0.000626526
0.000632505
0.000664065
0.000670494
0.000626653
0.000651496
0.000613985
0.000616205
0.000628818
0.000620549
0.000617653
0.000619232
0.000613936
0.000566671
0.00061694
0.000577657
0.000626876
0.000678858
0.000635955
0.000649118
0.000609058
0.000644527
0.000628421
0.000622021
0.000640992
0.000581204
0.000625455
0.000583583
0.000638559
0.000587042
0.000655189
0.000587128
0.000617875
0.000589962
0.000629351
0.000628205
0.000619369
0.000587483
0.000634034
0.000623278
0.000629323
0.0006295
0.000631358
0.000663247
0.000596646
0.000617507
0.000648567
0.000630033
VECTORS momentum double
-1.4264 1.26223 0 
-1.57035 0.95247 0 
-1.32964 1.06389 0 
-1.35807 1.08766 0 
-1.22358 0.782108 0 
-0.639405 0.545817 0 
-1.31531 0.863783 0 
-0.874397 0.583311 0 
-0.683184 0.518246 0 
-0.987624 0.329256 0 
-0.711974 0.895588 0 
-0.787574 0.723832 0 
-0.652916 0.485723 0 
-0.658282 0.0346658 0 
-0.489845 0.913248 0 
-1.74246 1.17894 0 
-1.12537 0.424219 0 
-1.03681 0.294233 0 
-1.64186 0.840608 0 
-1.31346 0.63547 0 
-0.854148 0.414764 0 
-0.479513 0.0806606 0 
-1.45449 0.49041 0 
-1.1739 0.191989 0 
-0.46752 0.495782 0 
-0.619188 0.666916 0 
-0.977647 0.171312 0 
-1.28715 0.427183 0 
-0.351876 0.704724 0 
-0.861958 0.283637 0 
-0.63754 0.488825 0 
-0.355687 -0.0528754 0 
-1.28803 0.695098 0 
-0.892098 0.614357 0 
-0.883593 0.293373 0 
-0.761121 0.451288 0 
-1.04262 0.407228 0 
-0.920403 0.433803 0 
-0.768869 0.154574 0 
-0.605308 0.278593 0 
-0.469125 0.335613 0 
-1.176 0.341494 0 
-0.3158 0.021312 0 
-0.941481 0.262485 0 
-0.668376 0.359342 0 
-0.120997 0.0364531 0 
-0.749851 0.420779 0 
-0.221657 0.206635 0 
-0.683242 0.064752 0 
-0.768223 0.13928 0 
-0.872923 0.277087 0 
-0.757985 0.446079 0 
-0.416797 0.173109 0 
-0.276894 0.276919 0 
-0.452926 0.42919 0 
-0.451859 0.371266 0 
-0.366313 0.357062 0 
-0.873932 0.360126 0 
-0.296 0.516314 0 
-0.458607 0.0761917 0 
-0.48635 0.248312 0 
-0.00527916 0.201947 0 
-0.672107 -0.219194 0 
-0.114519 0.0529157 0 
VECTORS body_force double
0 -9.81 0 
0 -9.81 0 
0 -9.81 0 
0 -9.81 0 
0 -9.81 0 
0 -9.81 0 
0 -9.81 0 
0 -9.81 0 
0 -9.81 0 
0 -9.81 0 
0 -9.81 0 
0 -9.81 0 
0 -9.81 0 
0 -9.81 0 
0 -9.81 0 
0 -9.81 0 
0 -9.81 0 
0 -9.81 0 
0 -9.81 0 
0 -9.81 0 
0 -9.81 0 
0 -9.81 0 
0 -9.81 0 
0 -9.81 0 
0 -9.81 0 
0 -9.81 0 
0 -9.81 0 
0 -9.81 0 
0 -9.81 0 
0 -9.81 0 
0 -9.81 0 
0 -9.81 0 
0 -9.81 0 
0 -9.81 0 
0 -9.81 0 
0 -9.81 0 
0 -9.81 0 
0 -9.81 0 
0 -9.81 0 
0 -9.81 0 
0 -9.81 0 
0 -9.81 0 
0 -9.81 0 
0 -9.81 0 
0 -9.81 0 
0 -9.81 0 
0 -9.81 0 
0 -9.81 0 
0 -9.81 0 
0 -9.81 0 
0 -9.81 0 
0 -9.81 0 
0 -9.81 0 
0 -9.81 0 
0 -9.81 0 
0 -9.81 0 
0 -9.81 0 
0 -9.81 0 
0 -9.81 0 
0 -9.81 0 
0 -9.81 0 
0 -9.81 0 
0 -9.81 0 
0 -9.81 0 
TENSORS cauchy_stress double
2725.04 -1240.37 0
-1240.37 1432.69 0
0 0 1247.32

186.877 329.313 0
329.313 779.462 0
0 0 289.902

5392.12 -1151.82 0
-1151.82 2241.5 0
0 0 2290.09

-1656.56 1059.09 0
1059.09 2530.76 0
0 0 262.259

1968.31 1479.61 0
1479.61 8649.66 0
0 0 3185.39

-341.065 -1305 0
-1305 1759.63 0
0 0 425.569

-8375.14 -6663.6 0
-6663.6 3965.13 0
0 0 -1323

-3739.17 -5356.57 0
-5356.57 1511.64 0
0 0 -668.26

-1272.15 1583.38 0
1583.38 7069.36 0
0 0 1739.16

-5488.8 -928.78 0
-928.78 1169.21 0
0 0 -1295.88

-1441.75 -5237.02 0
-5237.02 2012.39 0
0 0 171.192

-15746.5 -6388.69 0
-6388.69 -886.46 0
0 0 -4989.9

3605.73 5952.7 0
5952.7 -1882.1 0
0 0 517.09

758.618 6967.86 0
6967.86 2819.74 0
0 0 1073.51

-9820.77 -2698.98 0
-2698.98 -2609.33 0
0 0 -3729.03

8956.95 -11525.5 0
-11525.5 1893.71 0
0 0 3255.2

6004.56 1898.5 0
1898.5 -5535.68 0
0 0 140.664

1398.41 2157.86 0
2157.86 897.181 0
0 0 688.678

8252.8 3341.4 0
3341.4 3406.36 0
0 0 3497.75

9079.94 1168.2 0
1168.2 4432.2 0
0 0 4053.64

1423.24 6508.44 0
6508.44 -915.389 0
0 0 152.356

3728.58 9314.44 0
9314.44 4255.83 0
0 0 2395.32

-3108.99 6185.29 0
6185.29 -310.503 0
0 0 -1025.85

542.106 2052.2 0
2052.2 -3267.39 0
0 0 -817.586

188.047 8002.2 0
8002.2 983.161 0
0 0 351.363

-3565.02 -1861.8 0
-1861.8 2190.5 0
0 0 -412.355

-497.849 649.684 0
649.684 -1776.27 0
0 0 -682.235

-371.952 -1606.85 0
-1606.85 -1411.14 0
0 0 -534.929

-8119.4 6681.07 0
6681.07 4684.56 0
0 0 -1030.45

-16750.5 7584.59 0
7584.59 -2090.47 0
0 0 -5652.28

-5542.73 -3847.17 0
-3847.17 3046.68 0
0 0 -748.817

-17428.1 -6766.67 0
-6766.67 2279.64 0
0 0 -4544.53

2339.59 -2508.52 0
-2508.52 -1763.2 0
0 0 172.919

11010.2 -4168.19 0
-4168.19 4886.08 0
0 0 4768.87

3056.19 2486.3 0
2486.3 285.311 0
0 0 1002.45

3760.9 -2459.44 0
-2459.44 3520.52 0
0 0 2184.42

-6911.91 -3070.76 0
-3070.76 1942.97 0
0 0 -1490.68

3399.4 4527.15 0
4527.15 2517.07 0
0 0 1774.94

4340.37 2952.1 0
2952.1 -3290.7 0
0 0 314.901

4537.58 7033.43 0
7033.43 -5456.45 0
0 0 -275.662

2620.5 -2509.59 0
-2509.59 2238.19 0
0 0 1457.61

-7303.94 4870.52 0
4870.52 -6667.13 0
0 0 -4191.32

-6447.24 2703.1 0
2703.1 6587.13 0
0 0 41.9667

-7447.52 3051.62 0
3051.62 -5737.95 0
0 0 -3955.64

1058.96 1095.78 0
1095.78 3068.41 0
0 0 1238.21

-10802 1663.74 0
1663.74 -1247.07 0
0 0 -3614.73

3968.18 -3029.29 0
-3029.29 5103.49 0
0 0 2721.5

-11147.4 -5330.89 0
-5330.89 -873.363 0
0 0 -3606.24

816.96 2104.16 0
2104.16 -3021.86 0
0 0 -661.471

-4031.5 -1790.39 0
-1790.39 -7063.39 0
0 0 -3328.46

437.485 -252.899 0
-252.899 896.5 0
0 0 400.196

227.121 -3805.74 0
-3805.74 756.367 0
0 0 295.047

-1535.01 3621.01 0
3621.01 -205.422 0
0 0 -522.129

-10816.9 5110.57 0
5110.57 -1087.64 0
0 0 -3571.38

2175.32 -2594.23 0
-2594.23 584.355 0
0 0 827.902

-1237.71 4285.35 0
4285.35 707.198 0
0 0 -159.152

-3038.07 -2075.73 0
-2075.73 4363.67 0
0 0 397.68

-4321.78 6605.65 0
6605.65 5701.44 0
0 0 413.895

-2167.73 -203.559 0
-203.559 4114.1 0
0 0 583.91

2391.73 -677.551 0
-677.551 9030.62 0
0 0 3426.71

-7734.11 1440.86 0
1440.86 -1194.39 0
0 0 -2678.55

-4473.37 1537.25 0
1537.25 2153.75 0
0 0 -695.886

-329.125 476.55 0
476.55 7447.28 0
0 0 2135.45

1093.45 -5486.42 0
-5486.42 448.985 0
0 0 462.732

TENSORS velocity_gradient double
-7.23716 2.36509 0
8.30936 1.44042 0
0 0 0

-6.90382 -9.8403 0
6.02317 9.22567 0
0 0 0

-0.53409 1.24463 0
8.34954 1.15753 0
0 0 0

1.04575 -8.95697 0
8.60696 6.69665 0
0 0 0

-5.76906 -10.0459 0
2.88067 7.90677 0
0 0 0

-2.85361 -11.4715 0
-1.06231 3.95873 0
0 0 0

1.43903 -8.93798 0
8.57961 6.67215 0
0 0 0

2.18422 -9.16669 0
7.97616 1.26086 0
0 0 0

-0.185113 -4.65588 0
-5.38441 3.4264 0
0 0 0

-0.955097 2.16956 0
-12.2202 2.08723 0
0 0 0

3.14519 -9.01505 0
7.16167 1.17021 0
0 0 0

0.949967 -0.0729273 0
6.36771 -1.00847 0
0 0 0

-0.434811 4.90702 0
-18.9424 1.30433 0
0 0 0

8.93047 4.58056 0
-23.0036 1.10201 0
0 0 0

-2.63229 1.72445 0
5.83588 -0.56469 0
0 0 0

-9.23084 8.93502 0
9.99716 1.09468 0
0 0 0

2.41819 -1.73618 0
8.33117 2.02853 0
0 0 0

1.23836 -8.77319 0
8.66748 6.6 0
0 0 0

-13.8141 -4.43044 0
6.68829 2.65445 0
0 0 0

-12.3542 -7.72698 0
5.52762 6.12638 0
0 0 0

1.42042 -8.76608 0
8.58776 6.59688 0
0 0 0

2.03794 -8.24532 0
8.0993 0.485233 0
0 0 0

-8.95262 -7.5624 0
3.98019 6.05151 0
0 0 0

-6.88162 -7.03675 0
3.84365 0.153865 0
0 0 0

3.01635 -8.13731 0
7.27566 0.394312 0
0 0 0

1.39056 -3.03497 0
6.47593 -1.73601 0
0 0 0

-5.38627 -6.92091 0
4.32703 0.19131 0
0 0 0

-4.38995 -4.23341 0
5.24167 -1.57991 0
0 0 0

-2.06923 -3.11925 0
5.62612 -1.75671 0
0 0 0

-8.87322 1.46683 0
9.73862 6.49365 0
0 0 0

-3.5947 -4.2531 0
6.40011 -1.6086 0
0 0 0

-7.27697 -3.66213 0
5.24759 7.9605 0
0 0 0

-14.0467 -5.83251 0
6.66532 2.31219 0
0 0 0

-12.5131 -3.98727 0
5.59989 4.42514 0
0 0 0

-4.55439 -6.41854 0
4.85981 1.81605 0
0 0 0

-5.91643 -3.23228 0
2.92116 2.24508 0
0 0 0

-9.10677 -4.3292 0
4.05032 4.58069 0
0 0 0

-6.90713 -5.4433 0
3.8354 0.668963 0
0 0 0

-8.51252 -2.83038 0
0.282013 2.65366 0
0 0 0

-8.23681 -3.71967 0
-0.805974 0.767831 0
0 0 0

-5.3429 -5.30506 0
4.34105 0.713649 0
0 0 0

-4.35774 -3.45288 0
5.2886 -0.442922 0
0 0 0

-6.28973 -3.59168 0
-1.16607 0.74416 0
0 0 0

-4.486 -2.22413 0
0.699165 1.41867 0
0 0 0

-3.57843 -3.47902 0
6.42381 -0.481001 0
0 0 0

-7.18214 -8.0652 0
5.28351 6.29305 0
0 0 0

-2.72508 -2.85538 0
3.33087 1.63824 0
0 0 0

-1.47481 -10.7351 0
1.66268 4.30086 0
0 0 0

-4.47892 -5.66841 0
4.78699 1.09227 0
0 0 0

-6.11219 -5.76639 0
2.72216 -0.33106 0
0 0 0

0.272876 -4.98352 0
0.618759 -0.0211503 0
0 0 0

0.28245 -7.21701 0
-0.536237 -2.19941 0
0 0 0

-8.63906 -5.49433 0
0.153379 -0.0544864 0
0 0 0

-7.96096 -1.89479 0
-0.85699 0.430338 0
0 0 0

0.0199132 -7.18829 0
-1.58583 -2.08463 0
0 0 0

-2.00052 -2.21027 0
-1.38892 0.543245 0
0 0 0

-6.07119 -1.62013 0
-1.08921 1.01726 0
0 0 0

-4.21495 -0.564088 0
1.11715 3.97872 0
0 0 0

-4.22012 -1.8089 0
-0.703588 1.55441 0
0 0 0

-3.37022 1.0476 0
3.83897 7.66499 0
0 0 0

-2.43824 -5.02185 0
3.3228 2.58558 0
0 0 0

-1.30283 -9.7754 0
1.20697 1.75774 0
0 0 0

-1.89369 -5.68048 0
8.97429 3.17118 0
0 0 0

-1.5242 -8.98767 0
11.1732 0.436879 0
0 0 0

SCALARS active double 1
LOOKUP_TABLE default
1
1
1
1
1
1
1
1
1
1
1
1
1
1
1
1
1
1
1
1
1
1
1
1
1
1
1
1
1
1
1
1
1
1
1
1
1
1
1
1
1
1
1
1
1
1
1
1
1
1
1
1
1
1
1
1
1
1
1
1
1
1
1
1
SCALARS extent double 1
LOOKUP_TABLE default
0.0125
0.0125
0.0125
0.0125
0.0125
0.0125
0.0125
0.0125
0.0125
0.0125
0.0125
0.0125
0.0125
0.0125
0.0125
0.0125
0.0125
0.0125
0.0125
0.0125
0.0125
0.0125
0.0125
0.0125
0.0125
0.0125
0.0125
0.0125
0.0125
0.0125
0.0125
0.0125
0.0125
0.0125
0.0125
0.0125
0.0125
0.0125
0.0125
0.0125
0.0125
0.0125
0.0125
0.0125
0.0125
0.0125
0.0125
0.0125
0.0125
0.0125
0.0125
0.0125
0.0125
0.0125
0.0125
0.0125
0.0125
0.0125
0.0125
0.0125
0.0125
0.0125
0.0125
0.0125
SCALARS pressure double 1
LOOKUP_TABLE default
-1801.68
-418.747
-3307.9
-378.818
-4601.12
-614.711
1911.01
965.265
-2512.13
1871.83
-247.278
7207.63
-746.907
-1550.62
5386.38
-4701.95
-203.182
-994.757
-5052.31
-5855.26
-220.07
-3459.91
1481.78
1180.96
-507.524
595.623
985.45
772.675
1488.43
8164.41
1081.62
6564.33
-249.773
-6888.37
-1447.98
-3155.28
2153.21
-2563.8
-454.857
398.178
-2105.43
6054.13
-60.6186
5713.7
-1788.53
5221.28
-3931.06
5209.01
955.458
4807.78
-578.06
-426.178
754.186
5158.65
-1195.86
229.887
-574.427
-597.849
-843.426
-4949.69
3869.02
1005.17
-3084.53
-668.39
SCALARS density double 1
LOOKUP_TABLE default
978.612
994.988
961.083
995.464
946.283
992.651
1023.2
1011.65
970.304
1022.72
997.037
1090.34
991.077
981.565
1066.77
945.139
997.565
988.134
941.174
932.149
997.363
959.331
1017.94
1014.27
993.928
1007.17
1011.9
1009.32
1018.02
1102.93
1013.06
1081.96
997.007
920.664
982.774
962.844
1026.18
969.703
994.557
1004.79
975.051
1075.35
999.273
1070.97
978.766
1064.66
953.923
1064.5
1011.53
1059.39
993.087
994.899
1009.09
1063.86
985.752
1002.76
993.131
992.851
989.93
942.333
1047.52
1012.14
963.662
992.011
