# vtk DataFile Version 3.0
Frame: 18, Time: 0.3
ASCII
DATASET UNSTRUCTURED_GRID
POINTS 64 double
0.511645 0.180246 0 
0.511674 0.201666 0 
0.537767 0.178878 0 
0.537671 0.200533 0 
0.511766 0.223336 0 
0.511914 0.245878 0 
0.537549 0.222652 0 
0.537481 0.245498 0 
0.512107 0.269362 0 
0.512265 0.293255 0 
0.537468 0.269131 0 
0.537468 0.293128 0 
0.51236 0.317721 0 
0.512431 0.342372 0 
0.537482 0.317639 0 
0.537497 0.34232 0 
0.563981 0.177165 0 
0.563463 0.199285 0 
0.590343 0.175081 0 
0.58907 0.197917 0 
0.563139 0.221845 0 
0.562899 0.245006 0 
0.58854 0.220919 0 
0.588169 0.244402 0 
0.562741 0.268825 0 
0.562626 0.292955 0 
0.587924 0.268442 0 
0.58774 0.292738 0 
0.562579 0.317528 0 
0.562552 0.34225 0 
0.587652 0.317388 0 
0.587597 0.34216 0 
0.615461 0.172541 0 
0.614279 0.196221 0 
0.639469 0.169604 0 
0.639099 0.194213 0 
0.613726 0.21984 0 
0.613317 0.243757 0 
0.638708 0.218612 0 
0.638348 0.243069 0 
0.613029 0.268045 0 
0.612807 0.292516 0 
0.638057 0.267633 0 
0.637828 0.29229 0 
0.612696 0.317247 0 
0.612625 0.342071 0 
0.637712 0.317104 0 
0.637637 0.341981 0 
0.663784 0.167853 0 
0.663855 0.192937 0 
0.688469 0.167255 0 
0.688574 0.192366 0 
0.663615 0.217796 0 
0.663333 0.242596 0 
0.688456 0.217378 0 
0.688275 0.242329 0 
0.663062 0.26735 0 
0.66284 0.292137 0 
0.688045 0.267192 0 
0.687844 0.292057 0 
0.662723 0.317009 0 
0.662646 0.341921 0 
0.68773 0.316961 0 
0.687651 0.341892 0 
CELLS 64 128
1 0
1 1
1 2
1 3
1 4
1 5
1 6
1 7
1 8
1 9
1 10
1 11
1 12
1 13
1 14
1 15
1 16
1 17
1 18
1 19
1 20
1 21
1 22
1 23
1 24
1 25
1 26
1 27
1 28
1 29
1 30
1 31
1 32
1 33
1 34
1 35
1 36
1 37
1 38
1 39
1 40
1 41
1 42
1 43
1 44
1 45
1 46
1 47
1 48
1 49
1 50
1 51
1 52
1 53
1 54
1 55
1 56
1 57
1 58
1 59
1 60
1 61
1 62
1 63
CELL_TYPES 64
1
1
1
1
1
1
1
1
1
1
1
1
1
1
1
1
1
1
1
1
1
1
1
1
1
1
1
1
1
1
1
1
1
1
1
1
1
1
1
1
1
1
1
1
1
1
1
1
1
1
1
1
1
1
1
1
1
1
1
1
1
1
1
1
POINT_DATA 64
VECTORS displacement double
-0.000854851 -0.432254 0 
-0.000826023 -0.435834 0 
0.00026693 -0.433622 0 
0.000171334 -0.436967 0 
-0.000733531 -0.439164 0 
-0.000586295 -0.441622 0 
4.93261e-05 -0.439848 0 
-1.87756e-05 -0.442002 0 
-0.000393233 -0.443138 0 
-0.000235065 -0.444245 0 
-3.15489e-05 -0.443369 0 
-3.22292e-05 -0.444372 0 
-0.000139668 -0.444779 0 
-6.91473e-05 -0.445128 0 
-1.84218e-05 -0.444861 0 
-3.28616e-06 -0.44518 0 
0.00148144 -0.435335 0 
0.00096295 -0.438215 0 
0.00284346 -0.437419 0 
0.00156987 -0.439583 0 
0.000638684 -0.440655 0 
0.000398967 -0.442494 0 
0.00104049 -0.441581 0 
0.000669342 -0.443098 0 
0.000240676 -0.443675 0 
0.000126151 -0.444545 0 
0.000424038 -0.444058 0 
0.000240212 -0.444762 0 
7.86841e-05 -0.444972 0 
5.19284e-05 -0.44525 0 
0.000151697 -0.445112 0 
9.65051e-05 -0.44534 0 
0.00296106 -0.439959 0 
0.00177866 -0.441279 0 
0.00196854 -0.442896 0 
0.00159904 -0.443287 0 
0.00122604 -0.44266 0 
0.000817497 -0.443743 0 
0.00120761 -0.443888 0 
0.000848337 -0.444431 0 
0.000528783 -0.444455 0 
0.000307171 -0.444984 0 
0.000556951 -0.444867 0 
0.000327715 -0.44521 0 
0.000196019 -0.445253 0 
0.000124804 -0.445429 0 
0.000211905 -0.445396 0 
0.000136927 -0.445519 0 
0.00128366 -0.444647 0 
0.00135481 -0.444563 0 
0.000968557 -0.445245 0 
0.00107417 -0.445134 0 
0.00111524 -0.444704 0 
0.00083327 -0.444904 0 
0.000955834 -0.445122 0 
0.000774592 -0.445171 0 
0.000562104 -0.44515 0 
0.00033997 -0.445363 0 
0.000544934 -0.445308 0 
0.00034408 -0.445443 0 
0.000223099 -0.445491 0 
0.000145714 -0.445579 0 
0.000229661 -0.445539 0 
0.000151193 -0.445608 0 
VECTORS velocity double
-0.299972 -0.449026 0 
-0.261432 -1.41251 0 
-0.0722283 -0.757682 0 
0.014797 -1.72775 0 
-0.224125 -1.8726 0 
-0.172559 -2.12514 0 
0.0153745 -2.03527 0 
0.0123722 -2.20857 0 
-0.11224 -2.39008 0 
-0.0682279 -2.60605 0 
0.0023524 -2.44587 0 
-0.00491435 -2.64119 0 
-0.0391731 -2.71539 0 
-0.0158629 -2.78034 0 
-0.00211945 -2.73834 0 
0.00313281 -2.79521 0 
0.258551 -1.05707 0 
0.142989 -1.92259 0 
0.734012 -1.37563 0 
0.137182 -2.00387 0 
0.135558 -2.16727 0 
0.120989 -2.30778 0 
0.138066 -2.2669 0 
0.153827 -2.42217 0 
0.0735323 -2.51222 0 
0.035871 -2.68026 0 
0.101491 -2.58929 0 
0.0541661 -2.72331 0 
0.0222141 -2.76374 0 
0.0164007 -2.81232 0 
0.0338365 -2.79159 0 
0.0239382 -2.83164 0 
0.763825 -1.8974 0 
0.193999 -2.22567 0 
0.338756 -2.60172 0 
0.287463 -2.57834 0 
0.173878 -2.41894 0 
0.17518 -2.54633 0 
0.243058 -2.62195 0 
0.186459 -2.68053 0 
0.116884 -2.67097 0 
0.0650323 -2.76952 0 
0.120002 -2.7572 0 
0.0685554 -2.81887 0 
0.0411971 -2.82134 0 
0.0287445 -2.85195 0 
0.0443295 -2.85298 0 
0.030843 -2.87324 0 
0.112168 -2.93687 0 
0.292868 -2.78158 0 
0.130127 -2.8991 0 
0.227709 -2.83812 0 
0.254777 -2.75407 0 
0.18433 -2.77107 0 
0.2109 -2.81844 0 
0.168708 -2.81972 0 
0.120677 -2.81306 0 
0.0725612 -2.84893 0 
0.118955 -2.8393 0 
0.0770441 -2.85998 0 
0.0476811 -2.87203 0 
0.0326576 -2.8864 0 
0.0512505 -2.87863 0 
0.0341904 -2.8915 0 
SCALARS mass double 1
LOOKUP_TABLE default
0.625
0.625
0.625
0.625
0.625
0.625
0.625
0.625
0.625
0.625
0.625
0.625
0.625
0.625
0.625
0.625
0.625
0.625
0.625
0.625
0.625
0.625
0.625
0.625
0.625
0.625
0.625
0.625
0.625
0.625
0.625
0.625
0.625
0.625
0.625
0.625
0.625
0.625
0.625
0.625
0.625
0.625
0.625
0.625
0.625
0.625
0.625
0.625
0.625
0.625
0.625
0.625
0.625
0.625
0.625
0.625
0.625
0.625
0.625
0.625
0.625
0.625
0.625
0.625
SCALARS volume double 1
LOOKUP_TABLE default
0.000557796
0.000560486
0.000557922
0.00057204
0.000565012
0.000595012
0.000575649
0.000599493
0.000599255
0.000611438
0.00060258
0.000613061
0.000616782
0.000621837
0.000617729
0.000622264
0.000573658
0.000574405
0.000598745
0.000586992
0.000577198
0.000597573
0.000587338
0.000603492
0.000602514
0.000613029
0.000607699
0.000615729
0.000617822
0.000622293
0.000619451
0.00062299
0.000568695
0.000585508
0.000591648
0.000606381
0.000591296
0.000604971
0.000608899
0.000613775
0.000609445
0.000616266
0.00061534
0.000619262
0.000619705
0.000622891
0.000621417
0.000623613
0.000622202
0.000616716
0.000620838
0.000619499
0.000616496
0.000617701
0.00062066
0.000620905
0.000618412
0.000620984
0.000620863
0.000622216
0.000622351
0.000623922
0.000622967
0.000624148
VECTORS momentum double
-0.187483 -0.280641 0 
-0.163395 -0.882822 0 
-0.0451427 -0.473551 0 
0.00924812 -1.07984 0 
-0.140078 -1.17038 0 
-0.10785 -1.32822 0 
0.00960904 -1.27204 0 
0.00773263 -1.38036 0 
-0.07015 -1.4938 0 
-0.0426425 -1.62878 0 
0.00147025 -1.52867 0 
-0.00307147 -1.65074 0 
-0.0244832 -1.69712 0 
-0.00991429 -1.73771 0 
-0.00132465 -1.71147 0 
0.001958 -1.74701 0 
0.161594 -0.660669 0 
0.0893681 -1.20162 0 
0.458757 -0.859771 0 
0.085739 -1.25242 0 
0.0847239 -1.35455 0 
0.0756182 -1.44237 0 
0.0862913 -1.41681 0 
0.0961421 -1.51386 0 
0.0459577 -1.57014 0 
0.0224194 -1.67516 0 
0.063432 -1.61831 0 
0.0338538 -1.70207 0 
0.0138838 -1.72734 0 
0.0102504 -1.7577 0 
0.0211478 -1.74475 0 
0.0149614 -1.76977 0 
0.477391 -1.18588 0 
0.121249 -1.39104 0 
0.211722 -1.62607 0 
0.179664 -1.61146 0 
0.108674 -1.51184 0 
0.109488 -1.59145 0 
0.151911 -1.63872 0 
0.116537 -1.67533 0 
0.0730524 -1.66935 0 
0.0406452 -1.73095 0 
0.0750014 -1.72325 0 
0.0428471 -1.7618 0 
0.0257482 -1.76334 0 
0.0179653 -1.78247 0 
0.0277059 -1.78311 0 
0.0192769 -1.79578 0 
0.0701051 -1.83554 0 
0.183043 -1.73849 0 
0.0813293 -1.81193 0 
0.142318 -1.77382 0 
0.159236 -1.72129 0 
0.115206 -1.73192 0 
0.131813 -1.76153 0 
0.105442 -1.76232 0 
0.0754229 -1.75816 0 
0.0453507 -1.78058 0 
0.0743469 -1.77456 0 
0.0481525 -1.78749 0 
0.0298007 -1.79502 0 
0.020411 -1.804 0 
0.0320316 -1.79915 0 
0.021369 -1.80719 0 
VECTORS body_force double
0 -9.81 0 
0 -9.81 0 
0 -9.81 0 
0 -9.81 0 
0 -9.81 0 
0 -9.81 0 
0 -9.81 0 
0 -9.81 0 
0 -9.81 0 
0 -9.81 0 
0 -9.81 0 
0 -9.81 0 
0 -9.81 0 
0 -9.81 0 
0 -9.81 0 
0 -9.81 0 
0 -9.81 0 
0 -9.81 0 
0 -9.81 0 
0 -9.81 0 
0 -9.81 0 
0 -9.81 0 
0 -9.81 0 
0 -9.81 0 
0 -9.81 0 
0 -9.81 0 
0 -9.81 0 
0 -9.81 0 
0 -9.81 0 
0 -9.81 0 
0 -9.81 0 
0 -9.81 0 
0 -9.81 0 
0 -9.81 0 
0 -9.81 0 
0 -9.81 0 
0 -9.81 0 
0 -9.81 0 
0 -9.81 0 
0 -9.81 0 
0 -9.81 0 
0 -9.81 0 
0 -9.81 0 
0 -9.81 0 
0 -9.81 0 
0 -9.81 0 
0 -9.81 0 
0 -9.81 0 
0 -9.81 0 
0 -9.81 0 
0 -9.81 0 
0 -9.81 0 
0 -9.81 0 
0 -9.81 0 
0 -9.81 0 
0 -9.81 0 
0 -9.81 0 
0 -9.81 0 
0 -9.81 0 
0 -9.81 0 
0 -9.81 0 
0 -9.81 0 
0 -9.81 0 
0 -9.81 0 
TENSORS cauchy_stress double
-3244.72 -2450.61 0
-2450.61 -18631.8 0
0 0 -6562.94

-3316.96 -1852.22 0
-1852.22 -17634.6 0
0 0 -6285.46

-3235.49 -2582.77 0
-2582.77 -18597.6 0
0 0 -6549.94

-2131.03 -2144.21 0
-2144.21 -14896.6 0
0 0 -5108.27

-3463.2 -1016.69 0
-1016.69 -15941.5 0
0 0 -5821.42

-1110.76 -332.39 0
-332.39 -8344.98 0
0 0 -2836.72

-2380.94 -1340.09 0
-1340.09 -13436.9 0
0 0 -4745.35

-676.115 -650.782 0
-650.782 -7336.86 0
0 0 -2403.89

-1321.03 -85.9435 0
-85.9435 -6768.3 0
0 0 -2426.8

-643.771 -24.6571 0
-24.6571 -3575.22 0
0 0 -1265.7

-1001.32 -383.505 0
-383.505 -6024.01 0
0 0 -2107.6

-490.475 -189.221 0
-189.221 -3218.49 0
0 0 -1112.69

-391.134 4.02305 0
4.02305 -2154.17 0
0 0 -763.59

-90.2947 -7.20477 0
-7.20477 -885.501 0
0 0 -292.739

-302.64 -103.503 0
-103.503 -1947.59 0
0 0 -675.069

-50.6392 -57.785 0
-57.785 -793.077 0
0 0 -253.115

-1178.87 -4646.07 0
-4646.07 -15305.3 0
0 0 -4945.26

-3135.37 -2816.32 0
-2816.32 -13098.5 0
0 0 -4870.17

1495.39 -6376.95 0
-6376.95 -9748.3 0
0 0 -2475.87

-1842.67 -3259.52 0
-3259.52 -10222.7 0
0 0 -3619.6

-3408.91 -1998.42 0
-1998.42 -11892.4 0
0 0 -4590.39

-1779.76 -1236.12 0
-1236.12 -6850.21 0
0 0 -2588.99

-2394.38 -2237.56 0
-2237.56 -9557.75 0
0 0 -3585.64

-1206.72 -1385.96 0
-1385.96 -5527.77 0
0 0 -2020.35

-1559.44 -831.431 0
-831.431 -5486.76 0
0 0 -2113.86

-767.912 -451.917 0
-451.917 -2951.33 0
0 0 -1115.77

-1062.99 -953.735 0
-953.735 -4335.45 0
0 0 -1619.53

-513.471 -532.606 0
-532.606 -2360.43 0
0 0 -862.171

-443.044 -274.831 0
-274.831 -1778.43 0
0 0 -666.443

-113.601 -152.651 0
-152.651 -721.02 0
0 0 -250.386

-290.786 -330.233 0
-330.233 -1424.09 0
0 0 -514.463

-48.9358 -176.908 0
-176.908 -570.421 0
0 0 -185.807

-8819.24 -7348.15 0
-7348.15 -9335.91 0
0 0 -5446.54

-4463.36 -4248.24 0
-4248.24 -8088.86 0
0 0 -3765.66

-6806.69 -5261.71 0
-5261.71 -3739.29 0
0 0 -3163.79

-2507.55 -3760.58 0
-3760.58 -3308.53 0
0 0 -1744.82

-3321.45 -2713.48 0
-2713.48 -7339 0
0 0 -3198.13

-1806.59 -1571.46 0
-1571.46 -4457.17 0
0 0 -1879.13

-1632.11 -2559.61 0
-2559.61 -3386.99 0
0 0 -1505.73

-973.194 -1566.06 0
-1566.06 -2512.2 0
0 0 -1045.62

-1376.31 -1058.41 0
-1058.41 -3470.48 0
0 0 -1454.04

-751.183 -589.727 0
-589.727 -1955.26 0
0 0 -811.932

-820.537 -1067.25 0
-1067.25 -2174.94 0
0 0 -898.643

-471.227 -601.383 0
-601.383 -1302.61 0
0 0 -532.15

-443.051 -364.445 0
-364.445 -1193.2 0
0 0 -490.875

-158.038 -192.454 0
-192.454 -492.13 0
0 0 -195.05

-283.779 -370.15 0
-370.15 -821.736 0
0 0 -331.655

-91.1699 -198.237 0
-198.237 -336.191 0
0 0 -128.208

-1234.82 -553.639 0
-553.639 371.973 0
0 0 -258.854

-1649.62 -1073.41 0
-1073.41 -916.293 0
0 0 -769.773

-1362.95 -614.407 0
-614.407 77.991 0
0 0 -385.487

-1392.1 -906.503 0
-906.503 -308.076 0
0 0 -510.051

-1288.86 -1081 0
-1081 -1345.87 0
0 0 -790.418

-861.466 -844.128 0
-844.128 -1397.63 0
0 0 -677.729

-904.302 -887.413 0
-887.413 -435.754 0
0 0 -402.017

-564.749 -745.093 0
-745.093 -699.264 0
0 0 -379.204

-665.051 -646.565 0
-646.565 -1372.83 0
0 0 -611.366

-359.326 -372.766 0
-372.766 -880.445 0
0 0 -371.932

-437.379 -598.528 0
-598.528 -839.754 0
0 0 -383.14

-245.052 -359.728 0
-359.728 -613.43 0
0 0 -257.544

-224.922 -226.413 0
-226.413 -591.933 0
0 0 -245.056

-82.7185 -110.87 0
-110.87 -249.127 0
0 0 -99.5536

-167.823 -226.184 0
-226.184 -458.721 0
0 0 -187.963

-61.8738 -115.304 0
-115.304 -200.526 0
0 0 -78.7199

TENSORS velocity_gradient double
5.71173 0.659639 0
-7.26512 -15.4789 0
0 0 0

5.72173 0.874632 0
-6.49935 -15.521 0
0 0 0

5.697 0.979457 0
-7.29239 -14.8873 0
0 0 0

5.73665 0.215341 0
-6.54989 -13.9269 0
0 0 0

4.86604 0.943707 0
-4.81721 -15.5295 0
0 0 0

3.87926 0.990037 0
-3.07124 -13.2788 0
0 0 0

4.89037 -0.154635 0
-4.86299 -13.463 0
0 0 0

3.89283 -0.131109 0
-3.08883 -11.7555 0
0 0 0

2.79746 1.08247 0
-2.05533 -8.92956 0
0 0 0

1.71254 0.99772 0
-1.23889 -7.95445 0
0 0 0

2.80579 -0.0856556 0
-2.06163 -8.0472 0
0 0 0

1.7157 -0.0520233 0
-1.24113 -7.21571 0
0 0 0

1.10476 0.602242 0
-0.836818 -3.09131 0
0 0 0

0.648008 0.557969 0
-0.563782 -2.68672 0
0 0 0

1.10592 0.126419 0
-0.837512 -2.8058 0
0 0 0

0.648394 0.131298 0
-0.563986 -2.44516 0
0 0 0

7.71619 -1.52748 0
-11.7165 -12.2078 0
0 0 0

3.99575 -1.24832 0
-8.20021 -11.834 0
0 0 0

8.06064 -6.55666 0
-12.0277 -7.66361 0
0 0 0

4.12693 -4.17656 0
-8.34347 -8.75846 0
0 0 0

2.84667 -1.1065 0
-6.30598 -11.5298 0
0 0 0

2.11193 -1.05697 0
-4.6665 -10.2317 0
0 0 0

2.87155 -1.92002 0
-6.36124 -9.72289 0
0 0 0

2.12525 -1.81173 0
-4.69713 -8.72344 0
0 0 0

1.534 -0.946457 0
-3.29992 -6.92964 0
0 0 0

1.00515 -0.83972 0
-2.02976 -6.26803 0
0 0 0

1.54069 -1.50549 0
-3.31607 -5.58121 0
0 0 0

1.00785 -1.36578 0
-2.03578 -5.10226 0
0 0 0

0.692677 -0.236999 0
-1.39062 -2.43369 0
0 0 0

0.450993 -0.195019 0
-0.950682 -2.12972 0
0 0 0

0.693733 -0.48855 0
-1.39254 -1.9754 0
0 0 0

0.451289 -0.421484 0
-0.951203 -1.73795 0
0 0 0

-4.45287 -5.5082 0
-15.6094 -3.62148 0
0 0 0

-0.220813 -4.44541 0
-12.0057 -4.95451 0
0 0 0

-4.95962 -0.736435 0
-16.0004 0.0607123 0
0 0 0

-0.388198 -1.18288 0
-12.2582 -0.798604 0
0 0 0

0.503069 -2.32686 0
-8.58561 -6.9724 0
0 0 0

0.441541 -2.22617 0
-5.26924 -6.4429 0
0 0 0

0.505563 -2.38805 0
-8.73027 -3.42287 0
0 0 0

0.443458 -2.31725 0
-5.32497 -3.34738 0
0 0 0

0.343307 -1.83321 0
-3.43689 -4.18126 0
0 0 0

0.236541 -1.68751 0
-2.04464 -3.86785 0
0 0 0

0.344755 -1.94402 0
-3.45582 -2.73314 0
0 0 0

0.237078 -1.80779 0
-2.05132 -2.56345 0
0 0 0

0.179459 -0.634378 0
-1.37394 -1.51759 0
0 0 0

0.137478 -0.558124 0
-0.93178 -1.34203 0
0 0 0

0.179643 -0.67684 0
-1.37592 -1.06025 0
0 0 0

0.137578 -0.604115 0
-0.932281 -0.941745 0
0 0 0

-1.63569 1.47027 0
-3.58423 1.57482 0
0 0 0

-1.49971 0.937154 0
-3.79401 1.15376 0
0 0 0

-1.63803 1.58382 0
-3.57895 1.31823 0
0 0 0

-1.50719 1.24748 0
-3.80171 1.15151 0
0 0 0

-0.952081 -2.05834 0
-3.01491 -1.21359 0
0 0 0

-0.305326 -2.04727 0
-1.97129 -1.28648 0
0 0 0

-0.961261 -1.39348 0
-3.02955 -0.153763 0
0 0 0

-0.308799 -1.44178 0
-1.97855 -0.265341 0
0 0 0

-0.0594008 -1.93052 0
-1.27255 -1.72281 0
0 0 0

0.065473 -1.81226 0
-0.685061 -1.63289 0
0 0 0

-0.0600522 -1.80118 0
-1.27558 -1.12042 0
0 0 0

0.0653371 -1.70288 0
-0.685999 -1.07732 0
0 0 0

0.0783792 -0.708513 0
-0.438111 -0.761594 0
0 0 0

0.0567063 -0.639545 0
-0.298592 -0.67784 0
0 0 0

0.0784107 -0.729676 0
-0.438325 -0.617526 0
0 0 0

0.0567374 -0.664422 0
-0.298632 -0.551718 0
0 0 0

SCALARS active double 1
LOOKUP_TABLE default
1
1
1
1
1
1
1
1
1
1
1
1
1
1
1
1
1
1
1
1
1
1
1
1
1
1
1
1
1
1
1
1
1
1
1
1
1
1
1
1
1
1
1
1
1
1
1
1
1
1
1
1
1
1
1
1
1
1
1
1
1
1
1
1
SCALARS extent double 1
LOOKUP_TABLE default
0.0125
0.0125
0.0125
0.0125
0.0125
0.0125
0.0125
0.0125
0.0125
0.0125
0.0125
0.0125
0.0125
0.0125
0.0125
0.0125
0.0125
0.0125
0.0125
0.0125
0.0125
0.0125
0.0125
0.0125
0.0125
0.0125
0.0125
0.0125
0.0125
0.0125
0.0125
0.0125
0.0125
0.0125
0.0125
0.0125
0.0125
0.0125
0.0125
0.0125
0.0125
0.0125
0.0125
0.0125
0.0125
0.0125
0.0125
0.0125
0.0125
0.0125
0.0125
0.0125
0.0125
0.0125
0.0125
0.0125
0.0125
0.0125
0.0125
0.0125
0.0125
0.0125
0.0125
0.0125
SCALARS pressure double 1
LOOKUP_TABLE default
9479.8
9079
9461.02
7378.62
8408.71
4097.49
6854.4
3472.29
3505.38
1828.23
3044.31
1607.22
1102.96
422.845
975.099
365.61
7143.16
7034.69
3576.26
5228.31
6630.57
3739.65
5179.26
2918.28
3053.35
1611.67
2339.32
1245.36
962.64
361.669
743.114
268.388
7867.23
5439.29
4569.92
2520.3
4619.53
2714.3
2174.95
1510.34
2100.27
1172.79
1298.04
768.661
709.041
281.739
479.057
185.19
373.901
1111.89
556.815
736.741
1141.72
978.941
580.691
547.739
883.084
537.234
553.424
372.009
353.97
143.8
271.503
113.707
SCALARS density double 1
LOOKUP_TABLE default
1120.48
1115.1
1120.23
1092.58
1106.17
1050.4
1085.73
1042.55
1042.96
1022.18
1037.21
1019.47
1013.32
1005.09
1011.77
1004.4
1089.5
1088.08
1043.85
1064.75
1082.82
1045.9
1064.12
1035.64
1037.32
1019.53
1028.47
1015.06
1011.62
1004.35
1008.96
1003.23
1099.01
1067.45
1056.37
1030.71
1057
1033.11
1026.44
1018.29
1025.52
1014.17
1015.7
1009.27
1008.54
1003.39
1005.77
1002.22
1004.5
1013.43
1006.7
1008.88
1013.79
1011.82
1006.99
1006.59
1010.65
1006.47
1006.66
1004.47
1004.26
1001.73
1003.26
1001.37
