# vtk DataFile Version 3.0
Frame: 22, Time: 0.367
ASCII
DATASET UNSTRUCTURED_GRID
POINTS 64 double
0.381288 0.0514888 0 
0.375559 0.0808103 0 
0.403104 0.0543456 0 
0.397874 0.0817834 0 
0.374601 0.112279 0 
0.375294 0.137903 0 
0.398494 0.109238 0 
0.399628 0.134487 0 
0.377666 0.163607 0 
0.379104 0.189574 0 
0.402308 0.161086 0 
0.402775 0.186642 0 
0.382524 0.216482 0 
0.383942 0.240938 0 
0.406799 0.212387 0 
0.40899 0.236688 0 
0.424999 0.0577717 0 
0.420422 0.0844076 0 
0.449378 0.055965 0 
0.44274 0.0825403 0 
0.423164 0.110698 0 
0.424386 0.135855 0 
0.447348 0.107845 0 
0.448823 0.132352 0 
0.426683 0.161944 0 
0.427346 0.186132 0 
0.451415 0.158953 0 
0.454081 0.184375 0 
0.430801 0.210089 0 
0.434607 0.237079 0 
0.456362 0.209578 0 
0.459836 0.23541 0 
0.474036 0.0535657 0 
0.465489 0.0801124 0 
0.497884 0.0531949 0 
0.489608 0.0806951 0 
0.469957 0.10603 0 
0.472682 0.131124 0 
0.493788 0.106183 0 
0.498013 0.130422 0 
0.475589 0.157805 0 
0.478585 0.182729 0 
0.501342 0.155789 0 
0.504299 0.17826 0 
0.481115 0.207896 0 
0.486534 0.231846 0 
0.506715 0.201149 0 
0.512961 0.226353 0 
0.521692 0.0511382 0 
0.512825 0.078041 0 
0.544533 0.0561949 0 
0.53863 0.0798085 0 
0.516142 0.101544 0 
0.520666 0.124395 0 
0.541754 0.100758 0 
0.546231 0.121943 0 
0.524889 0.148946 0 
0.52917 0.172144 0 
0.550573 0.145589 0 
0.55476 0.168555 0 
0.531923 0.196602 0 
0.538128 0.222826 0 
0.55763 0.193176 0 
0.5649 0.216164 0 
CELLS 64 128
1 0
1 1
1 2
1 3
1 4
1 5
1 6
1 7
1 8
1 9
1 10
1 11
1 12
1 13
1 14
1 15
1 16
1 17
1 18
1 19
1 20
1 21
1 22
1 23
1 24
1 25
1 26
1 27
1 28
1 29
1 30
1 31
1 32
1 33
1 34
1 35
1 36
1 37
1 38
1 39
1 40
1 41
1 42
1 43
1 44
1 45
1 46
1 47
1 48
1 49
1 50
1 51
1 52
1 53
1 54
1 55
1 56
1 57
1 58
1 59
1 60
1 61
1 62
1 63
CELL_TYPES 64
1
1
1
1
1
1
1
1
1
1
1
1
1
1
1
1
1
1
1
1
1
1
1
1
1
1
1
1
1
1
1
1
1
1
1
1
1
1
1
1
1
1
1
1
1
1
1
1
1
1
1
1
1
1
1
1
1
1
1
1
1
1
1
1
POINT_DATA 64
VECTORS displacement double
-0.0312121 -0.361011 0 
-0.0369408 -0.35669 0 
-0.0343962 -0.358154 0 
-0.0396263 -0.355717 0 
-0.0378986 -0.350221 0 
-0.0372055 -0.349597 0 
-0.0390064 -0.353262 0 
-0.0378723 -0.353013 0 
-0.0348336 -0.348893 0 
-0.0333956 -0.347926 0 
-0.0351924 -0.351414 0 
-0.0347255 -0.350858 0 
-0.029976 -0.346018 0 
-0.0285579 -0.346562 0 
-0.0307014 -0.350113 0 
-0.0285097 -0.350812 0 
-0.0375014 -0.354728 0 
-0.042078 -0.353092 0 
-0.0381224 -0.356535 0 
-0.0447597 -0.35496 0 
-0.0393362 -0.351802 0 
-0.0381136 -0.351645 0 
-0.0401515 -0.354655 0 
-0.0386772 -0.355148 0 
-0.0358172 -0.350556 0 
-0.0351535 -0.351368 0 
-0.0360853 -0.353547 0 
-0.0334194 -0.353125 0 
-0.0316991 -0.352411 0 
-0.0278928 -0.350421 0 
-0.0311382 -0.352922 0 
-0.0276637 -0.35209 0 
-0.0384636 -0.358934 0 
-0.0470106 -0.357388 0 
-0.0396162 -0.359305 0 
-0.0478918 -0.356805 0 
-0.0425433 -0.35647 0 
-0.0398183 -0.356376 0 
-0.043712 -0.356317 0 
-0.0394874 -0.357078 0 
-0.0369108 -0.354695 0 
-0.0339152 -0.354771 0 
-0.0361578 -0.356711 0 
-0.0332011 -0.35924 0 
-0.0313848 -0.354604 0 
-0.0259663 -0.355654 0 
-0.0307848 -0.361351 0 
-0.0245391 -0.361147 0 
-0.040808 -0.361362 0 
-0.0496754 -0.359459 0 
-0.0429665 -0.356305 0 
-0.0488703 -0.357692 0 
-0.0463581 -0.360956 0 
-0.041834 -0.363105 0 
-0.0457458 -0.361742 0 
-0.0412686 -0.365557 0 
-0.0376108 -0.363554 0 
-0.0333297 -0.365356 0 
-0.0369271 -0.366911 0 
-0.0327395 -0.368945 0 
-0.0305773 -0.365898 0 
-0.0243721 -0.364674 0 
-0.0298705 -0.369324 0 
-0.0226005 -0.371336 0 
VECTORS velocity double
-0.00706805 0.41079 0 
0.583532 0.634935 0 
-0.0771459 0.597688 0 
0.387513 1.02885 0 
0.499506 0.403981 0 
-0.375704 -0.0142927 0 
0.580251 0.12941 0 
-0.10483 0.109127 0 
-0.579253 -0.0494017 0 
-0.983109 -0.160327 0 
-0.465967 0.769531 0 
-0.525975 0.711007 0 
-1.24022 0.153704 0 
-1.71503 0.554451 0 
-0.925021 0.536099 0 
-2.57672 0.538417 0 
-0.446259 0.305763 0 
0.06548 0.883228 0 
-0.6998 -0.238334 0 
-0.193649 0.907833 0 
0.673322 0.287189 0 
0.0599556 0.625872 0 
0.687481 0.716424 0 
0.0334406 0.96205 0 
-0.63933 1.42589 0 
-0.210743 1.38882 0 
-1.06026 1.79713 0 
-0.347563 1.87829 0 
-0.324067 1.09999 0 
-2.63962 0.789625 0 
0.0813703 1.89957 0 
-2.46276 0.782132 0 
-0.866497 0.528808 0 
-0.336614 1.34215 0 
-1.05373 0.521611 0 
-0.824502 1.74198 0 
0.723761 1.28519 0 
0.659446 1.51257 0 
0.252259 1.40206 0 
0.735771 1.50098 0 
-0.310138 2.01569 0 
-0.284787 1.65835 0 
0.370526 2.0587 0 
0.270017 1.70128 0 
-0.345515 1.06391 0 
-1.70646 1.11894 0 
-0.26425 1.14565 0 
-1.42466 2.52028 0 
-0.669932 -0.230381 0 
-1.00646 1.05443 0 
-1.48941 1.31374 0 
-1.16312 1.2362 0 
-0.202375 0.936188 0 
0.425613 1.39008 0 
-0.207599 1.02989 0 
0.659999 1.10845 0 
0.418964 2.49385 0 
0.190682 2.78739 0 
0.596752 2.01748 0 
-0.243956 2.38224 0 
-0.50516 2.2848 0 
-1.64831 3.18717 0 
-1.35277 2.15787 0 
-0.694017 2.71142 0 
SCALARS mass double 1
LOOKUP_TABLE default
0.625
0.625
0.625
0.625
0.625
0.625
0.625
0.625
0.625
0.625
0.625
0.625
0.625
0.625
0.625
0.625
0.625
0.625
0.625
0.625
0.625
0.625
0.625
0.625
0.625
0.625
0.625
0.625
0.625
0.625
0.625
0.625
0.625
0.625
0.625
0.625
0.625
0.625
0.625
0.625
0.625
0.625
0.625
0.625
0.625
0.625
0.625
0.625
0.625
0.625
0.625
0.625
0.625
0.625
0.625
0.625
0.625
0.625
0.625
0.625
0.625
0.625
0.625
0.625
SCALARS volume double 1
LOOKUP_TABLE default
0.000585908
0.00073238
0.000577393
0.000651924
0.000662021
0.000653532
0.000630318
0.000639278
0.000632982
0.000635303
0.000629761
0.000605375
0.000663723
0.000574223
0.000617132
0.000584957
0.000602164
0.0006645
0.000607301
0.000635112
0.00064378
0.000684916
0.000565348
0.000613733
0.000674242
0.000612444
0.000629227
0.000635937
0.000660738
0.000622642
0.000645235
0.000641978
0.000635589
0.000666518
0.000594542
0.000642081
0.000599653
0.000670905
0.000556152
0.00058995
0.000683914
0.000611724
0.000613177
0.000552312
0.000640329
0.000644583
0.000644076
0.00067458
0.000632382
0.000658111
0.000625985
0.000588949
0.000547038
0.000587488
0.000504384
0.000623231
0.000620513
0.000587896
0.000634184
0.000580887
0.000676904
0.000657701
0.00069352
0.000584483
VECTORS momentum double
-0.00441753 0.256744 0 
0.364708 0.396835 0 
-0.0482162 0.373555 0 
0.242196 0.643032 0 
0.312191 0.252488 0 
-0.234815 -0.00893296 0 
0.362657 0.080881 0 
-0.0655189 0.0682043 0 
-0.362033 -0.0308761 0 
-0.614443 -0.100204 0 
-0.291229 0.480957 0 
-0.328734 0.444379 0 
-0.775139 0.096065 0 
-1.07189 0.346532 0 
-0.578138 0.335062 0 
-1.61045 0.336511 0 
-0.278912 0.191102 0 
0.040925 0.552017 0 
-0.437375 -0.148959 0 
-0.121031 0.567396 0 
0.420826 0.179493 0 
0.0374723 0.39117 0 
0.429676 0.447765 0 
0.0209004 0.601281 0 
-0.399581 0.891179 0 
-0.131714 0.868012 0 
-0.662664 1.12321 0 
-0.217227 1.17393 0 
-0.202542 0.687496 0 
-1.64977 0.493516 0 
0.0508564 1.18723 0 
-1.53922 0.488833 0 
-0.54156 0.330505 0 
-0.210384 0.838843 0 
-0.658581 0.326007 0 
-0.515314 1.08874 0 
0.452351 0.803247 0 
0.412154 0.945354 0 
0.157662 0.876289 0 
0.459857 0.938112 0 
-0.193836 1.2598 0 
-0.177992 1.03647 0 
0.231578 1.28669 0 
0.168761 1.0633 0 
-0.215947 0.664942 0 
-1.06654 0.69934 0 
-0.165156 0.716031 0 
-0.89041 1.57517 0 
-0.418708 -0.143988 0 
-0.629036 0.659016 0 
-0.930884 0.82109 0 
-0.726951 0.772628 0 
-0.126484 0.585117 0 
0.266008 0.868802 0 
-0.12975 0.643682 0 
0.4125 0.69278 0 
0.261852 1.55866 0 
0.119176 1.74212 0 
0.37297 1.26092 0 
-0.152473 1.4889 0 
-0.315725 1.428 0 
-1.03019 1.99198 0 
-0.845481 1.34867 0 
-0.433761 1.69464 0 
VECTORS body_force double
0 -9.81 0 
0 -9.81 0 
0 -9.81 0 
0 -9.81 0 
0 -9.81 0 
0 -9.81 0 
0 -9.81 0 
0 -9.81 0 
0 -9.81 0 
0 -9.81 0 
0 -9.81 0 
0 -9.81 0 
0 -9.81 0 
0 -9.81 0 
0 -9.81 0 
0 -9.81 0 
0 -9.81 0 
0 -9.81 0 
0 -9.81 0 
0 -9.81 0 
0 -9.81 0 
0 -9.81 0 
0 -9.81 0 
0 -9.81 0 
0 -9.81 0 
0 -9.81 0 
0 -9.81 0 
0 -9.81 0 
0 -9.81 0 
0 -9.81 0 
0 -9.81 0 
0 -9.81 0 
0 -9.81 0 
0 -9.81 0 
0 -9.81 0 
0 -9.81 0 
0 -9.81 0 
0 -9.81 0 
0 -9.81 0 
0 -9.81 0 
0 -9.81 0 
0 -9.81 0 
0 -9.81 0 
0 -9.81 0 
0 -9.81 0 
0 -9.81 0 
0 -9.81 0 
0 -9.81 0 
0 -9.81 0 
0 -9.81 0 
0 -9.81 0 
0 -9.81 0 
0 -9.81 0 
0 -9.81 0 
0 -9.81 0 
0 -9.81 0 
0 -9.81 0 
0 -9.81 0 
0 -9.81 0 
0 -9.81 0 
0 -9.81 0 
0 -9.81 0 
0 -9.81 0 
0 -9.81 0 
TENSORS cauchy_stress double
-5848.2 -12323.8 0
-12323.8 -6572.89 0
0 0 -3726.33

2980.2 2276.91 0
2276.91 27509.8 0
0 0 9147.02

-5304.24 -13360.5 0
-13360.5 -9932.18 0
0 0 -4570.92

-4993.38 384.861 0
384.861 13104.2 0
0 0 2433.25

-588.948 -5394.88 0
-5394.88 11655.5 0
0 0 3319.97

1546.48 -3136.4 0
-3136.4 7038.01 0
0 0 2575.35

-1472.32 -1949.66 0
-1949.66 3101.74 0
0 0 488.826

-204.503 3612.42 0
3612.42 4548.22 0
0 0 1303.11

1938.99 -2734.29 0
-2734.29 501.61 0
0 0 732.18

-3317.74 -1578.7 0
-1578.7 6462.07 0
0 0 943.298

-2965.93 5992.92 0
5992.92 4425.23 0
0 0 437.789

-5406.71 1987.72 0
1987.72 -728.727 0
0 0 -1840.63

3029.63 -5434.15 0
-5434.15 8530.69 0
0 0 3468.1

-5117.86 -5601.07 0
-5601.07 -11177.2 0
0 0 -4888.51

-4144.32 1051.07 0
1051.07 1708.07 0
0 0 -730.876

-2971.75 -5236.43 0
-5236.43 -9761.61 0
0 0 -3820.01

1608.86 -15741 0
-15741 -8767.05 0
0 0 -2147.46

-1491.95 5683.5 0
5683.5 13277.2 0
0 0 3535.57

2547.09 -21750.8 0
-21750.8 -8071.58 0
0 0 -1657.35

-6250.54 3401.4 0
3401.4 9337.04 0
0 0 925.95

5073.29 3366.14 0
3366.14 619.969 0
0 0 1707.98

10074.9 3416.6 0
3416.6 7529.75 0
0 0 5281.4

-10166.8 553.018 0
553.018 -9123.73 0
0 0 -5787.16

-5349.61 -1499.02 0
-1499.02 1851.25 0
0 0 -1049.51

8079.21 5547.35 0
5547.35 6504.99 0
0 0 4375.26

5620.96 -3765.27 0
-3765.27 -9523.52 0
0 0 -1170.77

-2679.68 4281.28 0
4281.28 3975.8 0
0 0 388.837

2621.4 -2090.42 0
-2090.42 714.714 0
0 0 1000.83

6215.9 5037.09 0
5037.09 4477.61 0
0 0 3208.06

-1499.02 1503.25 0
1503.25 772.099 0
0 0 -218.075

2310.83 2313.77 0
2313.77 3816.62 0
0 0 1838.23

3475.31 3416.22 0
3416.22 1678.92 0
0 0 1546.27

8274.11 -14667 0
-14667 -5043.35 0
0 0 969.23

550.902 2983.73 0
2983.73 11817.5 0
0 0 3710.51

-2093.74 -21803.4 0
-21803.4 -7514.1 0
0 0 -2882.35

-3699.45 579.574 0
579.574 8884.74 0
0 0 1555.59

-4503.77 9776.81 0
9776.81 -3457.83 0
0 0 -2388.48

6979.71 6416.68 0
6416.68 6650.21 0
0 0 4088.97

-14162.5 5942.01 0
5942.01 -8281.68 0
0 0 -6733.27

-9393.7 -3845.44 0
-3845.44 -1705.07 0
0 0 -3329.63

8475.77 11676.4 0
11676.4 8847.27 0
0 0 5196.91

-1963.85 5240.24 0
5240.24 -2165.13 0
0 0 -1238.7

-4770.37 -5496.44 0
-5496.44 1097.69 0
0 0 -1101.81

-8245.44 -13669.9 0
-13669.9 -15531.1 0
0 0 -7132.97

500.268 2292.09 0
2292.09 4159.29 0
0 0 1397.87

14525.6 -1790.93 0
-1790.93 -8592.42 0
0 0 1779.95

2266.04 -6793 0
-6793 3515.83 0
0 0 1734.56

8107.51 5117.23 0
5117.23 6573.04 0
0 0 4404.16

4105.41 -16859 0
-16859 -1847.34 0
0 0 677.421

2429.74 -2650.09 0
-2650.09 7497.44 0
0 0 2978.15

-966.795 -3236.18 0
-3236.18 1269.64 0
0 0 90.8528

-1635.89 4834.13 0
4834.13 -9789.63 0
0 0 -3427.66

-9789.73 2177.65 0
2177.65 -15832.1 0
0 0 -7686.54

-6805.14 -405.703 0
-405.703 -5097.97 0
0 0 -3570.93

-10427.5 7787.32 0
7787.32 -30806 0
0 0 -12370

4803.64 2203.88 0
2203.88 -5348.63 0
0 0 -163.498

-1058.52 1965.44 0
1965.44 -327.069 0
0 0 -415.677

-2171.25 -824.019 0
-824.019 -9598.13 0
0 0 -3530.81

4019 738.532 0
738.532 -1213.84 0
0 0 841.55

-6411.28 -5832.31 0
-5832.31 -7664.92 0
0 0 -4222.86

7168.06 5222.66 0
5222.66 8173.89 0
0 0 4602.58

8631.78 11956.8 0
11956.8 1175.76 0
0 0 2942.26

7030.09 -5208.54 0
-5208.54 12975.3 0
0 0 6001.61

5047.52 -2860.23 0
-2860.23 -17936.8 0
0 0 -3866.79

TENSORS velocity_gradient double
-2.4099 3.97142 0
-0.108822 3.10332 0
0 0 0

-0.355607 6.20078 0
2.70772 -4.40797 0
0 0 0

-8.07773 6.87863 0
-1.13359 1.57165 0
0 0 0

-1.82689 8.25637 0
3.10268 -1.8432 0
0 0 0

1.43338 -12.6879 0
6.57573 -3.77813 0
0 0 0

1.7893 -12.6738 0
10.4017 -3.62672 0
0 0 0

0.352747 -12.356 0
7.31585 -0.0741958 0
0 0 0

0.379511 -12.3353 0
12.3092 0.191974 0
0 0 0

2.43259 -14.9471 0
12.7892 0.446067 0
0 0 0

3.34981 -14.8828 0
13.8536 0.520758 0
0 0 0

1.22387 -13.5239 0
16.5858 1.09459 0
0 0 0

4.49628 -13.4452 0
16.3881 1.09533 0
0 0 0

0.705793 -14.7215 0
13.099 2.53641 0
0 0 0

-3.87539 -15.0568 0
11.2888 2.40392 0
0 0 0

4.67388 -19.4041 0
13.5859 -0.706087 0
0 0 0

-0.334964 -19.9532 0
7.33554 -1.39137 0
0 0 0

-9.82248 13.0664 0
-1.13552 3.35011 0
0 0 0

-4.73482 12.1191 0
4.27288 2.34303 0
0 0 0

-8.64833 15.4097 0
1.81891 7.97381 0
0 0 0

-5.10819 16.4194 0
3.87597 6.91449 0
0 0 0

-1.48024 -11.9943 0
9.76097 5.06601 0
0 0 0

-1.11036 -11.9717 0
15.2496 5.40055 0
0 0 0

-2.03104 -11.1798 0
8.42085 10.0441 0
0 0 0

0.751316 -10.9188 0
11.4533 10.2564 0
0 0 0

0.852187 -9.86215 0
18.1218 0.281933 0
0 0 0

4.70361 -9.71906 0
17.1742 0.246727 0
0 0 0

5.28375 -6.97078 0
11.3235 -0.674094 0
0 0 0

5.37705 -6.88877 0
7.92627 -0.781135 0
0 0 0

5.21786 -24.3155 0
14.2648 -6.83496 0
0 0 0

-0.377208 -25.2365 0
7.28283 -7.98425 0
0 0 0

4.33923 -27.6132 0
7.58074 -10.0024 0
0 0 0

6.03008 -27.3425 0
13.1379 -9.11275 0
0 0 0

-7.10874 9.7428 0
5.02133 9.86865 0
0 0 0

-6.27015 18.5012 0
5.87506 8.82875 0
0 0 0

-5.65014 8.07507 0
4.32038 10.8995 0
0 0 0

-6.25094 19.5707 0
5.88717 9.50282 0
0 0 0

-3.79271 -3.38286 0
6.56684 11.2159 0
0 0 0

3.10765 -5.14248 0
7.16583 11.549 0
0 0 0

-3.79327 2.83183 0
6.56676 11.8002 0
0 0 0

1.73518 1.5902 0
5.92962 12.5331 0
0 0 0

8.23525 -8.78295 0
7.42607 -1.47144 0
0 0 0

5.72168 -9.1358 0
6.51907 -1.67144 0
0 0 0

3.23087 -9.0653 0
7.77179 0.672164 0
0 0 0

-1.66605 -11.9623 0
9.44442 -1.9865 0
0 0 0

4.21735 -26.0159 0
7.18017 -4.7526 0
0 0 0

5.77522 -25.6257 0
12.3002 -3.47037 0
0 0 0

-5.5923 -17.5699 0
12.2867 -0.499525 0
0 0 0

-3.73859 -23.3022 0
18.7329 3.14963 0
0 0 0

-3.42687 0.85482 0
3.35519 11.3981 0
0 0 0

-3.0068 20.3737 0
0.549787 8.07838 0
0 0 0

-3.77199 17.8196 0
5.23059 4.80844 0
0 0 0

-2.95971 21.0713 0
0.326175 4.76616 0
0 0 0

-2.25295 11.6238 0
-1.34115 11.8208 0
0 0 0

-0.902291 3.97816 0
2.27533 16.4153 0
0 0 0

-2.28711 13.7688 0
-1.36943 12.0555 0
0 0 0

-1.56863 5.28058 0
1.70828 21.7518 0
0 0 0

0.325345 -0.726311 0
7.00554 12.6442 0
0 0 0

-2.05491 -15.5299 0
9.40367 -0.133863 0
0 0 0

-4.58506 4.93205 0
7.3796 22.7993 0
0 0 0

-9.04192 -18.2694 0
8.04297 0.717649 0
0 0 0

-5.50475 -16.3099 0
11.4052 0.618641 0
0 0 0

-4.16997 -20.5575 0
17.6018 10.3457 0
0 0 0

-9.19632 -18.2849 0
4.72068 0.421825 0
0 0 0

-0.290019 -9.25025 0
9.3773 20.2936 0
0 0 0

SCALARS active double 1
LOOKUP_TABLE default
1
1
1
1
1
1
1
1
1
1
1
1
1
1
1
1
1
1
1
1
1
1
1
1
1
1
1
1
1
1
1
1
1
1
1
1
1
1
1
1
1
1
1
1
1
1
1
1
1
1
1
1
1
1
1
1
1
1
1
1
1
1
1
1
SCALARS extent double 1
LOOKUP_TABLE default
0.0125
0.0125
0.0125
0.0125
0.0125
0.0125
0.0125
0.0125
0.0125
0.0125
0.0125
0.0125
0.0125
0.0125
0.0125
0.0125
0.0125
0.0125
0.0125
0.0125
0.0125
0.0125
0.0125
0.0125
0.0125
0.0125
0.0125
0.0125
0.0125
0.0125
0.0125
0.0125
0.0125
0.0125
0.0125
0.0125
0.0125
0.0125
0.0125
0.0125
0.0125
0.0125
0.0125
0.0125
0.0125
0.0125
0.0125
0.0125
0.0125
0.0125
0.0125
0.0125
0.0125
0.0125
0.0125
0.0125
0.0125
0.0125
0.0125
0.0125
0.0125
0.0125
0.0125
0.0125
SCALARS pressure double 1
LOOKUP_TABLE default
5382.47
-13212.4
6602.45
-3514.7
-4795.52
-3719.94
-706.083
-1882.28
-1057.59
-1362.54
-632.362
2658.69
-5009.48
7061.18
1055.71
5517.79
3101.88
-5106.94
2393.95
-1337.48
-2467.08
-7628.68
8359.23
1515.96
-6319.82
1691.11
-561.653
-1445.65
-4633.86
314.998
-2655.23
-2233.5
-1400
-5359.63
4163.4
-2246.96
3450.03
-5906.3
9725.83
4809.47
-7506.65
1789.23
1591.5
10303.2
-2019.14
-2571.04
-2505.48
-6361.57
-978.498
-4301.78
-131.232
4951.06
11102.8
5158.01
17867.8
236.164
600.423
5100.07
-1215.57
6099.69
-6648.18
-4249.93
-8669
5585.36
SCALARS density double 1
LOOKUP_TABLE default
1066.72
853.382
1082.45
958.701
944.078
956.342
991.563
977.666
987.389
983.782
992.44
1032.42
941.657
1088.43
1012.75
1068.45
1037.92
940.557
1029.14
984.078
970.829
912.521
1105.51
1018.36
926.967
1020.5
993.283
982.802
945.911
1003.79
968.64
973.554
983.34
937.709
1051.23
973.397
1042.27
931.578
1123.79
1059.41
913.858
1021.7
1019.28
1131.61
976.061
969.619
970.382
926.502
988.327
949.688
998.426
1061.21
1142.52
1063.85
1239.14
1002.84
1007.23
1063.11
985.519
1075.94
923.321
950.279
901.2
1069.32
