# vtk DataFile Version 3.0
Frame: 7, Time: 0.117
ASCII
DATASET UNSTRUCTURED_GRID
POINTS 64 double
0.5125 0.543624 0 
0.5125 0.568624 0 
0.5375 0.543624 0 
0.5375 0.568624 0 
0.5125 0.593624 0 
0.5125 0.618624 0 
0.5375 0.593624 0 
0.5375 0.618624 0 
0.5125 0.643624 0 
0.5125 0.668624 0 
0.5375 0.643624 0 
0.5375 0.668624 0 
0.5125 0.693624 0 
0.5125 0.718624 0 
0.5375 0.693624 0 
0.5375 0.718624 0 
0.5625 0.543624 0 
0.5625 0.568624 0 
0.5875 0.543624 0 
0.5875 0.568624 0 
0.5625 0.593624 0 
0.5625 0.618624 0 
0.5875 0.593624 0 
0.5875 0.618624 0 
0.5625 0.643624 0 
0.5625 0.668624 0 
0.5875 0.643624 0 
0.5875 0.668624 0 
0.5625 0.693624 0 
0.5625 0.718624 0 
0.5875 0.693624 0 
0.5875 0.718624 0 
0.6125 0.543624 0 
0.6125 0.568624 0 
0.6375 0.543624 0 
0.6375 0.568624 0 
0.6125 0.593624 0 
0.6125 0.618624 0 
0.6375 0.593624 0 
0.6375 0.618624 0 
0.6125 0.643624 0 
0.6125 0.668624 0 
0.6375 0.643624 0 
0.6375 0.668624 0 
0.6125 0.693624 0 
0.6125 0.718624 0 
0.6375 0.693624 0 
0.6375 0.718624 0 
0.6625 0.543624 0 
0.6625 0.568624 0 
0.6875 0.543624 0 
0.6875 0.568624 0 
0.6625 0.593624 0 
0.6625 0.618624 0 
0.6875 0.593624 0 
0.6875 0.618624 0 
0.6625 0.643624 0 
0.6625 0.668624 0 
0.6875 0.643624 0 
0.6875 0.668624 0 
0.6625 0.693624 0 
0.6625 0.718624 0 
0.6875 0.693624 0 
0.6875 0.718624 0 
CELLS 64 128
1 0
1 1
1 2
1 3
1 4
1 5
1 6
1 7
1 8
1 9
1 10
1 11
1 12
1 13
1 14
1 15
1 16
1 17
1 18
1 19
1 20
1 21
1 22
1 23
1 24
1 25
1 26
1 27
1 28
1 29
1 30
1 31
1 32
1 33
1 34
1 35
1 36
1 37
1 38
1 39
1 40
1 41
1 42
1 43
1 44
1 45
1 46
1 47
1 48
1 49
1 50
1 51
1 52
1 53
1 54
1 55
1 56
1 57
1 58
1 59
1 60
1 61
1 62
1 63
CELL_TYPES 64
1
1
1
1
1
1
1
1
1
1
1
1
1
1
1
1
1
1
1
1
1
1
1
1
1
1
1
1
1
1
1
1
1
1
1
1
1
1
1
1
1
1
1
1
1
1
1
1
1
1
1
1
1
1
1
1
1
1
1
1
1
1
1
1
POINT_DATA 64
VECTORS displacement double
6.49846e-18 -0.068876 0 
-4.30551e-17 -0.068876 0 
-1.11698e-17 -0.068876 0 
-2.45038e-17 -0.068876 0 
-2.37432e-17 -0.068876 0 
2.72294e-17 -0.068876 0 
-1.02015e-17 -0.068876 0 
1.9292e-17 -0.068876 0 
2.90949e-17 -0.068876 0 
1.73058e-17 -0.068876 0 
2.69464e-17 -0.068876 0 
2.66918e-17 -0.068876 0 
3.08108e-17 -0.068876 0 
4.62055e-17 -0.068876 0 
3.87418e-17 -0.068876 0 
5.11542e-17 -0.068876 0 
-1.91316e-17 -0.068876 0 
-1.29989e-17 -0.068876 0 
-1.73869e-17 -0.068876 0 
-8.54045e-18 -0.068876 0 
-7.45294e-19 -0.068876 0 
1.69314e-17 -0.068876 0 
4.62541e-18 -0.068876 0 
2.01476e-17 -0.068876 0 
2.829e-17 -0.068876 0 
3.49738e-17 -0.068876 0 
3.31256e-17 -0.068876 0 
4.21519e-17 -0.068876 0 
4.61302e-17 -0.068876 0 
5.66561e-17 -0.068876 0 
5.29761e-17 -0.068876 0 
6.27112e-17 -0.068876 0 
-1.77553e-17 -0.068876 0 
-4.46371e-18 -0.068876 0 
-2.02367e-17 -0.068876 0 
-7.68707e-19 -0.068876 0 
1.00714e-17 -0.068876 0 
2.3123e-17 -0.068876 0 
1.55927e-17 -0.068876 0 
2.58573e-17 -0.068876 0 
3.76919e-17 -0.068876 0 
4.94195e-17 -0.068876 0 
4.19888e-17 -0.068876 0 
5.67766e-17 -0.068876 0 
6.00086e-17 -0.068876 0 
6.97102e-17 -0.068876 0 
6.72276e-17 -0.068876 0 
7.76531e-17 -0.068876 0 
-3.17705e-17 -0.068876 0 
1.04939e-17 -0.068876 0 
-5.23566e-17 -0.068876 0 
2.93242e-17 -0.068876 0 
2.51187e-17 -0.068876 0 
2.29123e-17 -0.068876 0 
3.86495e-17 -0.068876 0 
1.42877e-17 -0.068876 0 
4.29424e-17 -0.068876 0 
6.52393e-17 -0.068876 0 
4.05526e-17 -0.068876 0 
7.48077e-17 -0.068876 0 
7.48837e-17 -0.068876 0 
8.49287e-17 -0.068876 0 
8.29768e-17 -0.068876 0 
9.1537e-17 -0.068876 0 
VECTORS velocity double
7.14766e-15 -1.15758 0 
-1.2673e-14 -1.15758 0 
1.01948e-15 -1.15758 0 
-3.23223e-15 -1.15758 0 
-6.4707e-15 -1.15758 0 
3.78155e-15 -1.15758 0 
-2.60961e-15 -1.15758 0 
-7.11107e-18 -1.15758 0 
1.58868e-15 -1.15758 0 
-1.55354e-15 -1.15758 0 
3.41341e-16 -1.15758 0 
4.71414e-16 -1.15758 0 
-3.18712e-15 -1.15758 0 
1.39535e-15 -1.15758 0 
-6.45997e-16 -1.15758 0 
1.95921e-16 -1.15758 0 
-1.37437e-15 -1.15758 0 
1.2099e-15 -1.15758 0 
-3.38909e-17 -1.15758 0 
6.53403e-16 -1.15758 0 
-3.67854e-16 -1.15758 0 
-1.24913e-15 -1.15758 0 
2.54569e-16 -1.15758 0 
5.55096e-17 -1.15758 0 
-5.80104e-17 -1.15758 0 
1.32024e-15 -1.15758 0 
3.90627e-16 -1.15758 0 
9.92936e-16 -1.15758 0 
5.86656e-16 -1.15758 0 
-5.27017e-17 -1.15758 0 
5.10833e-16 -1.15758 0 
6.4948e-16 -1.15758 0 
6.63776e-16 -1.15758 0 
-6.62443e-17 -1.15758 0 
7.18633e-16 -1.15758 0 
-9.49041e-16 -1.15758 0 
7.54076e-16 -1.15758 0 
1.27581e-15 -1.15758 0 
1.13067e-15 -1.15758 0 
2.41177e-15 -1.15758 0 
9.37734e-16 -1.15758 0 
7.27609e-16 -1.15758 0 
1.58331e-15 -1.15758 0 
5.24258e-16 -1.15758 0 
5.46744e-16 -1.15758 0 
1.44233e-15 -1.15758 0 
6.94387e-16 -1.15758 0 
2.32584e-15 -1.15758 0 
-2.97188e-15 -1.15758 0 
3.01105e-15 -1.15758 0 
-1.04078e-14 -1.15758 0 
1.1814e-14 -1.15758 0 
2.72966e-15 -1.15758 0 
8.367e-16 -1.15758 0 
5.55107e-15 -1.15758 0 
-3.44941e-15 -1.15758 0 
1.41692e-15 -1.15758 0 
1.47209e-15 -1.15758 0 
4.38572e-16 -1.15758 0 
3.57112e-15 -1.15758 0 
2.16404e-15 -1.15758 0 
2.46255e-15 -1.15758 0 
4.95569e-15 -1.15758 0 
1.85245e-15 -1.15758 0 
SCALARS mass double 1
LOOKUP_TABLE default
0.625
0.625
0.625
0.625
0.625
0.625
0.625
0.625
0.625
0.625
0.625
0.625
0.625
0.625
0.625
0.625
0.625
0.625
0.625
0.625
0.625
0.625
0.625
0.625
0.625
0.625
0.625
0.625
0.625
0.625
0.625
0.625
0.625
0.625
0.625
0.625
0.625
0.625
0.625
0.625
0.625
0.625
0.625
0.625
0.625
0.625
0.625
0.625
0.625
0.625
0.625
0.625
0.625
0.625
0.625
0.625
0.625
0.625
0.625
0.625
0.625
0.625
0.625
0.625
SCALARS volume double 1
LOOKUP_TABLE default
0.000625
0.000625
0.000625
0.000625
0.000625
0.000625
0.000625
0.000625
0.000625
0.000625
0.000625
0.000625
0.000625
0.000625
0.000625
0.000625
0.000625
0.000625
0.000625
0.000625
0.000625
0.000625
0.000625
0.000625
0.000625
0.000625
0.000625
0.000625
0.000625
0.000625
0.000625
0.000625
0.000625
0.000625
0.000625
0.000625
0.000625
0.000625
0.000625
0.000625
0.000625
0.000625
0.000625
0.000625
0.000625
0.000625
0.000625
0.000625
0.000625
0.000625
0.000625
0.000625
0.000625
0.000625
0.000625
0.000625
0.000625
0.000625
0.000625
0.000625
0.000625
0.000625
0.000625
0.000625
VECTORS momentum double
4.46729e-15 -0.723488 0 
-7.92062e-15 -0.723487 0 
6.37178e-16 -0.723488 0 
-2.02015e-15 -0.723487 0 
-4.04418e-15 -0.723487 0 
2.36347e-15 -0.723487 0 
-1.63101e-15 -0.723487 0 
-4.44442e-18 -0.723487 0 
9.92927e-16 -0.723488 0 
-9.70966e-16 -0.723488 0 
2.13338e-16 -0.723488 0 
2.94634e-16 -0.723488 0 
-1.99195e-15 -0.723487 0 
8.72092e-16 -0.723487 0 
-4.03748e-16 -0.723487 0 
1.2245e-16 -0.723487 0 
-8.58979e-16 -0.723488 0 
7.56188e-16 -0.723487 0 
-2.11818e-17 -0.723488 0 
4.08377e-16 -0.723487 0 
-2.29909e-16 -0.723487 0 
-7.80704e-16 -0.723487 0 
1.59105e-16 -0.723487 0 
3.46935e-17 -0.723487 0 
-3.62565e-17 -0.723488 0 
8.25151e-16 -0.723488 0 
2.44142e-16 -0.723488 0 
6.20585e-16 -0.723488 0 
3.6666e-16 -0.723487 0 
-3.29386e-17 -0.723487 0 
3.19271e-16 -0.723487 0 
4.05925e-16 -0.723487 0 
4.1486e-16 -0.723488 0 
-4.14027e-17 -0.723487 0 
4.49145e-16 -0.723488 0 
-5.93151e-16 -0.723487 0 
4.71297e-16 -0.723487 0 
7.97381e-16 -0.723487 0 
7.06667e-16 -0.723487 0 
1.50736e-15 -0.723487 0 
5.86084e-16 -0.723488 0 
4.54755e-16 -0.723488 0 
9.89569e-16 -0.723488 0 
3.27661e-16 -0.723488 0 
3.41715e-16 -0.723487 0 
9.01454e-16 -0.723487 0 
4.33992e-16 -0.723487 0 
1.45365e-15 -0.723487 0 
-1.85743e-15 -0.723488 0 
1.8819e-15 -0.723487 0 
-6.50485e-15 -0.723488 0 
7.38376e-15 -0.723487 0 
1.70604e-15 -0.723487 0 
5.22938e-16 -0.723487 0 
3.46942e-15 -0.723487 0 
-2.15588e-15 -0.723487 0 
8.85577e-16 -0.723488 0 
9.20059e-16 -0.723488 0 
2.74108e-16 -0.723488 0 
2.23195e-15 -0.723488 0 
1.35252e-15 -0.723487 0 
1.53909e-15 -0.723487 0 
3.09731e-15 -0.723487 0 
1.15778e-15 -0.723487 0 
VECTORS body_force double
0 -9.81 0 
0 -9.81 0 
0 -9.81 0 
0 -9.81 0 
0 -9.81 0 
0 -9.81 0 
0 -9.81 0 
0 -9.81 0 
0 -9.81 0 
0 -9.81 0 
0 -9.81 0 
0 -9.81 0 
0 -9.81 0 
0 -9.81 0 
0 -9.81 0 
0 -9.81 0 
0 -9.81 0 
0 -9.81 0 
0 -9.81 0 
0 -9.81 0 
0 -9.81 0 
0 -9.81 0 
0 -9.81 0 
0 -9.81 0 
0 -9.81 0 
0 -9.81 0 
0 -9.81 0 
0 -9.81 0 
0 -9.81 0 
0 -9.81 0 
0 -9.81 0 
0 -9.81 0 
0 -9.81 0 
0 -9.81 0 
0 -9.81 0 
0 -9.81 0 
0 -9.81 0 
0 -9.81 0 
0 -9.81 0 
0 -9.81 0 
0 -9.81 0 
0 -9.81 0 
0 -9.81 0 
0 -9.81 0 
0 -9.81 0 
0 -9.81 0 
0 -9.81 0 
0 -9.81 0 
0 -9.81 0 
0 -9.81 0 
0 -9.81 0 
0 -9.81 0 
0 -9.81 0 
0 -9.81 0 
0 -9.81 0 
0 -9.81 0 
0 -9.81 0 
0 -9.81 0 
0 -9.81 0 
0 -9.81 0 
0 -9.81 0 
0 -9.81 0 
0 -9.81 0 
0 -9.81 0 
TENSORS cauchy_stress double
-2.17506e-11 -7.04357e-11 0
-7.04357e-11 1.30461e-10 0
0 0 3.26132e-11

1.60473e-10 -6.67042e-11 0
-6.67042e-11 1.84167e-10 0
0 0 1.03392e-10

-4.9127e-11 1.0674e-12 0
1.0674e-12 6.65831e-11 0
0 0 5.23683e-12

1.17374e-10 -2.45159e-11 0
-2.45159e-11 8.36039e-11 0
0 0 6.02935e-11

-6.21439e-11 8.78341e-11 0
8.78341e-11 -2.83891e-10 0
0 0 -1.03811e-10

-6.22276e-11 5.99778e-11 0
5.99778e-11 -6.37883e-11 0
0 0 -3.78048e-11

-6.03661e-11 4.13221e-11 0
4.13221e-11 -2.79743e-10 0
0 0 -1.02033e-10

-5.8913e-11 3.42006e-11 0
3.42006e-11 -5.60541e-11 0
0 0 -3.44901e-11

8.19181e-11 -4.43532e-11 0
-4.43532e-11 2.13178e-10 0
0 0 8.85289e-11

6.51434e-12 -1.41595e-11 0
-1.41595e-11 -8.10666e-11 0
0 0 -2.23657e-11

8.03825e-11 -1.65531e-11 0
-1.65531e-11 2.09595e-10 0
0 0 8.69932e-11

-1.79312e-12 -8.67113e-12 0
-8.67113e-12 -1.00451e-10 0
0 0 -3.06731e-11

-3.31669e-11 1.33502e-11 0
1.33502e-11 -1.58733e-10 0
0 0 -5.757e-11

5.538e-11 8.88379e-12 0
8.88379e-12 7.84646e-11 0
0 0 4.01534e-11

-3.20704e-11 7.35774e-12 0
7.35774e-12 -1.56175e-10 0
0 0 -5.64736e-11

5.89572e-11 1.02203e-11 0
1.02203e-11 8.68116e-11 0
0 0 4.37306e-11

3.22158e-11 -1.28901e-11 0
-1.28901e-11 5.72763e-11 0
0 0 2.68476e-11

2.953e-11 -1.2905e-11 0
-1.2905e-11 2.31754e-11 0
0 0 1.58116e-11

5.3424e-11 -1.22963e-11 0
-1.22963e-11 1.06762e-10 0
0 0 4.80558e-11

3.97766e-11 -3.9923e-12 0
-3.9923e-12 4.70842e-11 0
0 0 2.60582e-11

-1.05085e-10 1.53843e-11 0
1.53843e-11 -3.00282e-10 0
0 0 -1.2161e-10

1.03961e-12 8.96602e-12 0
8.96602e-12 -3.05614e-11 0
0 0 -8.85653e-12

-1.03071e-10 8.19079e-12 0
8.19079e-12 -2.95584e-10 0
0 0 -1.19597e-10

5.0172e-12 4.86234e-12 0
4.86234e-12 -2.12804e-11 0
0 0 -4.87895e-12

1.101e-10 -9.07894e-12 0
-9.07894e-12 2.07304e-10 0
0 0 9.52213e-11

-3.83708e-12 -2.91359e-12 0
-2.91359e-12 -8.25748e-11 0
0 0 -2.59236e-11

1.24134e-10 -1.48472e-12 0
-1.48472e-12 2.4005e-10 0
0 0 1.09255e-10

-9.74902e-12 2.8334e-12 0
2.8334e-12 -9.63694e-11 0
0 0 -3.18355e-11

-4.21744e-11 1.9786e-12 0
1.9786e-12 -1.68621e-10 0
0 0 -6.32387e-11

6.46973e-11 -2.82366e-12 0
-2.82366e-12 8.88568e-11 0
0 0 4.60662e-11

-4.79775e-11 2.14553e-12 0
2.14553e-12 -1.82162e-10 0
0 0 -6.90418e-11

5.81448e-11 4.61886e-14 0
4.61886e-14 7.35677e-11 0
0 0 3.95138e-11

3.39005e-11 6.56273e-12 0
6.56273e-12 1.04551e-10 0
0 0 4.15356e-11

4.35695e-11 4.40051e-12 0
4.40051e-12 6.37648e-11 0
0 0 3.22003e-11

2.16442e-11 1.45282e-11 0
1.45282e-11 7.59535e-11 0
0 0 2.92793e-11

2.45847e-11 1.07735e-11 0
1.07735e-11 1.94669e-11 0
0 0 1.32155e-11

-9.67725e-11 -6.20796e-12 0
-6.20796e-12 -2.82431e-10 0
0 0 -1.13761e-10

-3.36929e-12 -4.69402e-12 0
-4.69402e-12 -3.59066e-11 0
0 0 -1.17828e-11

-1.02016e-10 -1.34495e-11 0
-1.34495e-11 -2.94667e-10 0
0 0 -1.19005e-10

5.37531e-12 -9.39398e-12 0
-9.39398e-12 -1.55026e-11 0
0 0 -3.03818e-12

1.19093e-10 -8.5665e-12 0
-8.5665e-12 2.33812e-10 0
0 0 1.05871e-10

-9.90304e-12 -6.62206e-12 0
-6.62206e-12 -9.85643e-11 0
0 0 -3.25402e-11

1.18258e-10 3.86125e-12 0
3.86125e-12 2.31865e-10 0
0 0 1.05037e-10

-1.43482e-11 3.18706e-13 0
3.18706e-13 -1.08936e-10 0
0 0 -3.69854e-11

-4.09292e-11 -1.05965e-11 0
-1.05965e-11 -1.69543e-10 0
0 0 -6.31415e-11

6.83358e-11 -9.52999e-12 0
-9.52999e-12 7.79841e-11 0
0 0 4.3896e-11

-4.65225e-11 -9.34701e-12 0
-9.34701e-12 -1.82593e-10 0
0 0 -6.87348e-11

7.40941e-11 -6.74938e-12 0
-6.74938e-12 9.14199e-11 0
0 0 4.96542e-11

-7.48574e-11 -1.07649e-11 0
-1.07649e-11 3.6473e-11 0
0 0 -1.15153e-11

1.12227e-10 1.94968e-11 0
1.94968e-11 6.87308e-11 0
0 0 5.42872e-11

-3.16204e-11 5.55349e-11 0
5.55349e-11 1.37359e-10 0
0 0 3.17217e-11

1.69894e-10 6.72578e-11 0
6.72578e-11 2.03287e-10 0
0 0 1.11954e-10

-5.02279e-11 -3.67096e-11 0
-3.67096e-11 -2.55975e-10 0
0 0 -9.1861e-11

-6.04335e-11 -2.90416e-11 0
-2.90416e-11 -5.25546e-11 0
0 0 -3.38964e-11

-4.72287e-11 -8.92176e-11 0
-8.92176e-11 -2.48977e-10 0
0 0 -8.88618e-11

-5.97529e-11 -5.46868e-11 0
-5.46868e-11 -5.09666e-11 0
0 0 -3.32159e-11

8.18725e-11 1.9679e-11 0
1.9679e-11 2.15546e-10 0
0 0 8.92255e-11

1.33121e-11 6.18188e-12 0
6.18188e-12 -6.70754e-11 0
0 0 -1.6129e-11

7.5487e-11 4.63304e-11 0
4.63304e-11 2.00646e-10 0
0 0 8.284e-11

8.22963e-12 1.39821e-11 0
1.39821e-11 -7.89345e-11 0
0 0 -2.12115e-11

-3.95325e-11 -1.33161e-11 0
-1.33161e-11 -1.75249e-10 0
0 0 -6.44345e-11

6.9117e-11 -1.35937e-11 0
-1.35937e-11 9.3496e-11 0
0 0 4.87839e-11

-3.60846e-11 -1.60679e-11 0
-1.60679e-11 -1.67204e-10 0
0 0 -6.09866e-11

6.431e-11 -1.13558e-11 0
-1.13558e-11 8.22796e-11 0
0 0 4.39769e-11

TENSORS velocity_gradient double
4.19296e-15 5.55555e-14 0
3.08642e-14 -1.25455e-13 0
0 0 0

1.59755e-14 -6.5882e-14 0
3.73035e-14 5.06262e-13 0
0 0 0

4.19296e-15 1.57382e-14 0
5.55112e-14 -1.07914e-13 0
0 0 0

1.59755e-14 -3.68995e-14 0
2.84217e-14 4.54747e-13 0
0 0 0

4.37036e-14 -5.31976e-14 0
1.02141e-14 2.09166e-13 0
0 0 0

2.58269e-14 8.78205e-14 0
8.88178e-15 -5.45342e-13 0
0 0 0

4.37036e-14 -2.92332e-14 0
3.77476e-15 1.8141e-13 0
0 0 0

2.58269e-14 5.59967e-14 0
7.10543e-15 -5.11591e-13 0
0 0 0

-4.95547e-15 7.72852e-14 0
3.74145e-14 -2.75224e-13 0
0 0 0

2.12167e-15 -3.98406e-14 0
3.19744e-14 3.8014e-13 0
0 0 0

-4.95547e-15 4.96273e-14 0
3.07532e-14 -2.46358e-13 0
0 0 0

2.12167e-15 -2.11851e-14 0
2.84217e-14 3.83693e-13 0
0 0 0

1.96419e-14 -3.18196e-14 0
2.82552e-14 1.27731e-13 0
0 0 0

-4.1057e-15 5.73534e-14 0
1.06581e-14 -3.55271e-15 0
0 0 0

1.96419e-14 -1.7705e-14 0
4.65183e-14 1.31783e-13 0
0 0 0

-4.1057e-15 2.0985e-14 0
2.13163e-14 -7.10543e-15 0
0 0 0

1.13233e-14 -8.68143e-16 0
-2.95319e-14 -1.14797e-13 0
0 0 0

2.316e-14 -1.56179e-14 0
-1.77636e-14 4.65405e-13 0
0 0 0

1.13233e-14 5.73642e-15 0
-4.62963e-14 -1.17351e-13 0
0 0 0

2.316e-14 -2.03714e-15 0
-1.06581e-14 5.00933e-13 0
0 0 0

3.60905e-14 -1.1761e-14 0
2.85882e-14 1.84908e-13 0
0 0 0

2.53838e-14 3.11171e-14 0
8.88178e-15 -5.45342e-13 0
0 0 0

3.60905e-14 -7.81211e-16 0
3.93019e-14 2.16938e-13 0
0 0 0

2.53838e-14 1.31815e-14 0
2.84217e-14 -5.54223e-13 0
0 0 0

7.96049e-15 2.78551e-14 0
2.27596e-15 -2.74836e-13 0
0 0 0

9.16065e-15 -8.40955e-15 0
-1.77636e-15 3.74811e-13 0
0 0 0

7.96049e-15 1.19688e-14 0
2.22045e-15 -2.67786e-13 0
0 0 0

9.16065e-15 -1.51389e-15 0
-3.55271e-15 3.6593e-13 0
0 0 0

1.6e-14 -7.31251e-15 0
3.77476e-15 1.17462e-13 0
0 0 0

2.0792e-14 4.88377e-15 0
-8.88178e-15 -8.88178e-15 0
0 0 0

1.6e-14 -6.42128e-16 0
3.66374e-15 1.38667e-13 0
0 0 0

2.0792e-14 9.04966e-15 0
-1.77636e-14 -3.19744e-14 0
0 0 0

-1.15247e-14 1.47506e-14 0
-3.28626e-14 -1.11022e-13 0
0 0 0

7.28401e-15 1.53884e-14 0
-4.61853e-14 5.22249e-13 0
0 0 0

-1.15247e-14 2.61744e-14 0
-3.08642e-14 -8.77076e-14 0
0 0 0

7.28401e-15 3.66588e-14 0
-3.55271e-14 4.83169e-13 0
0 0 0

2.78538e-14 1.39427e-14 0
-6.30052e-14 2.07001e-13 0
0 0 0

2.29555e-14 -2.12979e-15 0
-5.86198e-14 -5.56e-13 0
0 0 0

2.78538e-14 3.24107e-14 0
-8.11573e-14 1.81744e-13 0
0 0 0

2.29555e-14 -1.48168e-14 0
-5.32907e-14 -5.15143e-13 0
0 0 0

1.06859e-14 -1.48309e-15 0
-2.94209e-14 -2.71005e-13 0
0 0 0

1.35905e-14 5.70652e-15 0
-2.66454e-14 3.9968e-13 0
0 0 0

1.06859e-14 -1.25004e-14 0
-3.33067e-14 -2.4647e-13 0
0 0 0

1.35905e-14 1.32517e-14 0
-2.13163e-14 3.62377e-13 0
0 0 0

2.10116e-14 6.21754e-15 0
-9.9365e-15 1.46383e-13 0
0 0 0

2.39231e-14 1.18988e-14 0
-2.66454e-14 -2.66454e-14 0
0 0 0

2.10116e-14 1.32665e-14 0
-2.45359e-14 1.17573e-13 0
0 0 0

2.39231e-14 1.34311e-14 0
-2.84217e-14 -4.26326e-14 0
0 0 0

-2.19069e-14 1.7172e-14 0
-1.03695e-13 -8.9484e-14 0
0 0 0

-5.9062e-15 6.28658e-14 0
-6.92779e-14 4.7784e-13 0
0 0 0

-2.19069e-14 -1.22566e-14 0
-1.00253e-13 -1.28675e-13 0
0 0 0

-5.9062e-15 9.40096e-14 0
-7.81597e-14 5.04485e-13 0
0 0 0

2.41419e-14 5.50252e-14 0
-2.67009e-14 2.00673e-13 0
0 0 0

1.43594e-14 -3.21421e-14 0
-3.90799e-14 -5.3646e-13 0
0 0 0

2.41419e-14 8.17863e-14 0
-2.03171e-14 2.49689e-13 0
0 0 0

1.43594e-14 -5.41058e-14 0
-3.55271e-14 -5.47118e-13 0
0 0 0

-6.69119e-15 -2.71648e-14 0
-5.26246e-14 -2.16049e-13 0
0 0 0

5.45012e-15 2.81704e-14 0
-4.26326e-14 3.97904e-13 0
0 0 0

-6.69119e-15 -4.54762e-14 0
-3.85247e-14 -2.65898e-13 0
0 0 0

5.45012e-15 5.04626e-14 0
-5.32907e-14 4.01457e-13 0
0 0 0

2.64977e-14 2.54477e-14 0
-2.63678e-14 1.29952e-13 0
0 0 0

2.2988e-15 -4.82094e-15 0
-1.59872e-14 -1.77636e-15 0
0 0 0

2.64977e-14 4.27613e-14 0
-5.44009e-15 1.50879e-13 0
0 0 0

2.2988e-15 -4.28573e-14 0
-1.77636e-14 -3.19744e-14 0
0 0 0

SCALARS active double 1
LOOKUP_TABLE default
1
1
1
1
1
1
1
1
1
1
1
1
1
1
1
1
1
1
1
1
1
1
1
1
1
1
1
1
1
1
1
1
1
1
1
1
1
1
1
1
1
1
1
1
1
1
1
1
1
1
1
1
1
1
1
1
1
1
1
1
1
1
1
1
SCALARS extent double 1
LOOKUP_TABLE default
0.0125
0.0125
0.0125
0.0125
0.0125
0.0125
0.0125
0.0125
0.0125
0.0125
0.0125
0.0125
0.0125
0.0125
0.0125
0.0125
0.0125
0.0125
0.0125
0.0125
0.0125
0.0125
0.0125
0.0125
0.0125
0.0125
0.0125
0.0125
0.0125
0.0125
0.0125
0.0125
0.0125
0.0125
0.0125
0.0125
0.0125
0.0125
0.0125
0.0125
0.0125
0.0125
0.0125
0.0125
0.0125
0.0125
0.0125
0.0125
0.0125
0.0125
0.0125
0.0125
0.0125
0.0125
0.0125
0.0125
0.0125
0.0125
0.0125
0.0125
0.0125
0.0125
0.0125
0.0125
SCALARS pressure double 1
LOOKUP_TABLE default
-4.71079e-11
-1.49344e-10
-7.56431e-12
-8.70906e-11
1.49949e-10
5.46069e-11
1.47381e-10
4.9819e-11
-1.27875e-10
3.2306e-11
-1.25657e-10
4.43056e-11
8.31567e-11
-5.79993e-11
8.15729e-11
-6.31665e-11
-3.87799e-11
-2.2839e-11
-6.9414e-11
-3.76397e-11
1.75659e-10
1.27928e-11
1.72751e-10
7.04737e-12
-1.37542e-10
3.74452e-11
-1.57813e-10
4.59846e-11
9.13448e-11
-6.65401e-11
9.9727e-11
-5.70754e-11
-5.99958e-11
-4.65115e-11
-4.22924e-11
-1.9089e-11
1.64322e-10
1.70196e-11
1.71896e-10
4.38848e-12
-1.52925e-10
4.70025e-11
-1.5172e-10
5.34233e-11
9.12044e-11
-6.34053e-11
9.92836e-11
-7.17227e-11
1.66333e-11
-7.84148e-11
-4.58203e-11
-1.61712e-10
1.32688e-10
4.89615e-11
1.28356e-10
4.79785e-11
-1.28881e-10
2.32974e-11
-1.19658e-10
3.06388e-11
9.30721e-11
-7.04657e-11
8.80917e-11
-6.35221e-11
SCALARS density double 1
LOOKUP_TABLE default
1000
1000
1000
1000
1000
1000
1000
1000
1000
1000
1000
1000
1000
1000
1000
1000
1000
1000
1000
1000
1000
1000
1000
1000
1000
1000
1000
1000
1000
1000
1000
1000
1000
1000
1000
1000
1000
1000
1000
1000
1000
1000
1000
1000
1000
1000
1000
1000
1000
1000
1000
1000
1000
1000
1000
1000
1000
1000
1000
1000
1000
1000
1000
1000
