# vtk DataFile Version 3.0
Frame: 39, Time: 0.65
ASCII
DATASET UNSTRUCTURED_GRID
POINTS 64 double
0.438599 0.043888 0 
0.411987 0.0433435 0 
0.436358 0.0680644 0 
0.41019 0.0671557 0 
0.386083 0.0418537 0 
0.359282 0.0405882 0 
0.386235 0.0640353 0 
0.359524 0.0618842 0 
0.333924 0.0401618 0 
0.308424 0.0366777 0 
0.332351 0.0621269 0 
0.30616 0.0582656 0 
0.280868 0.0375303 0 
0.256335 0.0368143 0 
0.278823 0.0589349 0 
0.254416 0.0575242 0 
0.432169 0.0920485 0 
0.407043 0.0897415 0 
0.434769 0.114798 0 
0.408231 0.111903 0 
0.383091 0.0863501 0 
0.357739 0.0843118 0 
0.383342 0.109806 0 
0.358266 0.107788 0 
0.331156 0.0830586 0 
0.30582 0.0793395 0 
0.33228 0.106041 0 
0.306028 0.103779 0 
0.279836 0.0816839 0 
0.252958 0.0832694 0 
0.279775 0.105504 0 
0.254217 0.106721 0 
0.434834 0.139312 0 
0.40882 0.134329 0 
0.432621 0.163338 0 
0.407164 0.159158 0 
0.38357 0.132117 0 
0.358094 0.131521 0 
0.383511 0.156926 0 
0.357824 0.156905 0 
0.33267 0.129966 0 
0.30753 0.127803 0 
0.331236 0.154013 0 
0.307237 0.153365 0 
0.281187 0.128518 0 
0.255333 0.129709 0 
0.281278 0.154492 0 
0.254425 0.154743 0 
0.431698 0.186801 0 
0.405922 0.182998 0 
0.426356 0.210834 0 
0.401843 0.208726 0 
0.382187 0.182612 0 
0.356404 0.180087 0 
0.377788 0.208351 0 
0.35288 0.204783 0 
0.330312 0.177443 0 
0.306134 0.178758 0 
0.328345 0.204161 0 
0.304558 0.205263 0 
0.281676 0.178497 0 
0.255247 0.178253 0 
0.280662 0.203065 0 
0.255893 0.203291 0 
CELLS 64 128
1 0
1 1
1 2
1 3
1 4
1 5
1 6
1 7
1 8
1 9
1 10
1 11
1 12
1 13
1 14
1 15
1 16
1 17
1 18
1 19
1 20
1 21
1 22
1 23
1 24
1 25
1 26
1 27
1 28
1 29
1 30
1 31
1 32
1 33
1 34
1 35
1 36
1 37
1 38
1 39
1 40
1 41
1 42
1 43
1 44
1 45
1 46
1 47
1 48
1 49
1 50
1 51
1 52
1 53
1 54
1 55
1 56
1 57
1 58
1 59
1 60
1 61
1 62
1 63
CELL_TYPES 64
1
1
1
1
1
1
1
1
1
1
1
1
1
1
1
1
1
1
1
1
1
1
1
1
1
1
1
1
1
1
1
1
1
1
1
1
1
1
1
1
1
1
1
1
1
1
1
1
1
1
1
1
1
1
1
1
1
1
1
1
1
1
1
1
POINT_DATA 64
VECTORS displacement double
0.0260985 -0.368612 0 
-0.000512847 -0.394157 0 
-0.00114186 -0.344436 0 
-0.0273097 -0.370344 0 
-0.0264166 -0.420646 0 
-0.0532176 -0.446912 0 
-0.0512647 -0.398465 0 
-0.0779762 -0.425616 0 
-0.0785763 -0.472338 0 
-0.104076 -0.500822 0 
-0.105149 -0.450373 0 
-0.13134 -0.479234 0 
-0.131632 -0.52497 0 
-0.156165 -0.550686 0 
-0.158677 -0.503565 0 
-0.183084 -0.529976 0 
-0.0303309 -0.320452 0 
-0.0554569 -0.347758 0 
-0.0527305 -0.297702 0 
-0.0792687 -0.325597 0 
-0.0794085 -0.37615 0 
-0.104761 -0.403188 0 
-0.104158 -0.352694 0 
-0.129234 -0.379712 0 
-0.131344 -0.429441 0 
-0.15668 -0.458161 0 
-0.15522 -0.406459 0 
-0.181472 -0.433721 0 
-0.182664 -0.480816 0 
-0.209542 -0.504231 0 
-0.207725 -0.456996 0 
-0.233283 -0.480779 0 
-0.0776657 -0.273188 0 
-0.10368 -0.303171 0 
-0.104879 -0.249162 0 
-0.130336 -0.278342 0 
-0.12893 -0.330383 0 
-0.154406 -0.355979 0 
-0.153989 -0.305574 0 
-0.179676 -0.330595 0 
-0.17983 -0.382534 0 
-0.20497 -0.409697 0 
-0.206264 -0.358487 0 
-0.230263 -0.384135 0 
-0.231313 -0.433982 0 
-0.257167 -0.457791 0 
-0.256222 -0.408008 0 
-0.283075 -0.432757 0 
-0.130802 -0.225699 0 
-0.156578 -0.254502 0 
-0.161144 -0.201666 0 
-0.185657 -0.228774 0 
-0.180313 -0.279888 0 
-0.206096 -0.307413 0 
-0.209712 -0.254149 0 
-0.23462 -0.282717 0 
-0.232188 -0.335057 0 
-0.256366 -0.358742 0 
-0.259155 -0.308339 0 
-0.282942 -0.332237 0 
-0.280824 -0.384003 0 
-0.307253 -0.409247 0 
-0.306838 -0.359435 0 
-0.331607 -0.384209 0 
VECTORS velocity double
-0.633886 0.419937 0 
-1.02811 0.818502 0 
-1.02387 0.768669 0 
-1.23802 0.88158 0 
-0.0906015 0.559802 0 
-1.50605 0.585721 0 
-0.2084 0.448065 0 
-0.482648 1.07621 0 
-0.319541 0.190443 0 
-0.0246504 0.16224 0 
0.200562 1.15924 0 
-0.253861 0.815694 0 
-0.0162316 0.207107 0 
0.426897 0.0700529 0 
0.0140244 0.418794 0 
0.149397 0.0903334 0 
-0.785335 1.03028 0 
-1.24393 0.737659 0 
-0.943752 1.08605 0 
-1.33888 0.321804 0 
-0.535637 0.812787 0 
-0.368143 1.05968 0 
-1.04876 0.880588 0 
-1.25803 1.00699 0 
-0.396747 0.791738 0 
-0.6193 0.387174 0 
-1.00297 0.688845 0 
-0.749579 0.786574 0 
0.0443841 0.386236 0 
0.257674 -0.0946252 0 
0.119917 1.27965 0 
-0.264558 0.177837 0 
-0.972128 1.10484 0 
-1.02918 0.48768 0 
-1.27589 0.841733 0 
-0.884298 1.05462 0 
-0.701449 0.976034 0 
-0.79148 0.959244 0 
-1.0034 0.996 0 
-1.24003 1.01933 0 
-0.406215 0.656151 0 
-0.375404 0.695202 0 
-1.00094 1.07635 0 
-1.41182 0.960108 0 
-0.422692 0.595076 0 
-0.502006 -0.0370467 0 
-1.08102 1.3244 0 
-0.477785 0.825011 0 
-1.06329 1.18179 0 
-0.842991 0.811499 0 
-1.33397 1.07579 0 
-1.33192 0.664118 0 
-0.670484 0.634466 0 
-0.427355 1.10585 0 
-1.20579 1.13817 0 
-0.992428 1.15803 0 
-0.377396 1.11993 0 
-0.547019 0.656156 0 
-1.11488 0.873229 0 
-0.770162 1.1936 0 
0.103276 1.05622 0 
-0.530054 0.727937 0 
-0.537381 1.26558 0 
-0.210723 1.2993 0 
SCALARS mass double 1
LOOKUP_TABLE default
0.625
0.625
0.625
0.625
0.625
0.625
0.625
0.625
0.625
0.625
0.625
0.625
0.625
0.625
0.625
0.625
0.625
0.625
0.625
0.625
0.625
0.625
0.625
0.625
0.625
0.625
0.625
0.625
0.625
0.625
0.625
0.625
0.625
0.625
0.625
0.625
0.625
0.625
0.625
0.625
0.625
0.625
0.625
0.625
0.625
0.625
0.625
0.625
0.625
0.625
0.625
0.625
0.625
0.625
0.625
0.625
0.625
0.625
0.625
0.625
0.625
0.625
0.625
0.625
SCALARS volume double 1
LOOKUP_TABLE default
0.000632527
0.000565565
0.000625686
0.000602412
0.00055435
0.000561304
0.000564911
0.000597127
0.000508024
0.000489601
0.000567431
0.000582788
0.000501856
0.000477724
0.000593716
0.000591296
0.000571843
0.000569638
0.000638495
0.000631512
0.000585768
0.000633056
0.00057974
0.000585146
0.000607099
0.000572114
0.000592533
0.000615588
0.000611989
0.000585861
0.000589116
0.000610996
0.000624214
0.000618773
0.000623438
0.000608871
0.000629534
0.000610421
0.000640919
0.000595544
0.000628301
0.000633447
0.000616784
0.000614526
0.000605224
0.000613088
0.000634419
0.000610847
0.000623968
0.000628135
0.000622358
0.000613938
0.00061586
0.000605677
0.000617491
0.000605645
0.000620153
0.000614967
0.000621615
0.000598465
0.000607282
0.000599923
0.000629369
0.000612243
VECTORS momentum double
-0.396179 0.262461 0 
-0.642571 0.511563 0 
-0.639919 0.480418 0 
-0.77376 0.550988 0 
-0.0566259 0.349876 0 
-0.941279 0.366076 0 
-0.13025 0.280041 0 
-0.301655 0.672633 0 
-0.199713 0.119027 0 
-0.0154065 0.1014 0 
0.125351 0.724525 0 
-0.158663 0.509809 0 
-0.0101448 0.129442 0 
0.266811 0.0437831 0 
0.00876522 0.261747 0 
0.0933729 0.0564584 0 
-0.490834 0.643924 0 
-0.777458 0.461037 0 
-0.589845 0.678782 0 
-0.8368 0.201128 0 
-0.334773 0.507992 0 
-0.23009 0.6623 0 
-0.655476 0.550367 0 
-0.786268 0.629367 0 
-0.247967 0.494836 0 
-0.387063 0.241984 0 
-0.626859 0.430528 0 
-0.468487 0.491608 0 
0.0277401 0.241397 0 
0.161046 -0.0591408 0 
0.0749478 0.79978 0 
-0.165349 0.111148 0 
-0.60758 0.690525 0 
-0.643236 0.3048 0 
-0.797432 0.526083 0 
-0.552686 0.659137 0 
-0.438406 0.610021 0 
-0.494675 0.599528 0 
-0.627128 0.6225 0 
-0.775018 0.637079 0 
-0.253884 0.410094 0 
-0.234627 0.434501 0 
-0.625588 0.67272 0 
-0.882388 0.600068 0 
-0.264182 0.371922 0 
-0.313754 -0.0231542 0 
-0.675639 0.827749 0 
-0.298616 0.515632 0 
-0.664559 0.738617 0 
-0.52687 0.507187 0 
-0.833734 0.67237 0 
-0.832448 0.415074 0 
-0.419052 0.396541 0 
-0.267097 0.691155 0 
-0.753617 0.711354 0 
-0.620267 0.723766 0 
-0.235873 0.699956 0 
-0.341887 0.410097 0 
-0.696799 0.545768 0 
-0.481351 0.745998 0 
0.0645476 0.660137 0 
-0.331284 0.45496 0 
-0.335863 0.790986 0 
-0.131702 0.812065 0 
VECTORS body_force double
0 -9.81 0 
0 -9.81 0 
0 -9.81 0 
0 -9.81 0 
0 -9.81 0 
0 -9.81 0 
0 -9.81 0 
0 -9.81 0 
0 -9.81 0 
0 -9.81 0 
0 -9.81 0 
0 -9.81 0 
0 -9.81 0 
0 -9.81 0 
0 -9.81 0 
0 -9.81 0 
0 -9.81 0 
0 -9.81 0 
0 -9.81 0 
0 -9.81 0 
0 -9.81 0 
0 -9.81 0 
0 -9.81 0 
0 -9.81 0 
0 -9.81 0 
0 -9.81 0 
0 -9.81 0 
0 -9.81 0 
0 -9.81 0 
0 -9.81 0 
0 -9.81 0 
0 -9.81 0 
0 -9.81 0 
0 -9.81 0 
0 -9.81 0 
0 -9.81 0 
0 -9.81 0 
0 -9.81 0 
0 -9.81 0 
0 -9.81 0 
0 -9.81 0 
0 -9.81 0 
0 -9.81 0 
0 -9.81 0 
0 -9.81 0 
0 -9.81 0 
0 -9.81 0 
0 -9.81 0 
0 -9.81 0 
0 -9.81 0 
0 -9.81 0 
0 -9.81 0 
0 -9.81 0 
0 -9.81 0 
0 -9.81 0 
0 -9.81 0 
0 -9.81 0 
0 -9.81 0 
0 -9.81 0 
0 -9.81 0 
0 -9.81 0 
0 -9.81 0 
0 -9.81 0 
0 -9.81 0 
TENSORS cauchy_stress double
8932.34 10291.6 0
10291.6 -6630.32 0
0 0 690.607

-6729.37 1108.51 0
1108.51 -12487.3 0
0 0 -5765.01

-645.128 -2400.73 0
-2400.73 856.155 0
0 0 63.3082

-2571.01 2718.6 0
2718.6 -4507.84 0
0 0 -2123.66

-5025.45 4869.21 0
4869.21 -18042.8 0
0 0 -6920.48

864.824 -703.247 0
-703.247 -21535.7 0
0 0 -6201.26

-6677.98 7519.15 0
7519.15 -12761.2 0
0 0 -5831.74

4482.58 -6214.55 0
-6214.55 -13256.1 0
0 0 -2632.04

-13338.8 -2047.46 0
-2047.46 -26511.8 0
0 0 -11955.2

-9685.68 -1503.96 0
-1503.96 -37268.3 0
0 0 -14086.2

-1486.16 1676.81 0
1676.81 -17096.9 0
0 0 -5574.92

-1382.17 1662.93 0
1662.93 -12065.6 0
0 0 -4034.33

-8380.43 -4118.49 0
-4118.49 -33819.2 0
0 0 -12659.9

-14598.6 -5927.24 0
-5927.24 -37077.9 0
0 0 -15503

-947.221 -674.212 0
-674.212 -8927.85 0
0 0 -2962.52

-3227.38 2081.11 0
2081.11 -7433.04 0
0 0 -3198.13

-10802.5 1807.33 0
1807.33 -6291.03 0
0 0 -5128.07

-2151.27 974.857 0
974.857 -15685.3 0
0 0 -5350.99

2847.06 2224.25 0
2224.25 1261.11 0
0 0 1232.45

8580.33 7.97381 0
7.97381 -6587.07 0
0 0 597.98

-4081.53 5783.6 0
5783.6 -8385.33 0
0 0 -3740.06

3264.21 -5875.82 0
-5875.82 -801.322 0
0 0 738.865

-4218.02 5211.91 0
5211.91 -10238.2 0
0 0 -4336.86

-2835.6 -3.58708 0
-3.58708 -9835.65 0
0 0 -3801.38

2194.73 -4736.55 0
-4736.55 -7783.03 0
0 0 -1676.49

-8183.98 3358.68 0
3358.68 -8818.58 0
0 0 -5100.77

-2162.61 6213.24 0
6213.24 -8096.11 0
0 0 -3077.62

4210.2 3126.62 0
3126.62 -7128.12 0
0 0 -875.374

3377.66 -292.409 0
-292.409 -7423.38 0
0 0 -1213.72

-3051.61 1723.33 0
1723.33 -9384.6 0
0 0 -3730.86

-1174.93 300.739 0
300.739 -10196 0
0 0 -3411.27

1173.16 349.909 0
349.909 -5530.96 0
0 0 -1307.34

-581.098 -268.551 0
-268.551 339.24 0
0 0 -72.5574

2395.44 779.216 0
779.216 -4321.01 0
0 0 -577.67

-380.983 -880.17 0
-880.17 -100.361 0
0 0 -144.403

-3259.44 1041.93 0
1041.93 -1768.51 0
0 0 -1508.38

4364.48 1332.84 0
1332.84 -2974.29 0
0 0 417.055

-2695.28 -4741.59 0
-4741.59 -1843.79 0
0 0 -1361.72

2658.48 2406.62 0
2406.62 2178.38 0
0 0 1451.06

-826.883 4512.25 0
4512.25 -8457 0
0 0 -2785.16

6298.66 -3100.55 0
-3100.55 -5285.64 0
0 0 303.908

4460.26 -7427.55 0
-7427.55 -1878.59 0
0 0 774.501

2626.55 6333.61 0
6333.61 -5171.24 0
0 0 -763.407

-2601.62 801.739 0
801.739 -648.48 0
0 0 -975.03

210.164 -3733.89 0
-3733.89 -6393.38 0
0 0 -1854.96

1624.41 666.224 0
666.224 -5324.99 0
0 0 -1110.17

6375 2165.53 0
2165.53 -3498.38 0
0 0 862.986

5.23937 -3149.43 0
-3149.43 -4409.94 0
0 0 -1321.41

673.825 -173.955 0
-173.955 -991.765 0
0 0 -95.3821

1515.18 130.188 0
130.188 -552.981 0
0 0 288.659

-348.705 406.952 0
406.952 -465.846 0
0 0 -244.365

-2566.79 -56.3138 0
-56.3138 -867.512 0
0 0 -1030.29

212.577 -264.64 0
-264.64 -3045.69 0
0 0 -849.935

-1824.4 -5178.13 0
-5178.13 -4214.91 0
0 0 -1811.79

-2518.05 52.7004 0
52.7004 193.611 0
0 0 -697.331

-3899.54 -2572.07 0
-2572.07 -2150.13 0
0 0 -1814.9

1095.85 -1678.79 0
-1678.79 -2593.15 0
0 0 -449.19

-4871.23 -7043.33 0
-7043.33 1759.05 0
0 0 -933.654

-2126.7 1085.95 0
1085.95 1082.29 0
0 0 -313.323

-5475.12 -2468.74 0
-2468.74 -2867.91 0
0 0 -2502.91

-795.014 -2986.76 0
-2986.76 -4735.46 0
0 0 -1659.14

-2647.74 -3018.69 0
-3018.69 -5227.18 0
0 0 -2362.48

-1686.82 -473.986 0
-473.986 3026.33 0
0 0 401.853

-3925.97 -2541.45 0
-2541.45 -39.7659 0
0 0 -1189.72

TENSORS velocity_gradient double
-4.13905 -17.5654 0
-1.89821 12.2857 0
0 0 0

-4.08298 -15.0135 0
-1.87249 13.456 0
0 0 0

-2.85534 -1.64017 0
-0.488247 5.417 0
0 0 0

-2.95691 -4.54157 0
-0.578321 2.84414 0
0 0 0

-3.84709 -12.5588 0
-0.511998 14.1752 0
0 0 0

-3.72953 -10.0496 0
-0.496353 14.5091 0
0 0 0

-4.82332 -5.59901 0
-0.888398 2.02835 0
0 0 0

-4.79685 -5.27132 0
-0.844672 2.56961 0
0 0 0

-5.6221 -6.90578 0
3.98502 13.0408 0
0 0 0

-5.14747 -3.26768 0
3.6486 10.4621 0
0 0 0

-6.84553 -5.51767 0
4.59641 3.42041 0
0 0 0

-6.92528 -6.0829 0
4.73617 4.41106 0
0 0 0

-4.011 0.00305653 0
4.92563 7.07455 0
0 0 0

-3.93896 2.65255 0
4.8458 3.81942 0
0 0 0

-5.58904 -5.70662 0
7.02032 3.63329 0
0 0 0

-3.8916 -5.04131 0
6.47525 2.5923 0
0 0 0

-0.217522 -2.099 0
1.85088 5.01012 0
0 0 0

-0.466758 -4.87831 0
1.62986 2.54553 0
0 0 0

-0.298411 -2.14102 0
2.18601 0.552103 0
0 0 0

-0.0841012 -0.132387 0
2.29318 1.55654 0
0 0 0

-5.09503 -5.56198 0
-1.3372 2.08952 0
0 0 0

-5.06981 -5.25087 0
-1.29553 2.60338 0
0 0 0

-4.70483 -0.430443 0
-1.60211 1.85906 0
0 0 0

-4.83448 -2.02065 0
-1.60807 1.78594 0
0 0 0

-6.39872 -5.54093 0
3.8133 3.46119 0
0 0 0

-6.47247 -6.08499 0
3.98368 4.41443 0
0 0 0

-5.60699 -3.99331 0
2.8871 2.66721 0
0 0 0

-5.71081 -5.87904 0
2.98143 4.02826 0
0 0 0

-6.1382 -5.73448 0
8.10958 3.68854 0
0 0 0

-3.85412 -4.96042 0
6.41176 2.62404 0
0 0 0

-6.35851 -6.92979 0
8.56601 5.48364 0
0 0 0

-5.26295 -8.01326 0
7.37213 7.38822 0
0 0 0

-2.15221 -2.14992 0
1.259 0.547655 0
0 0 0

-1.77826 -0.177213 0
1.446 1.53412 0
0 0 0

-2.83232 -1.62331 0
1.27337 1.33943 0
0 0 0

-2.8982 -2.02918 0
1.12201 0.407026 0
0 0 0

-3.29938 -0.415434 0
-1.53748 1.85975 0
0 0 0

-3.33941 -2.02851 0
-1.53932 1.78558 0
0 0 0

-2.35086 -1.5593 0
-1.71262 0.7129 0
0 0 0

-2.35171 -0.659449 0
-1.7115 1.65651 0
0 0 0

-3.86904 -3.81968 0
1.72047 2.57571 0
0 0 0

-4.02521 -5.68759 0
1.82421 3.81657 0
0 0 0

-2.69236 -0.496522 0
0.735201 2.24878 0
0 0 0

-2.6985 -0.361306 0
0.753041 2.7628 0
0 0 0

-5.50477 -7.00743 0
6.94981 5.5758 0
0 0 0

-5.19478 -8.00569 0
6.72926 7.43922 0
0 0 0

-4.71391 0.535926 0
4.71858 4.99944 0
0 0 0

-4.19471 0.71697 0
4.9714 8.26315 0
0 0 0

-2.4599 -1.63741 0
2.12895 1.30705 0
0 0 0

-2.51945 -2.04819 0
1.99214 0.363357 0
0 0 0

-1.97858 -4.06772 0
2.48388 0.546264 0
0 0 0

-2.64028 -4.58737 0
0.980988 0.908507 0
0 0 0

-3.2917 -1.53333 0
-2.66715 0.7391 0
0 0 0

-3.19559 -0.573135 0
-2.57037 1.70601 0
0 0 0

-4.30999 -3.81092 0
-3.28986 0.819539 0
0 0 0

-4.36633 -2.21084 0
-2.58119 0.887524 0
0 0 0

-3.76076 0.726678 0
0.492335 2.12095 0
0 0 0

-3.83286 2.04836 0
0.482335 2.30425 0
0 0 0

-5.18931 -0.882787 0
0.180239 1.45741 0
0 0 0

-5.26563 0.138449 0
0.0532068 1.99869 0
0 0 0

-4.78368 2.51463 0
1.50662 4.80372 0
0 0 0

-4.49366 2.63429 0
1.85193 8.41439 0
0 0 0

-5.34467 2.20548 0
-1.01655 2.24431 0
0 0 0

-5.35619 4.08685 0
-1.02351 2.1388 0
0 0 0

SCALARS active double 1
LOOKUP_TABLE default
1
1
1
1
1
1
1
1
1
1
1
1
1
1
1
1
1
1
1
1
1
1
1
1
1
1
1
1
1
1
1
1
1
1
1
1
1
1
1
1
1
1
1
1
1
1
1
1
1
1
1
1
1
1
1
1
1
1
1
1
1
1
1
1
SCALARS extent double 1
LOOKUP_TABLE default
0.0125
0.0125
0.0125
0.0125
0.0125
0.0125
0.0125
0.0125
0.0125
0.0125
0.0125
0.0125
0.0125
0.0125
0.0125
0.0125
0.0125
0.0125
0.0125
0.0125
0.0125
0.0125
0.0125
0.0125
0.0125
0.0125
0.0125
0.0125
0.0125
0.0125
0.0125
0.0125
0.0125
0.0125
0.0125
0.0125
0.0125
0.0125
0.0125
0.0125
0.0125
0.0125
0.0125
0.0125
0.0125
0.0125
0.0125
0.0125
0.0125
0.0125
0.0125
0.0125
0.0125
0.0125
0.0125
0.0125
0.0125
0.0125
0.0125
0.0125
0.0125
0.0125
0.0125
0.0125
SCALARS pressure double 1
LOOKUP_TABLE default
-997.544
8327.24
-91.4452
3067.5
9996.25
8957.37
8423.63
3801.84
17268.6
20346.7
8052.66
5827.37
18286.5
22393.2
4279.2
4619.51
7407.21
7729.2
-1780.21
-863.749
5402.31
-1067.25
6264.35
5490.88
2421.6
7367.78
4445.45
1264.43
1753.15
5389.02
4927.38
1888.38
104.805
834.412
208.582
2178.78
-602.413
1966.93
-2095.97
4023.02
-438.979
-1118.72
1102.7
1408.38
2679.39
1603.58
-1246.54
1908.7
137.774
-416.951
352.972
1488.2
1227.68
2617.03
1007.26
2621.52
648.83
1348.61
452.577
3615.31
2396.54
3412.47
-580.454
1718.49
SCALARS density double 1
LOOKUP_TABLE default
988.101
1105.09
998.903
1037.5
1127.45
1113.48
1106.37
1046.68
1230.26
1276.55
1101.45
1072.43
1245.38
1308.29
1052.69
1057
1092.96
1097.19
978.864
989.689
1066.98
987.275
1078.07
1068.11
1029.49
1092.44
1054.79
1015.29
1021.26
1066.81
1060.91
1022.92
1001.26
1010.06
1002.51
1026.49
992.797
1023.88
975.162
1049.46
994.746
986.665
1013.32
1017.04
1032.68
1019.43
985.153
1023.17
1001.65
995.009
1004.24
1018.02
1014.84
1031.9
1012.16
1031.96
1007.82
1016.32
1005.45
1044.34
1029.18
1041.8
993.059
1020.84
