# vtk DataFile Version 3.0
Frame: 48, Time: 0.8
ASCII
DATASET UNSTRUCTURED_GRID
POINTS 64 double
0.52132 0.391652 0 
0.541363 0.375392 0 
0.503867 0.37171 0 
0.523524 0.354203 0 
0.55933 0.357591 0 
0.579384 0.341037 0 
0.541865 0.337638 0 
0.562176 0.321638 0 
0.599458 0.325879 0 
0.617333 0.307956 0 
0.581764 0.305816 0 
0.599458 0.288907 0 
0.638349 0.293789 0 
0.659087 0.280292 0 
0.620821 0.274569 0 
0.64078 0.259038 0 
0.487425 0.35269 0 
0.505897 0.334856 0 
0.471336 0.333368 0 
0.490871 0.31511 0 
0.52544 0.318776 0 
0.545344 0.303413 0 
0.510209 0.298235 0 
0.528932 0.283212 0 
0.564388 0.286393 0 
0.582711 0.269434 0 
0.548148 0.266398 0 
0.567115 0.24949 0 
0.603422 0.254174 0 
0.624913 0.238975 0 
0.586654 0.234152 0 
0.606966 0.218576 0 
0.455045 0.313386 0 
0.473388 0.29468 0 
0.439564 0.293572 0 
0.456665 0.27478 0 
0.493471 0.279409 0 
0.512511 0.261661 0 
0.477333 0.259414 0 
0.494981 0.242809 0 
0.531709 0.245107 0 
0.551252 0.229116 0 
0.513939 0.225408 0 
0.532809 0.210423 0 
0.570142 0.212375 0 
0.590719 0.197178 0 
0.551658 0.193386 0 
0.573481 0.177794 0 
0.423851 0.275415 0 
0.440587 0.256378 0 
0.403851 0.255316 0 
0.421913 0.236567 0 
0.459959 0.240806 0 
0.479132 0.222193 0 
0.442021 0.219982 0 
0.461248 0.201608 0 
0.497514 0.205267 0 
0.51628 0.189045 0 
0.478964 0.186327 0 
0.49883 0.169489 0 
0.536633 0.172999 0 
0.557056 0.157675 0 
0.519704 0.153073 0 
0.539746 0.138239 0 
CELLS 64 128
1 0
1 1
1 2
1 3
1 4
1 5
1 6
1 7
1 8
1 9
1 10
1 11
1 12
1 13
1 14
1 15
1 16
1 17
1 18
1 19
1 20
1 21
1 22
1 23
1 24
1 25
1 26
1 27
1 28
1 29
1 30
1 31
1 32
1 33
1 34
1 35
1 36
1 37
1 38
1 39
1 40
1 41
1 42
1 43
1 44
1 45
1 46
1 47
1 48
1 49
1 50
1 51
1 52
1 53
1 54
1 55
1 56
1 57
1 58
1 59
1 60
1 61
1 62
1 63
CELL_TYPES 64
1
1
1
1
1
1
1
1
1
1
1
1
1
1
1
1
1
1
1
1
1
1
1
1
1
1
1
1
1
1
1
1
1
1
1
1
1
1
1
1
1
1
1
1
1
1
1
1
1
1
1
1
1
1
1
1
1
1
1
1
1
1
1
1
POINT_DATA 64
VECTORS displacement double
0.00882025 -0.220848 0 
0.0288633 -0.262108 0 
-0.0336328 -0.24079 0 
-0.0139762 -0.283297 0 
0.04683 -0.304909 0 
0.066884 -0.346463 0 
0.00436502 -0.324862 0 
0.024676 -0.365862 0 
0.0869578 -0.386621 0 
0.104833 -0.429544 0 
0.0442636 -0.406684 0 
0.061958 -0.448593 0 
0.125849 -0.468711 0 
0.146587 -0.507208 0 
0.0833207 -0.487931 0 
0.10328 -0.528462 0 
-0.0750748 -0.25981 0 
-0.0566032 -0.302644 0 
-0.116164 -0.279132 0 
-0.096629 -0.32239 0 
-0.0370605 -0.343724 0 
-0.0171564 -0.384087 0 
-0.0772909 -0.364265 0 
-0.0585676 -0.404288 0 
0.00188809 -0.426107 0 
0.0202106 -0.468066 0 
-0.0393516 -0.446102 0 
-0.0203849 -0.48801 0 
0.0409218 -0.508326 0 
0.062413 -0.548525 0 
-0.000846114 -0.528348 0 
0.0194659 -0.568924 0 
-0.157455 -0.299114 0 
-0.139112 -0.34282 0 
-0.197936 -0.318928 0 
-0.180835 -0.36272 0 
-0.119029 -0.383091 0 
-0.0999887 -0.425839 0 
-0.160167 -0.403086 0 
-0.142519 -0.444691 0 
-0.0807911 -0.467393 0 
-0.0612479 -0.508384 0 
-0.123561 -0.487092 0 
-0.104691 -0.527077 0 
-0.0423577 -0.550125 0 
-0.0217814 -0.590322 0 
-0.0858422 -0.569114 0 
-0.0640193 -0.609706 0 
-0.238649 -0.337085 0 
-0.221913 -0.381122 0 
-0.283649 -0.357184 0 
-0.265587 -0.400933 0 
-0.202541 -0.421694 0 
-0.183368 -0.465307 0 
-0.245479 -0.442518 0 
-0.226252 -0.485892 0 
-0.164986 -0.507233 0 
-0.14622 -0.548455 0 
-0.208536 -0.526173 0 
-0.18867 -0.568011 0 
-0.125867 -0.589501 0 
-0.105444 -0.629825 0 
-0.167796 -0.609427 0 
-0.147754 -0.649261 0 
VECTORS velocity double
-1.98324 -1.80157 0 
-1.92889 -1.41864 0 
-2.01985 -1.97481 0 
-1.36327 -1.45743 0 
-1.59845 -1.55959 0 
-1.49647 -1.55169 0 
-1.60075 -1.49979 0 
-1.3625 -1.53956 0 
-1.33298 -1.18367 0 
-1.44174 -1.41507 0 
-1.25039 -1.46485 0 
-1.56238 -1.70765 0 
-1.55451 -1.09398 0 
-1.23663 -1.25604 0 
-0.80751 -1.36941 0 
-1.17834 -1.12795 0 
-1.61909 -1.48343 0 
-1.43506 -1.77358 0 
-1.59397 -2.00084 0 
-1.45328 -1.3281 0 
-1.44535 -1.58757 0 
-1.15041 -1.60646 0 
-1.64307 -1.47969 0 
-1.6651 -1.41108 0 
-1.13139 -1.29703 0 
-1.36512 -1.36321 0 
-1.34902 -1.61326 0 
-1.18445 -1.47313 0 
-1.38803 -1.31303 0 
-0.945101 -1.39223 0 
-1.10773 -1.28683 0 
-1.10649 -1.11735 0 
-1.53604 -1.99646 0 
-0.951483 -1.75507 0 
-1.61725 -1.76228 0 
-1.26624 -1.60703 0 
-1.03156 -1.9452 0 
-1.19148 -1.52905 0 
-1.49366 -1.8371 0 
-1.12825 -1.15377 0 
-0.771368 -1.40215 0 
-1.16468 -1.63259 0 
-0.981143 -1.70297 0 
-1.51458 -1.3741 0 
-0.758811 -1.76623 0 
-0.675805 -1.38025 0 
-0.781926 -1.36033 0 
-1.23289 -1.07605 0 
-1.10318 -1.8524 0 
-1.07855 -1.78343 0 
-1.40614 -2.18422 0 
-0.824039 -1.70591 0 
-1.26308 -1.65008 0 
-0.833305 -1.39045 0 
-0.826823 -1.79106 0 
-1.2274 -1.85089 0 
-0.83999 -1.93425 0 
-1.29064 -1.83936 0 
-1.07132 -1.57626 0 
-0.850637 -1.49023 0 
-0.565739 -1.30251 0 
-0.902123 -1.47997 0 
-1.03973 -1.87318 0 
-0.889758 -1.88369 0 
SCALARS mass double 1
LOOKUP_TABLE default
0.625
0.625
0.625
0.625
0.625
0.625
0.625
0.625
0.625
0.625
0.625
0.625
0.625
0.625
0.625
0.625
0.625
0.625
0.625
0.625
0.625
0.625
0.625
0.625
0.625
0.625
0.625
0.625
0.625
0.625
0.625
0.625
0.625
0.625
0.625
0.625
0.625
0.625
0.625
0.625
0.625
0.625
0.625
0.625
0.625
0.625
0.625
0.625
0.625
0.625
0.625
0.625
0.625
0.625
0.625
0.625
0.625
0.625
0.625
0.625
0.625
0.625
0.625
0.625
SCALARS volume double 1
LOOKUP_TABLE default
0.000620957
0.000628113
0.000626908
0.000627322
0.000625687
0.000621738
0.000618584
0.000615473
0.000624946
0.000624987
0.000629212
0.000609107
0.000627795
0.000630262
0.000627639
0.000628629
0.000622751
0.000620988
0.000625436
0.000625113
0.00062171
0.00062658
0.000614916
0.000617377
0.000638589
0.000629646
0.000633811
0.000624978
0.000641118
0.000631542
0.000628202
0.000618953
0.000618243
0.000629776
0.000616527
0.000612154
0.000628589
0.000640777
0.000628316
0.000607955
0.000647094
0.00061618
0.000624883
0.000620964
0.000610076
0.000638324
0.00063151
0.00063876
0.000624103
0.000625204
0.000633361
0.000597092
0.000627616
0.000636394
0.000607189
0.000623804
0.000622535
0.000633753
0.00061199
0.000617516
0.000628355
0.000625833
0.000619491
0.000628236
VECTORS momentum double
-1.23952 -1.12598 0 
-1.20556 -0.886651 0 
-1.26241 -1.23425 0 
-0.852045 -0.910893 0 
-0.999029 -0.974741 0 
-0.935292 -0.969806 0 
-1.00047 -0.937366 0 
-0.851564 -0.962224 0 
-0.833115 -0.739795 0 
-0.901085 -0.884419 0 
-0.781494 -0.915529 0 
-0.976488 -1.06728 0 
-0.971572 -0.683735 0 
-0.772893 -0.785025 0 
-0.504694 -0.855882 0 
-0.736465 -0.704967 0 
-1.01193 -0.927142 0 
-0.896915 -1.10849 0 
-0.996229 -1.25053 0 
-0.908301 -0.830065 0 
-0.903343 -0.992234 0 
-0.719006 -1.00404 0 
-1.02692 -0.924809 0 
-1.04069 -0.881923 0 
-0.707116 -0.810643 0 
-0.853201 -0.852003 0 
-0.843139 -1.00829 0 
-0.740284 -0.920703 0 
-0.867522 -0.820645 0 
-0.590688 -0.870145 0 
-0.692331 -0.804271 0 
-0.691558 -0.698343 0 
-0.960025 -1.24779 0 
-0.594677 -1.09692 0 
-1.01078 -1.10142 0 
-0.791402 -1.0044 0 
-0.644728 -1.21575 0 
-0.744677 -0.955654 0 
-0.933536 -1.14818 0 
-0.705158 -0.721107 0 
-0.482105 -0.876345 0 
-0.727924 -1.02037 0 
-0.613214 -1.06436 0 
-0.94661 -0.858815 0 
-0.474257 -1.1039 0 
-0.422378 -0.862658 0 
-0.488704 -0.850208 0 
-0.770559 -0.672534 0 
-0.689488 -1.15775 0 
-0.674096 -1.11464 0 
-0.878839 -1.36514 0 
-0.515025 -1.06619 0 
-0.789427 -1.0313 0 
-0.520815 -0.869031 0 
-0.516765 -1.11941 0 
-0.767126 -1.15681 0 
-0.524994 -1.2089 0 
-0.806647 -1.1496 0 
-0.669575 -0.98516 0 
-0.531648 -0.931393 0 
-0.353587 -0.81407 0 
-0.563827 -0.924982 0 
-0.649833 -1.17074 0 
-0.556099 -1.1773 0 
VECTORS body_force double
0 -9.81 0 
0 -9.81 0 
0 -9.81 0 
0 -9.81 0 
0 -9.81 0 
0 -9.81 0 
0 -9.81 0 
0 -9.81 0 
0 -9.81 0 
0 -9.81 0 
0 -9.81 0 
0 -9.81 0 
0 -9.81 0 
0 -9.81 0 
0 -9.81 0 
0 -9.81 0 
0 -9.81 0 
0 -9.81 0 
0 -9.81 0 
0 -9.81 0 
0 -9.81 0 
0 -9.81 0 
0 -9.81 0 
0 -9.81 0 
0 -9.81 0 
0 -9.81 0 
0 -9.81 0 
0 -9.81 0 
0 -9.81 0 
0 -9.81 0 
0 -9.81 0 
0 -9.81 0 
0 -9.81 0 
0 -9.81 0 
0 -9.81 0 
0 -9.81 0 
0 -9.81 0 
0 -9.81 0 
0 -9.81 0 
0 -9.81 0 
0 -9.81 0 
0 -9.81 0 
0 -9.81 0 
0 -9.81 0 
0 -9.81 0 
0 -9.81 0 
0 -9.81 0 
0 -9.81 0 
0 -9.81 0 
0 -9.81 0 
0 -9.81 0 
0 -9.81 0 
0 -9.81 0 
0 -9.81 0 
0 -9.81 0 
0 -9.81 0 
0 -9.81 0 
0 -9.81 0 
0 -9.81 0 
0 -9.81 0 
0 -9.81 0 
0 -9.81 0 
0 -9.81 0 
0 -9.81 0 
TENSORS cauchy_stress double
-161.484 305.808 0
305.808 -1086.43 0
0 0 -374.375

2317.58 675.044 0
675.044 -1362.2 0
0 0 286.614

753.202 72.1636 0
72.1636 -166.973 0
0 0 175.869

-2033.34 662.137 0
662.137 2746.43 0
0 0 213.928

402.591 -732.319 0
-732.319 -191.34 0
0 0 63.3753

237.937 934.281 0
934.281 -1244.4 0
0 0 -301.939

245.082 -267.073 0
-267.073 -2229.43 0
0 0 -595.304

-2496.11 -702.554 0
-702.554 -457.872 0
0 0 -886.195

124.952 1156.91 0
1156.91 -141.584 0
0 0 -4.98953

-16.0835 130.836 0
130.836 11.9849 0
0 0 -1.22958

7.72395 2755.07 0
2755.07 1283.93 0
0 0 387.495

-3629.86 1092.8 0
1092.8 -1323.63 0
0 0 -1486.04

1768.67 441.834 0
441.834 -910.503 0
0 0 257.451

417.719 -490.594 0
-490.594 1194.66 0
0 0 483.712

544.529 2044.28 0
2044.28 265.661 0
0 0 243.057

830.624 974.206 0
974.206 282.774 0
0 0 334.02

-132.975 618.367 0
618.367 -560.404 0
0 0 -208.014

184.825 1758.97 0
1758.97 -1423.15 0
0 0 -371.496

-1332.81 445.282 0
445.282 1466.85 0
0 0 40.2139

64.7791 685.562 0
685.562 -30.1143 0
0 0 10.3994

-1753.07 692.413 0
692.413 738.235 0
0 0 -304.449

-88.3291 1275.58 0
1275.58 573.855 0
0 0 145.658

-3156.23 -968.636 0
-968.636 28.1931 0
0 0 -938.412

208.024 2904.12 0
2904.12 -2568.04 0
0 0 -708.006

-452.458 863.876 0
863.876 4588.98 0
0 0 1240.96

1870.53 -148.629 0
-148.629 -446.282 0
0 0 427.276

2028.51 140.812 0
140.812 663.77 0
0 0 807.684

-174.446 1450.73 0
1450.73 167.821 0
0 0 -1.98751

4244.73 571.116 0
571.116 651.722 0
0 0 1468.94

-332.675 -210.282 0
-210.282 2335.19 0
0 0 600.756

1356.96 3030.67 0
3030.67 -374.391 0
0 0 294.77

-672.886 2074.16 0
2074.16 -1196.73 0
0 0 -560.886

7.41367 247.696 0
247.696 -2097.81 0
0 0 -627.12

-577.103 1837.72 0
1837.72 2041.07 0
0 0 439.189

907.173 -1579.87 0
-1579.87 -3532.01 0
0 0 -787.451

-1679.71 176.532 0
176.532 -2314.02 0
0 0 -1198.12

698.481 -1117.49 0
-1117.49 402.806 0
0 0 330.386

-522.109 -348.281 0
-348.281 5316.16 0
0 0 1438.22

983.021 1522.82 0
1522.82 34.5863 0
0 0 305.282

-1082.18 5614.63 0
5614.63 -4235.42 0
0 0 -1595.28

4819.01 1433.79 0
1433.79 1861.85 0
0 0 2004.26

-5541.82 1011 0
1011 2808.75 0
0 0 -819.92

-974.974 -69.9437 0
-69.9437 938.821 0
0 0 -10.8461

-2885.11 3566.79 0
3566.79 1639.13 0
0 0 -373.793

-4990.4 1321.02 0
1321.02 342.69 0
0 0 -1394.31

1702.01 1073.08 0
1073.08 2354.48 0
0 0 1216.95

9772.33 157.491 0
157.491 -7779.74 0
0 0 597.776

2323.1 35.1217 0
35.1217 1864.85 0
0 0 1256.38

-628.831 1144.52 0
1144.52 352.751 0
0 0 -82.824

-170.597 2164.91 0
2164.91 233.42 0
0 0 18.847

2543.3 922.695 0
922.695 12.2769 0
0 0 766.673

-4345.27 -2806.86 0
-2806.86 -4439.57 0
0 0 -2635.45

-743.701 749.643 0
749.643 1547.06 0
0 0 241.008

1906.53 -275.625 0
-275.625 1567.61 0
0 0 1042.24

-2826.3 750.044 0
750.044 -2733.63 0
0 0 -1667.98

221.333 2476.06 0
2476.06 -589.608 0
0 0 -110.482

2059.49 1064.81 0
1064.81 -2819.32 0
0 0 -227.951

232.145 1314.16 0
1314.16 2442.41 0
0 0 802.365

-2295.32 1752.5 0
1752.5 -1750.11 0
0 0 -1213.63

-462.335 1772.02 0
1772.02 -1854.3 0
0 0 -694.991

2215.6 1614.82 0
1614.82 -1186.01 0
0 0 308.878

-5419.1 2198.79 0
2198.79 5675.22 0
0 0 76.8349

-864.732 2510.42 0
2510.42 -837.746 0
0 0 -510.744

-669.53 1976.13 0
1976.13 1662.68 0
0 0 297.946

TENSORS velocity_gradient double
0.406497 -6.79899 0
3.40426 -2.37197 0
0 0 0

0.505546 -6.91961 0
3.03346 -1.92041 0
0 0 0

0.412294 -6.67292 0
2.71625 -2.69469 0
0 0 0

0.631863 -6.72589 0
2.55971 -2.25141 0
0 0 0

3.14679 -5.78696 0
2.39052 -1.70593 0
0 0 0

1.87103 -3.13417 0
2.24992 0.0498822 0
0 0 0

0.639523 -4.36582 0
2.48983 -0.286386 0
0 0 0

1.1092 -3.81283 0
2.01264 -0.161496 0
0 0 0

0.447114 -2.45475 0
2.21056 0.0882429 0
0 0 0

-0.342684 -2.21201 0
3.14859 -0.574565 0
0 0 0

0.485177 -3.04494 0
1.81828 0.077676 0
0 0 0

-0.0212463 -3.2586 0
2.67726 -1.34619 0
0 0 0

-0.295145 -3.85969 0
3.34678 -0.271318 0
0 0 0

0.400023 -3.27142 0
1.15923 -0.234862 0
0 0 0

0.115232 -3.68146 0
2.71486 -0.750886 0
0 0 0

0.465749 -4.12882 0
2.15724 -0.0391901 0
0 0 0

-0.485425 -5.69877 0
2.20971 -0.498527 0
0 0 0

0.632195 -4.46368 0
2.50679 -0.0598764 0
0 0 0

-0.0436727 -4.31721 0
3.21585 -0.254184 0
0 0 0

0.0688175 -4.43665 0
3.05315 -0.0814386 0
0 0 0

0.588295 -4.41072 0
2.60841 -0.182458 0
0 0 0

0.506455 -4.18703 0
2.46923 -0.307069 0
0 0 0

0.467642 -4.20576 0
2.5734 -1.0745 0
0 0 0

0.182817 -3.54227 0
2.05108 -1.17628 0
0 0 0

0.222697 -3.11845 0
2.03333 -0.679856 0
0 0 0

0.255785 -3.15397 0
2.46 -1.13786 0
0 0 0

0.00549074 -3.17231 0
1.85205 -0.511688 0
0 0 0

0.332014 -3.58585 0
2.84605 -0.665463 0
0 0 0

0.52061 -3.37845 0
2.10843 -1.24957 0
0 0 0

0.435838 -4.01924 0
1.79227 -0.00946807 0
0 0 0

0.528577 -4.52359 0
2.72806 -0.214476 0
0 0 0

-0.112731 -4.50489 0
1.80067 -0.00203334 0
0 0 0

0.0787293 -4.21668 0
3.03881 -0.399594 0
0 0 0

0.0783085 -4.60144 0
3.01556 -1.64693 0
0 0 0

-0.789607 -4.52553 0
2.65032 -0.802297 0
0 0 0

-0.235307 -4.96615 0
3.37928 -1.68471 0
0 0 0

-0.136648 -4.32479 0
3.17534 -2.39722 0
0 0 0

-0.312476 -3.92139 0
1.08114 -1.91872 0
0 0 0

-0.503458 -4.60902 0
3.69222 -2.10149 0
0 0 0

-0.597301 -2.55805 0
3.05402 2.36488 0
0 0 0

-0.444456 -3.43804 0
0.927068 0.108302 0
0 0 0

0.400416 -3.93047 0
2.4412 -0.652278 0
0 0 0

0.046056 -2.91257 0
2.28251 1.84572 0
0 0 0

0.47772 -3.45328 0
3.45345 0.378969 0
0 0 0

0.877677 -4.25714 0
2.34486 -0.506944 0
0 0 0

1.05322 -2.32755 0
2.61663 -1.12592 0
0 0 0

0.964498 -1.292 0
3.12622 2.39321 0
0 0 0

1.05896 -0.957913 0
4.65094 0.379419 0
0 0 0

0.00184337 -4.10174 0
3.54818 -0.481183 0
0 0 0

0.771128 -4.77146 0
4.34948 -1.17877 0
0 0 0

-0.897356 -3.2514 0
3.25377 0.542109 0
0 0 0

0.404351 -3.63064 0
3.73103 -2.30739 0
0 0 0

-0.62525 -2.11968 0
3.45057 0.607514 0
0 0 0

-0.45238 -2.29716 0
2.29649 1.79238 0
0 0 0

-0.592514 -2.43116 0
2.35337 -0.649707 0
0 0 0

-0.223203 -1.80275 0
1.05366 0.0319138 0
0 0 0

0.0572507 -2.51401 0
2.24689 2.59195 0
0 0 0

0.619641 -1.70964 0
3.66656 0.860054 0
0 0 0

0.196165 -1.36792 0
0.307833 -1.32306 0
0 0 0

0.507841 -1.90157 0
0.836103 -0.37229 0
0 0 0

0.27339 -1.27213 0
2.43164 2.42044 0
0 0 0

1.02036 -0.989631 0
7.10213 2.3932 0
0 0 0

-0.105136 -1.8439 0
0.890733 1.10327 0
0 0 0

0.170404 -4.15447 0
-0.434832 2.93668 0
0 0 0

SCALARS active double 1
LOOKUP_TABLE default
1
1
1
1
1
1
1
1
1
1
1
1
1
1
1
1
1
1
1
1
1
1
1
1
1
1
1
1
1
1
1
1
1
1
1
1
1
1
1
1
1
1
1
1
1
1
1
1
1
1
1
1
1
1
1
1
1
1
1
1
1
1
1
1
SCALARS extent double 1
LOOKUP_TABLE default
0.0125
0.0125
0.0125
0.0125
0.0125
0.0125
0.0125
0.0125
0.0125
0.0125
0.0125
0.0125
0.0125
0.0125
0.0125
0.0125
0.0125
0.0125
0.0125
0.0125
0.0125
0.0125
0.0125
0.0125
0.0125
0.0125
0.0125
0.0125
0.0125
0.0125
0.0125
0.0125
0.0125
0.0125
0.0125
0.0125
0.0125
0.0125
0.0125
0.0125
0.0125
0.0125
0.0125
0.0125
0.0125
0.0125
0.0125
0.0125
0.0125
0.0125
0.0125
0.0125
0.0125
0.0125
0.0125
0.0125
0.0125
0.0125
0.0125
0.0125
0.0125
0.0125
0.0125
0.0125
SCALARS pressure double 1
LOOKUP_TABLE default
540.765
-413.998
-254.032
-309.007
-91.542
436.135
859.884
1280.06
7.2071
1.77606
-559.715
2146.51
-371.873
-698.696
-351.082
-482.473
300.464
536.606
-58.0868
-15.0214
439.76
-210.395
1355.48
1022.68
-1792.49
-617.176
-1166.65
2.87085
-2121.8
-867.758
-425.779
810.169
905.84
-634.384
1137.43
1730.62
-477.224
-2077.42
-440.963
2304.29
-2895.04
1184.33
15.6666
539.923
2014.01
-1757.81
-863.454
-1814.78
119.635
-27.2234
-1107.42
3806.76
-348.122
-1505.46
2409.3
159.586
329.263
-1158.97
1753.02
1003.88
-446.157
-110.984
737.741
-430.366
SCALARS density double 1
LOOKUP_TABLE default
1006.51
995.044
996.956
996.299
998.902
1005.25
1010.37
1015.48
1000.09
1000.02
993.306
1026.09
995.547
991.651
995.796
994.227
1003.61
1006.46
999.303
999.82
1005.29
997.478
1016.4
1012.35
978.72
992.621
986.098
1000.03
974.86
989.641
994.904
1009.77
1010.93
992.416
1013.74
1020.98
994.29
975.379
994.722
1028.04
965.856
1014.31
1000.19
1006.5
1024.46
979.127
989.692
978.458
1001.44
999.673
986.799
1046.74
995.831
982.097
1029.33
1001.92
1003.96
986.189
1021.26
1012.12
994.66
998.669
1008.89
994.849
