# vtk DataFile Version 3.0
Frame: 45, Time: 0.75
ASCII
DATASET UNSTRUCTURED_GRID
POINTS 64 double
0.607262 0.458458 0 
0.62416 0.439131 0 
0.586581 0.441531 0 
0.60233 0.421178 0 
0.638126 0.418593 0 
0.654558 0.398686 0 
0.617305 0.401963 0 
0.634302 0.382571 0 
0.671839 0.380425 0 
0.685968 0.359924 0 
0.650756 0.363978 0 
0.665384 0.344286 0 
0.703873 0.3422 0 
0.722289 0.326046 0 
0.683829 0.326233 0 
0.701098 0.30778 0 
0.566341 0.425035 0 
0.581035 0.404796 0 
0.546535 0.409336 0 
0.562427 0.38788 0 
0.597557 0.385918 0 
0.614614 0.36737 0 
0.578787 0.36835 0 
0.594979 0.350039 0 
0.630663 0.347433 0 
0.646197 0.327603 0 
0.61163 0.33064 0 
0.627748 0.310913 0 
0.664047 0.308654 0 
0.682586 0.290229 0 
0.643911 0.291934 0 
0.661028 0.273039 0 
0.526651 0.392129 0 
0.541246 0.370732 0 
0.507556 0.374245 0 
0.521373 0.352987 0 
0.559035 0.352516 0 
0.575113 0.331628 0 
0.539955 0.334921 0 
0.554893 0.315439 0 
0.591833 0.312604 0 
0.608427 0.293821 0 
0.571145 0.295968 0 
0.587203 0.277872 0 
0.623671 0.273306 0 
0.64132 0.255216 0 
0.602331 0.257152 0 
0.621728 0.238851 0 
0.488902 0.3584 0 
0.502574 0.337293 0 
0.466597 0.342017 0 
0.481163 0.320375 0 
0.519801 0.319125 0 
0.535994 0.298397 0 
0.498289 0.301499 0 
0.514655 0.281409 0 
0.551637 0.27928 0 
0.567124 0.259868 0 
0.530078 0.263986 0 
0.546749 0.243692 0 
0.583995 0.24013 0 
0.60198 0.221521 0 
0.564111 0.223946 0 
0.582372 0.205626 0 
CELLS 64 128
1 0
1 1
1 2
1 3
1 4
1 5
1 6
1 7
1 8
1 9
1 10
1 11
1 12
1 13
1 14
1 15
1 16
1 17
1 18
1 19
1 20
1 21
1 22
1 23
1 24
1 25
1 26
1 27
1 28
1 29
1 30
1 31
1 32
1 33
1 34
1 35
1 36
1 37
1 38
1 39
1 40
1 41
1 42
1 43
1 44
1 45
1 46
1 47
1 48
1 49
1 50
1 51
1 52
1 53
1 54
1 55
1 56
1 57
1 58
1 59
1 60
1 61
1 62
1 63
CELL_TYPES 64
1
1
1
1
1
1
1
1
1
1
1
1
1
1
1
1
1
1
1
1
1
1
1
1
1
1
1
1
1
1
1
1
1
1
1
1
1
1
1
1
1
1
1
1
1
1
1
1
1
1
1
1
1
1
1
1
1
1
1
1
1
1
1
1
POINT_DATA 64
VECTORS displacement double
0.0947624 -0.154042 0 
0.11166 -0.198369 0 
0.0490812 -0.170969 0 
0.0648303 -0.216322 0 
0.125626 -0.243907 0 
0.142058 -0.288814 0 
0.0798046 -0.260537 0 
0.0968016 -0.304929 0 
0.159339 -0.332075 0 
0.173468 -0.377576 0 
0.113256 -0.348522 0 
0.127884 -0.393214 0 
0.191373 -0.4203 0 
0.209789 -0.461454 0 
0.146329 -0.436267 0 
0.163598 -0.47972 0 
0.00384126 -0.187465 0 
0.0185352 -0.232704 0 
-0.0409654 -0.203164 0 
-0.0250729 -0.24962 0 
0.0350569 -0.276582 0 
0.0521138 -0.32013 0 
-0.00871304 -0.29415 0 
0.00747919 -0.337461 0 
0.0681629 -0.365067 0 
0.0836971 -0.409897 0 
0.0241304 -0.38186 0 
0.0402476 -0.426587 0 
0.101547 -0.453846 0 
0.120086 -0.497271 0 
0.0564113 -0.470566 0 
0.0735282 -0.514461 0 
-0.0858491 -0.220371 0 
-0.0712545 -0.266768 0 
-0.129944 -0.238255 0 
-0.116127 -0.284513 0 
-0.0534649 -0.309984 0 
-0.0373869 -0.355872 0 
-0.0975447 -0.327579 0 
-0.0826072 -0.372061 0 
-0.0206666 -0.399896 0 
-0.00407251 -0.443679 0 
-0.0663546 -0.416532 0 
-0.0502972 -0.459628 0 
0.0111706 -0.489194 0 
0.0288199 -0.532284 0 
-0.0351689 -0.505348 0 
-0.0157723 -0.548649 0 
-0.173598 -0.2541 0 
-0.159926 -0.300207 0 
-0.220903 -0.270483 0 
-0.206337 -0.317125 0 
-0.142699 -0.343375 0 
-0.126506 -0.389103 0 
-0.189211 -0.361001 0 
-0.172845 -0.406091 0 
-0.110863 -0.43322 0 
-0.0953764 -0.477632 0 
-0.157422 -0.448514 0 
-0.140751 -0.493808 0 
-0.0785046 -0.52237 0 
-0.0605199 -0.565979 0 
-0.123389 -0.538554 0 
-0.105128 -0.581874 0 
VECTORS velocity double
-1.66195 -1.06036 0 
-1.64172 -0.951809 0 
-1.75815 -1.35791 0 
-1.3387 -1.02168 0 
-1.66701 -1.1446 0 
-1.73465 -1.00809 0 
-1.82493 -1.12154 0 
-1.50402 -1.09101 0 
-1.30935 -0.637089 0 
-1.49715 -0.925967 0 
-1.25413 -0.76412 0 
-1.51183 -1.07939 0 
-1.49471 -0.66443 0 
-1.14108 -0.968861 0 
-0.69042 -0.93349 0 
-1.12552 -0.747787 0 
-1.55736 -1.0062 0 
-1.64217 -1.34262 0 
-1.76835 -1.29878 0 
-1.69874 -0.738088 0 
-1.65405 -1.19217 0 
-1.17829 -1.24719 0 
-1.94306 -0.814135 0 
-1.71464 -1.02035 0 
-1.01818 -0.791367 0 
-1.26727 -0.889004 0 
-1.22706 -1.1088 0 
-1.16336 -0.898735 0 
-1.31083 -1.04385 0 
-0.818396 -1.07852 0 
-1.30088 -0.832698 0 
-1.31198 -0.444667 0 
-1.56203 -1.59903 0 
-1.05302 -1.1194 0 
-1.73573 -1.47176 0 
-1.50039 -1.1533 0 
-1.24304 -1.22438 0 
-1.28695 -1.22425 0 
-1.81792 -1.33977 0 
-1.38414 -1.03642 0 
-0.708965 -0.994869 0 
-1.24189 -1.02338 0 
-1.15974 -1.33452 0 
-1.71948 -0.878403 0 
-0.998783 -1.43166 0 
-0.5441 -0.787949 0 
-0.826653 -1.17305 0 
-0.91543 -0.66646 0 
-1.25213 -1.33285 0 
-1.44009 -1.36294 0 
-1.46055 -1.4742 0 
-0.817467 -1.48407 0 
-1.62704 -1.19918 0 
-0.962936 -0.944544 0 
-1.06973 -1.87109 0 
-1.14111 -1.79484 0 
-0.917022 -1.21419 0 
-1.38518 -1.08363 0 
-0.971052 -1.40319 0 
-0.620663 -1.48101 0 
-0.320254 -0.638246 0 
-0.936055 -0.951872 0 
-0.464126 -1.07193 0 
-0.575886 -1.32316 0 
SCALARS mass double 1
LOOKUP_TABLE default
0.625
0.625
0.625
0.625
0.625
0.625
0.625
0.625
0.625
0.625
0.625
0.625
0.625
0.625
0.625
0.625
0.625
0.625
0.625
0.625
0.625
0.625
0.625
0.625
0.625
0.625
0.625
0.625
0.625
0.625
0.625
0.625
0.625
0.625
0.625
0.625
0.625
0.625
0.625
0.625
0.625
0.625
0.625
0.625
0.625
0.625
0.625
0.625
0.625
0.625
0.625
0.625
0.625
0.625
0.625
0.625
0.625
0.625
0.625
0.625
0.625
0.625
0.625
0.625
SCALARS volume double 1
LOOKUP_TABLE default
0.000628393
0.000626488
0.00062693
0.000632688
0.000621401
0.000619047
0.000623321
0.000608666
0.000623552
0.000606285
0.000622417
0.00061337
0.000621881
0.000633048
0.000620861
0.000610938
0.000626653
0.000616911
0.000645933
0.000624804
0.000634935
0.000632127
0.000618616
0.000626988
0.000635149
0.000630887
0.000626217
0.000615776
0.000636977
0.000637284
0.000638726
0.000608827
0.00062916
0.000640987
0.000631538
0.000620959
0.000646264
0.000652653
0.000647123
0.00059901
0.000635886
0.000632753
0.000619069
0.000630623
0.000620534
0.000594756
0.000636659
0.000632692
0.000626218
0.000616932
0.000625286
0.00062396
0.000624632
0.000616173
0.000631755
0.000621199
0.000611171
0.000627474
0.00062582
0.00061075
0.000614207
0.000643533
0.000626521
0.000617154
VECTORS momentum double
-1.03872 -0.662728 0 
-1.02608 -0.594881 0 
-1.09884 -0.848691 0 
-0.836685 -0.63855 0 
-1.04188 -0.715377 0 
-1.08416 -0.630059 0 
-1.14058 -0.700962 0 
-0.940014 -0.681878 0 
-0.818342 -0.398181 0 
-0.935717 -0.578729 0 
-0.783831 -0.477575 0 
-0.944895 -0.674621 0 
-0.934191 -0.415269 0 
-0.713177 -0.605538 0 
-0.431513 -0.583431 0 
-0.703451 -0.467367 0 
-0.973347 -0.628877 0 
-1.02635 -0.83914 0 
-1.10522 -0.811738 0 
-1.06171 -0.461305 0 
-1.03378 -0.745105 0 
-0.736434 -0.779491 0 
-1.21441 -0.508835 0 
-1.07165 -0.637718 0 
-0.63636 -0.494605 0 
-0.792045 -0.555628 0 
-0.766911 -0.692998 0 
-0.727101 -0.561709 0 
-0.819269 -0.652409 0 
-0.511497 -0.674075 0 
-0.813049 -0.520436 0 
-0.81999 -0.277917 0 
-0.97627 -0.999394 0 
-0.658136 -0.699628 0 
-1.08483 -0.91985 0 
-0.937741 -0.720813 0 
-0.7769 -0.765235 0 
-0.804343 -0.765159 0 
-1.1362 -0.837356 0 
-0.865087 -0.647764 0 
-0.443103 -0.621793 0 
-0.77618 -0.639614 0 
-0.72484 -0.834077 0 
-1.07467 -0.549002 0 
-0.62424 -0.894785 0 
-0.340062 -0.492468 0 
-0.516658 -0.733155 0 
-0.572144 -0.416538 0 
-0.782584 -0.833033 0 
-0.900054 -0.851834 0 
-0.912842 -0.921377 0 
-0.510917 -0.927544 0 
-1.0169 -0.749488 0 
-0.601835 -0.59034 0 
-0.668584 -1.16943 0 
-0.713193 -1.12178 0 
-0.573139 -0.758868 0 
-0.865737 -0.677271 0 
-0.606907 -0.876992 0 
-0.387914 -0.925633 0 
-0.200159 -0.398903 0 
-0.585035 -0.59492 0 
-0.290079 -0.669955 0 
-0.359929 -0.826977 0 
VECTORS body_force double
0 -9.81 0 
0 -9.81 0 
0 -9.81 0 
0 -9.81 0 
0 -9.81 0 
0 -9.81 0 
0 -9.81 0 
0 -9.81 0 
0 -9.81 0 
0 -9.81 0 
0 -9.81 0 
0 -9.81 0 
0 -9.81 0 
0 -9.81 0 
0 -9.81 0 
0 -9.81 0 
0 -9.81 0 
0 -9.81 0 
0 -9.81 0 
0 -9.81 0 
0 -9.81 0 
0 -9.81 0 
0 -9.81 0 
0 -9.81 0 
0 -9.81 0 
0 -9.81 0 
0 -9.81 0 
0 -9.81 0 
0 -9.81 0 
0 -9.81 0 
0 -9.81 0 
0 -9.81 0 
0 -9.81 0 
0 -9.81 0 
0 -9.81 0 
0 -9.81 0 
0 -9.81 0 
0 -9.81 0 
0 -9.81 0 
0 -9.81 0 
0 -9.81 0 
0 -9.81 0 
0 -9.81 0 
0 -9.81 0 
0 -9.81 0 
0 -9.81 0 
0 -9.81 0 
0 -9.81 0 
0 -9.81 0 
0 -9.81 0 
0 -9.81 0 
0 -9.81 0 
0 -9.81 0 
0 -9.81 0 
0 -9.81 0 
0 -9.81 0 
0 -9.81 0 
0 -9.81 0 
0 -9.81 0 
0 -9.81 0 
0 -9.81 0 
0 -9.81 0 
0 -9.81 0 
0 -9.81 0 
TENSORS cauchy_stress double
891.606 101.343 0
101.343 149.645 0
0 0 312.376

2529.89 1319.72 0
1319.72 -2072.73 0
0 0 137.148

273.735 1672.92 0
1672.92 319.121 0
0 0 177.857

-177.148 3440.5 0
3440.5 2528.11 0
0 0 705.29

-1527.04 -50.9897 0
-50.9897 416.53 0
0 0 -333.152

302.908 1335.75 0
1335.75 -2143.32 0
0 0 -552.124

650.021 -122.849 0
-122.849 -1167.24 0
0 0 -155.167

-3935.96 -234.586 0
-234.586 -1156.87 0
0 0 -1527.85

1737.68 380.255 0
380.255 -2183.6 0
0 0 -133.775

-3155.1 260.942 0
260.942 -2691.25 0
0 0 -1753.9

258.218 3694.64 0
3694.64 -1054.71 0
0 0 -238.947

-3961.49 928.189 0
928.189 349.422 0
0 0 -1083.62

757.274 -32.4768 0
-32.4768 -1719.39 0
0 0 -288.636

791.566 -575.502 0
-575.502 1668.93 0
0 0 738.147

-1142.97 793.075 0
793.075 -134.851 0
0 0 -383.347

-1101.01 1386.84 0
1386.84 -3275.3 0
0 0 -1312.89

2059.87 2656.05 0
2656.05 -1552.05 0
0 0 152.345

907.299 2859.1 0
2859.1 -3412.55 0
0 0 -751.574

1131.72 380.696 0
380.696 5203.59 0
0 0 1900.59

1674.6 1330.98 0
1330.98 -1734.99 0
0 0 -18.116

1181.81 1555.43 0
1555.43 1851.01 0
0 0 909.844

648.858 1878.99 0
1878.99 1531.8 0
0 0 654.196

-2666.45 -765.287 0
-765.287 691.911 0
0 0 -592.363

3564.75 1496.67 0
1496.67 -2954.11 0
0 0 183.191

-766.806 991.699 0
991.699 3864.48 0
0 0 929.302

1159.54 -1779.05 0
-1779.05 643.225 0
0 0 540.828

2003.41 -838.618 0
-838.618 -1629.18 0
0 0 112.27

-717.208 780.855 0
780.855 -2141.98 0
0 0 -857.755

2139.05 322.941 0
322.941 1511.27 0
0 0 1095.1

885.771 345.426 0
345.426 2857.27 0
0 0 1122.91

4026.75 2184.94 0
2184.94 151.033 0
0 0 1253.34

990.467 2959.93 0
2959.93 -6032.34 0
0 0 -1512.56

-50.0501 1839.24 0
1839.24 1325.91 0
0 0 382.759

2530.8 3052.17 0
3052.17 2326.28 0
0 0 1457.12

1864.93 -584.956 0
-584.956 136.279 0
0 0 600.363

416.42 826.934 0
826.934 -1663.79 0
0 0 -374.211

2944.79 -1419.71 0
-1419.71 3489 0
0 0 1930.14

917.263 444.789 0
444.789 7408.51 0
0 0 2497.73

3439.74 1101.25 0
1101.25 3249.58 0
0 0 2006.8

-593.2 4821.97 0
4821.97 -7574.83 0
0 0 -2450.41

5378.27 1644.46 0
1644.46 -2057.7 0
0 0 996.173

-4088.71 2698.65 0
2698.65 6459.61 0
0 0 711.27

-1175 -66.7996 0
-66.7996 -658.7 0
0 0 -550.111

-1845.19 4614.66 0
4614.66 3567.61 0
0 0 516.725

-4246.31 2594.51 0
2594.51 2867.15 0
0 0 -413.747

-3277.35 1590.21 0
1590.21 -6261.21 0
0 0 -2861.57

9316.61 -2604.62 0
-2604.62 -5762.27 0
0 0 1066.3

3826.75 92.5682 0
92.5682 -1474.41 0
0 0 705.7

372.892 935.145 0
935.145 1.44873 0
0 0 112.302

117.817 1595.13 0
1595.13 -2616.38 0
0 0 -749.568

-930.503 323.585 0
323.585 1018.62 0
0 0 26.4345

-2108.01 -545.751 0
-545.751 1787.89 0
0 0 -96.0384

911.54 623.657 0
623.657 -1024.73 0
0 0 -33.9582

956.573 -930.715 0
-930.715 -3691.9 0
0 0 -820.599

2310.13 4344.52 0
4344.52 -242.932 0
0 0 620.16

1478.57 3887.62 0
3887.62 -2651.77 0
0 0 -351.961

2416.1 -679.379 0
-679.379 -6718.95 0
0 0 -1290.86

-1291.98 1293.3 0
1293.3 2051.63 0
0 0 227.893

-780.893 1986.86 0
1986.86 1032.9 0
0 0 75.6034

-3875.47 2128.14 0
2128.14 -560.048 0
0 0 -1330.66

2612.97 -66.814 0
-66.814 -5962.79 0
0 0 -1004.95

-2770.78 2638.92 0
2638.92 8390.3 0
0 0 1685.86

688.83 374.705 0
374.705 -221.52 0
0 0 140.193

-2857.13 429.745 0
429.745 427.587 0
0 0 -728.862

TENSORS velocity_gradient double
-1.2367 0.596893 0
1.13024 0.644387 0
0 0 0

-0.516986 -1.68255 0
1.71644 -0.342264 0
0 0 0

0.80903 -1.05941 0
1.01514 0.344568 0
0 0 0

0.153392 -0.973902 0
1.99993 0.275722 0
0 0 0

0.216013 -2.17868 0
2.33981 -0.764184 0
0 0 0

1.04453 -4.51529 0
4.37519 -1.01341 0
0 0 0

0.801073 -2.27489 0
2.76281 -0.547137 0
0 0 0

1.44146 -5.24853 0
2.61822 -1.42339 0
0 0 0

0.925768 -4.87735 0
3.56352 0.254484 0
0 0 0

0.196345 -4.37897 0
2.32477 1.10087 0
0 0 0

0.904441 -5.48924 0
2.47012 -0.93702 0
0 0 0

0.148159 -2.8623 0
1.46794 -0.272254 0
0 0 0

-0.277207 -4.20289 0
-0.0494182 1.11853 0
0 0 0

-0.894373 -3.60575 0
0.0172143 0.916574 0
0 0 0

1.09341 -3.59719 0
0.641326 0.540612 0
0 0 0

-0.353358 -4.17275 0
0.10747 1.0713 0
0 0 0

0.394771 -1.56865 0
0.882349 0.181334 0
0 0 0

-0.105495 -1.25667 0
0.726374 0.257354 0
0 0 0

-0.675031 -1.84775 0
4.64635 -0.500464 0
0 0 0

0.0989034 -2.90997 0
1.10272 -0.695367 0
0 0 0

0.664625 -4.06911 0
1.82541 -1.92047 0
0 0 0

1.92791 -4.61617 0
2.32589 -1.8034 0
0 0 0

0.746618 -3.44901 0
1.87312 -1.33652 0
0 0 0

1.44239 -4.0646 0
2.38154 -0.691644 0
0 0 0

2.24536 -3.50741 0
2.19028 -0.708544 0
0 0 0

1.31074 -1.96265 0
2.26945 -0.761538 0
0 0 0

1.59259 -3.50714 0
2.78537 0.604815 0
0 0 0

0.595125 -2.69808 0
3.66292 -0.106972 0
0 0 0

2.07677 -2.48896 0
-0.151853 -0.353278 0
0 0 0

1.49223 -2.16955 0
-0.326258 -1.71484 0
0 0 0

0.215687 -6.29203 0
3.46668 -0.976711 0
0 0 0

-0.676192 -4.8914 0
0.171067 -1.09059 0
0 0 0

-0.829128 -2.75786 0
5.11133 -0.809369 0
0 0 0

-1.13541 -2.55036 0
4.45636 -0.365646 0
0 0 0

-1.0831 -3.03114 0
4.56823 -1.39374 0
0 0 0

-1.37199 -3.18705 0
4.02603 -0.454887 0
0 0 0

1.20269 -3.22919 0
2.41748 -0.365898 0
0 0 0

1.07124 -4.59479 0
2.28454 0.695402 0
0 0 0

-1.43111 -5.07365 0
4.87881 0.833388 0
0 0 0

0.761461 -4.96925 0
1.97621 0.282184 0
0 0 0

0.719027 -4.28736 0
1.89352 1.03671 0
0 0 0

0.0602581 -5.93012 0
3.9464 -2.02813 0
0 0 0

0.388284 -6.1882 0
2.04056 -0.0450107 0
0 0 0

-0.0334661 -6.36622 0
3.42497 -1.65772 0
0 0 0

0.161554 -6.24715 0
3.19854 -1.71683 0
0 0 0

0.270592 -6.28229 0
2.50223 -1.01117 0
0 0 0

0.0761265 -6.15399 0
3.20823 -2.35648 0
0 0 0

-0.623267 -2.22786 0
2.2979 1.33651 0
0 0 0

-1.85207 -2.3809 0
1.39813 -0.593181 0
0 0 0

-1.42234 -5.0605 0
4.03549 3.55703 0
0 0 0

-1.24162 -5.88705 0
1.76056 0.535534 0
0 0 0

-1.82408 -5.49736 0
-0.632457 2.13652 0
0 0 0

-1.41186 -5.04874 0
6.11098 2.42769 0
0 0 0

-1.1373 -5.71061 0
7.34153 1.10924 0
0 0 0

-2.12879 -5.04259 0
1.89744 2.41884 0
0 0 0

-0.06777 -4.63922 0
6.95374 0.103145 0
0 0 0

0.0344195 -7.0312 0
4.3003 1.17213 0
0 0 0

-0.458744 -6.8453 0
4.96922 0.0818801 0
0 0 0

1.2791 -5.8174 0
6.16948 0.789177 0
0 0 0

1.82487 -5.66805 0
5.11219 -1.21095 0
0 0 0

-1.0331 -4.84498 0
5.4737 0.646385 0
0 0 0

-2.06718 -3.95382 0
2.9639 1.30777 0
0 0 0

-1.60431 -5.55523 0
4.66381 -0.360639 0
0 0 0

-2.25771 -4.90872 0
3.73738 0.556022 0
0 0 0

SCALARS active double 1
LOOKUP_TABLE default
1
1
1
1
1
1
1
1
1
1
1
1
1
1
1
1
1
1
1
1
1
1
1
1
1
1
1
1
1
1
1
1
1
1
1
1
1
1
1
1
1
1
1
1
1
1
1
1
1
1
1
1
1
1
1
1
1
1
1
1
1
1
1
1
SCALARS extent double 1
LOOKUP_TABLE default
0.0125
0.0125
0.0125
0.0125
0.0125
0.0125
0.0125
0.0125
0.0125
0.0125
0.0125
0.0125
0.0125
0.0125
0.0125
0.0125
0.0125
0.0125
0.0125
0.0125
0.0125
0.0125
0.0125
0.0125
0.0125
0.0125
0.0125
0.0125
0.0125
0.0125
0.0125
0.0125
0.0125
0.0125
0.0125
0.0125
0.0125
0.0125
0.0125
0.0125
0.0125
0.0125
0.0125
0.0125
0.0125
0.0125
0.0125
0.0125
0.0125
0.0125
0.0125
0.0125
0.0125
0.0125
0.0125
0.0125
0.0125
0.0125
0.0125
0.0125
0.0125
0.0125
0.0125
0.0125
SCALARS pressure double 1
LOOKUP_TABLE default
-451.209
-198.102
-256.905
-1018.75
481.22
797.512
224.13
2206.89
193.23
2533.42
345.146
1565.23
416.918
-1066.21
553.724
1896.4
-220.054
1085.61
-2745.3
26.1675
-1314.22
-944.95
855.635
-264.609
-1342.33
-781.196
-162.168
1238.98
-1581.81
-1621.98
-1810.37
2184.81
-552.874
-2104.73
-867.19
540.528
-2787.98
-3607.83
-2898.71
3539.48
-1438.92
-1027.39
794.605
-746.381
597.634
4133.37
-1540.22
-1019.35
-162.214
1082.71
-38.1831
138.722
49.0508
1185.31
-895.786
508.388
1864.57
-329.179
-109.205
1922.06
1451.59
-2435.13
-202.501
1052.8
SCALARS density double 1
LOOKUP_TABLE default
994.6
997.626
996.922
987.849
1005.79
1009.62
1002.69
1026.84
1002.32
1030.87
1004.15
1018.96
1005.02
987.287
1006.67
1023.02
997.363
1013.11
967.593
1000.31
984.353
988.725
1010.32
996.83
984.021
990.669
998.056
1014.98
981.197
980.724
978.51
1026.56
993.387
975.059
989.648
1006.51
967.098
957.63
965.814
1043.39
982.881
987.747
1009.58
991.083
1007.2
1050.85
981.687
987.842
998.055
1013.08
999.542
1001.67
1000.59
1014.33
989.308
1006.12
1022.63
996.058
998.69
1023.33
1017.57
971.201
997.573
1012.71
