# vtk DataFile Version 3.0
Frame: 53, Time: 0.884
ASCII
DATASET UNSTRUCTURED_GRID
POINTS 64 double
0.290821 0.0538021 0 
0.265631 0.048953 0 
0.283095 0.0776626 0 
0.257756 0.0722926 0 
0.24156 0.0457808 0 
0.216386 0.0462262 0 
0.235104 0.0694124 0 
0.209456 0.0694269 0 
0.195277 0.0438838 0 
0.174202 0.0378251 0 
0.185873 0.0661564 0 
0.162296 0.0590693 0 
0.148184 0.0366731 0 
0.130765 0.0306306 0 
0.13406 0.0555302 0 
0.112131 0.0467175 0 
0.274991 0.100707 0 
0.251078 0.0954861 0 
0.273383 0.124474 0 
0.248283 0.11955 0 
0.229065 0.0935362 0 
0.204004 0.0924257 0 
0.224799 0.117727 0 
0.199702 0.114354 0 
0.178466 0.0862612 0 
0.154625 0.0787992 0 
0.173474 0.10781 0 
0.147386 0.102313 0 
0.127317 0.0759979 0 
0.101061 0.0709311 0 
0.120866 0.098845 0 
0.0961255 0.0953504 0 
0.271149 0.14986 0 
0.245021 0.142673 0 
0.265885 0.17388 0 
0.240251 0.166031 0 
0.220188 0.139553 0 
0.194467 0.135831 0 
0.216423 0.162847 0 
0.190454 0.160256 0 
0.169125 0.130106 0 
0.144995 0.125981 0 
0.164647 0.153501 0 
0.141127 0.150878 0 
0.118772 0.121369 0 
0.093773 0.118331 0 
0.114217 0.14669 0 
0.0878497 0.142802 0 
0.260597 0.197006 0 
0.235013 0.188797 0 
0.252445 0.219528 0 
0.228866 0.21368 0 
0.210947 0.187864 0 
0.185649 0.183551 0 
0.204469 0.213328 0 
0.179584 0.207535 0 
0.160196 0.17722 0 
0.135819 0.175373 0 
0.155205 0.202592 0 
0.130761 0.199514 0 
0.110808 0.17051 0 
0.0850988 0.166138 0 
0.107045 0.193387 0 
0.0824906 0.190488 0 
CELLS 64 128
1 0
1 1
1 2
1 3
1 4
1 5
1 6
1 7
1 8
1 9
1 10
1 11
1 12
1 13
1 14
1 15
1 16
1 17
1 18
1 19
1 20
1 21
1 22
1 23
1 24
1 25
1 26
1 27
1 28
1 29
1 30
1 31
1 32
1 33
1 34
1 35
1 36
1 37
1 38
1 39
1 40
1 41
1 42
1 43
1 44
1 45
1 46
1 47
1 48
1 49
1 50
1 51
1 52
1 53
1 54
1 55
1 56
1 57
1 58
1 59
1 60
1 61
1 62
1 63
CELL_TYPES 64
1
1
1
1
1
1
1
1
1
1
1
1
1
1
1
1
1
1
1
1
1
1
1
1
1
1
1
1
1
1
1
1
1
1
1
1
1
1
1
1
1
1
1
1
1
1
1
1
1
1
1
1
1
1
1
1
1
1
1
1
1
1
1
1
POINT_DATA 64
VECTORS displacement double
-0.121679 -0.358698 0 
-0.146869 -0.388547 0 
-0.154405 -0.334837 0 
-0.179744 -0.365207 0 
-0.17094 -0.416719 0 
-0.196114 -0.441274 0 
-0.202396 -0.393088 0 
-0.228044 -0.418073 0 
-0.217223 -0.468616 0 
-0.238298 -0.499675 0 
-0.251627 -0.446344 0 
-0.275204 -0.478431 0 
-0.264316 -0.525827 0 
-0.281735 -0.556869 0 
-0.30344 -0.50697 0 
-0.325369 -0.540782 0 
-0.187509 -0.311793 0 
-0.211422 -0.342014 0 
-0.214117 -0.288026 0 
-0.239217 -0.31795 0 
-0.233435 -0.368964 0 
-0.258496 -0.395074 0 
-0.262701 -0.344773 0 
-0.287798 -0.373146 0 
-0.284034 -0.426239 0 
-0.307875 -0.458701 0 
-0.314026 -0.40469 0 
-0.340114 -0.435187 0 
-0.335183 -0.486502 0 
-0.361439 -0.516569 0 
-0.366634 -0.463655 0 
-0.391375 -0.49215 0 
-0.241351 -0.26264 0 
-0.267479 -0.294827 0 
-0.271615 -0.23862 0 
-0.297249 -0.271469 0 
-0.292312 -0.322947 0 
-0.318033 -0.351669 0 
-0.321077 -0.299653 0 
-0.347046 -0.327244 0 
-0.343375 -0.382394 0 
-0.367505 -0.411519 0 
-0.372853 -0.358999 0 
-0.396373 -0.386622 0 
-0.393728 -0.441131 0 
-0.418727 -0.469169 0 
-0.423283 -0.41581 0 
-0.44965 -0.444698 0 
-0.301903 -0.215494 0 
-0.327487 -0.248703 0 
-0.335055 -0.192972 0 
-0.358634 -0.22382 0 
-0.351553 -0.274636 0 
-0.376851 -0.303949 0 
-0.383031 -0.249172 0 
-0.407916 -0.279965 0 
-0.402304 -0.33528 0 
-0.426681 -0.362127 0 
-0.432295 -0.309908 0 
-0.456739 -0.337986 0 
-0.451692 -0.39199 0 
-0.477401 -0.421362 0 
-0.480455 -0.369113 0 
-0.505009 -0.397012 0 
VECTORS velocity double
-0.748793 -1.61633 0 
-1.01979 -1.51932 0 
-1.0243 -1.34895 0 
-0.788582 -1.18946 0 
-0.538145 -1.19435 0 
-1.10363 -0.43942 0 
-0.592131 -1.31931 0 
-1.2936 -0.424474 0 
-0.460661 -0.58802 0 
-1.33457 -0.467411 0 
-0.698324 -0.471939 0 
-1.62685 -0.190304 0 
-0.659464 -0.124633 0 
-0.64123 -0.477211 0 
-1.05739 0.0163035 0 
-1.11271 -0.884365 0 
-0.761297 -1.48941 0 
-0.932179 -1.21605 0 
-0.640564 -1.18593 0 
-0.995737 -1.2133 0 
-0.591235 -1.2091 0 
-0.765056 -0.819227 0 
-0.899699 -1.31078 0 
-1.08301 -0.948156 0 
-0.828804 -0.99336 0 
-1.3884 -0.935873 0 
-1.12843 -0.632706 0 
-1.52442 -0.27392 0 
-1.19572 -0.853105 0 
-1.28394 -1.01103 0 
-1.17352 -0.1288 0 
-1.27796 0.0909982 0 
-0.636186 -1.01994 0 
-0.915709 -1.19624 0 
-1.1569 -1.27966 0 
-1.17202 -1.24849 0 
-0.803607 -1.37183 0 
-0.571522 -1.06329 0 
-1.37586 -1.35021 0 
-1.19788 -0.94355 0 
-0.33221 -0.701575 0 
-0.581764 -0.479879 0 
-0.890096 -0.652225 0 
-1.18711 -0.712948 0 
-0.978667 -1.08233 0 
-1.11347 -0.517233 0 
-1.17745 -0.665243 0 
-1.03253 -0.227998 0 
-1.11232 -1.15567 0 
-1.16494 -1.32415 0 
-0.767635 -1.35392 0 
-0.942854 -1.07437 0 
-1.02952 -1.30397 0 
-0.727583 -0.587784 0 
-0.919812 -0.938989 0 
-0.882091 -0.785939 0 
-0.703861 -0.678247 0 
-1.15659 -1.09469 0 
-0.972175 -0.993317 0 
-0.539446 -0.462358 0 
-0.669053 -0.812013 0 
-1.11828 -0.402201 0 
-0.704755 -0.615495 0 
-0.773216 -0.340417 0 
SCALARS mass double 1
LOOKUP_TABLE default
0.625
0.625
0.625
0.625
0.625
0.625
0.625
0.625
0.625
0.625
0.625
0.625
0.625
0.625
0.625
0.625
0.625
0.625
0.625
0.625
0.625
0.625
0.625
0.625
0.625
0.625
0.625
0.625
0.625
0.625
0.625
0.625
0.625
0.625
0.625
0.625
0.625
0.625
0.625
0.625
0.625
0.625
0.625
0.625
0.625
0.625
0.625
0.625
0.625
0.625
0.625
0.625
0.625
0.625
0.625
0.625
0.625
0.625
0.625
0.625
0.625
0.625
0.625
0.625
SCALARS volume double 1
LOOKUP_TABLE default
0.000627163
0.000581046
0.000592281
0.000615022
0.000544633
0.000567716
0.000590072
0.00058425
0.000514555
0.000497604
0.00054097
0.000564758
0.000484927
0.000417061
0.000551582
0.000615783
0.00058052
0.000590623
0.000598728
0.000644437
0.000596399
0.000593788
0.000570998
0.000566933
0.000597532
0.000586716
0.000584228
0.00063038
0.00059137
0.000643431
0.000584179
0.000650894
0.000617648
0.000623696
0.000633643
0.000599443
0.000621302
0.000618404
0.000593565
0.00060911
0.000593547
0.000614947
0.000614723
0.000629763
0.000594972
0.000603726
0.000648494
0.000597621
0.000618438
0.000639385
0.000623682
0.00061197
0.000616057
0.000616188
0.000626114
0.000619423
0.000607204
0.000609919
0.000613499
0.000631493
0.000591346
0.000617574
0.000604405
0.000621895
VECTORS momentum double
-0.467996 -1.01021 0 
-0.637372 -0.949577 0 
-0.640187 -0.843091 0 
-0.492864 -0.743412 0 
-0.33634 -0.746469 0 
-0.689768 -0.274637 0 
-0.370082 -0.82457 0 
-0.808503 -0.265296 0 
-0.287913 -0.367512 0 
-0.834103 -0.292132 0 
-0.436452 -0.294962 0 
-1.01678 -0.11894 0 
-0.412165 -0.0778956 0 
-0.400769 -0.298257 0 
-0.660868 0.0101897 0 
-0.695444 -0.552728 0 
-0.47581 -0.930884 0 
-0.582612 -0.760029 0 
-0.400352 -0.741203 0 
-0.622336 -0.758311 0 
-0.369522 -0.755689 0 
-0.47816 -0.512017 0 
-0.562312 -0.819238 0 
-0.676879 -0.592598 0 
-0.518003 -0.62085 0 
-0.86775 -0.584921 0 
-0.705272 -0.395441 0 
-0.952762 -0.1712 0 
-0.747324 -0.533191 0 
-0.802463 -0.631892 0 
-0.733451 -0.0805001 0 
-0.798725 0.0568739 0 
-0.397616 -0.637459 0 
-0.572318 -0.74765 0 
-0.72306 -0.79979 0 
-0.732515 -0.780305 0 
-0.502255 -0.857395 0 
-0.357201 -0.664558 0 
-0.85991 -0.843881 0 
-0.748673 -0.589719 0 
-0.207632 -0.438484 0 
-0.363602 -0.299925 0 
-0.55631 -0.40764 0 
-0.741943 -0.445592 0 
-0.611667 -0.676455 0 
-0.69592 -0.323271 0 
-0.735906 -0.415777 0 
-0.645331 -0.142499 0 
-0.695197 -0.722296 0 
-0.728085 -0.827592 0 
-0.479772 -0.846201 0 
-0.589283 -0.671481 0 
-0.64345 -0.81498 0 
-0.454739 -0.367365 0 
-0.574883 -0.586868 0 
-0.551307 -0.491212 0 
-0.439913 -0.423904 0 
-0.722866 -0.684184 0 
-0.607609 -0.620823 0 
-0.337154 -0.288974 0 
-0.418158 -0.507508 0 
-0.698925 -0.251376 0 
-0.440472 -0.384684 0 
-0.48326 -0.212761 0 
VECTORS body_force double
0 -9.81 0 
0 -9.81 0 
0 -9.81 0 
0 -9.81 0 
0 -9.81 0 
0 -9.81 0 
0 -9.81 0 
0 -9.81 0 
0 -9.81 0 
0 -9.81 0 
0 -9.81 0 
0 -9.81 0 
0 -9.81 0 
0 -9.81 0 
0 -9.81 0 
0 -9.81 0 
0 -9.81 0 
0 -9.81 0 
0 -9.81 0 
0 -9.81 0 
0 -9.81 0 
0 -9.81 0 
0 -9.81 0 
0 -9.81 0 
0 -9.81 0 
0 -9.81 0 
0 -9.81 0 
0 -9.81 0 
0 -9.81 0 
0 -9.81 0 
0 -9.81 0 
0 -9.81 0 
0 -9.81 0 
0 -9.81 0 
0 -9.81 0 
0 -9.81 0 
0 -9.81 0 
0 -9.81 0 
0 -9.81 0 
0 -9.81 0 
0 -9.81 0 
0 -9.81 0 
0 -9.81 0 
0 -9.81 0 
0 -9.81 0 
0 -9.81 0 
0 -9.81 0 
0 -9.81 0 
0 -9.81 0 
0 -9.81 0 
0 -9.81 0 
0 -9.81 0 
0 -9.81 0 
0 -9.81 0 
0 -9.81 0 
0 -9.81 0 
0 -9.81 0 
0 -9.81 0 
0 -9.81 0 
0 -9.81 0 
0 -9.81 0 
0 -9.81 0 
0 -9.81 0 
0 -9.81 0 
TENSORS cauchy_stress double
-45.1071 -737.142 0
-737.142 709.612 0
0 0 199.352

-4527.83 -4913.34 0
-4913.34 -9495.66 0
0 0 -4207.05

-4583.73 -2658.59 0
-2658.59 -5756.74 0
0 0 -3102.14

-1808.85 -884.453 0
-884.453 -1285.94 0
0 0 -928.437

-10505 -10416.8 0
-10416.8 -15964 0
0 0 -7940.71

-2506.39 -13262.5 0
-13262.5 -15980.3 0
0 0 -5546.01

-6728.23 -3540.18 0
-3540.18 -4330.94 0
0 0 -3317.75

-3334.75 -11556.8 0
-11556.8 -9631.13 0
0 0 -3889.76

-13478.6 -15809.9 0
-15809.9 -23915.5 0
0 0 -11218.2

-4375.86 -21814.9 0
-21814.9 -39460 0
0 0 -13150.8

-10789.7 -1018.58 0
-1018.58 -16977 0
0 0 -8330.02

-655.259 -5892.26 0
-5892.26 -18836.1 0
0 0 -5847.4

-1998.38 -21965.8 0
-21965.8 -46800.5 0
0 0 -14639.7

-7554.21 -15889.1 0
-15889.1 -70237.9 0
0 0 -23337.6

-3883.37 485.226 0
485.226 -20147.6 0
0 0 -7209.29

4586.57 -474.239 0
-474.239 -7443.84 0
0 0 -857.181

-12089.2 -2897.65 0
-2897.65 -2108.41 0
0 0 -4259.28

-3779.16 -5306.16 0
-5306.16 -7100.38 0
0 0 -3263.86

-6385.1 -5008.17 0
-5008.17 -1873.37 0
0 0 -2477.54

6764.97 -2314.96 0
-2314.96 -875.609 0
0 0 1766.81

-4934.1 -4770.29 0
-4770.29 -4073.92 0
0 0 -2702.41

-1063.89 -5009.66 0
-5009.66 -8788.05 0
0 0 -2955.58

-6091.88 -2459.86 0
-2459.86 -11286.1 0
0 0 -5213.39

-1162.49 789.18 0
789.18 -17589.4 0
0 0 -5625.57

4804.65 -4663.53 0
-4663.53 -13447.7 0
0 0 -2592.91

40.3038 -8654.7 0
-8654.7 -12196.1 0
0 0 -3646.75

-2191 3824.96 0
3824.96 -10782.2 0
0 0 -3891.95

7271.76 1068.48 0
1068.48 -5623.54 0
0 0 494.465

2333.76 -985.42 0
-985.42 -12970.4 0
0 0 -3190.99

5889.38 -293.19 0
-293.19 -300.226 0
0 0 1676.75

-2495.75 3151.82 0
3151.82 -10493.5 0
0 0 -3896.77

4049.2 463.056 0
463.056 3757.6 0
0 0 2342.04

-3433.97 -1432.18 0
-1432.18 1158.42 0
0 0 -682.663

3813.73 2335.45 0
2335.45 -4215.23 0
0 0 -120.45

5228.57 -4817.24 0
-4817.24 -2587.49 0
0 0 792.326

-382.638 -2206.29 0
-2206.29 -7646.44 0
0 0 -2408.72

4251.95 -3246.29 0
-3246.29 -5393.21 0
0 0 -342.376

4550.5 -6126.34 0
-6126.34 -6590.87 0
0 0 -612.111

-1874.18 -3066.62 0
-3066.62 -8049.75 0
0 0 -2977.18

1075.95 4083.62 0
4083.62 -6028.26 0
0 0 -1485.69

3342.7 -3881.73 0
-3881.73 -13272.6 0
0 0 -2978.98

2996.24 -5676.79 0
-5676.79 -6114.65 0
0 0 -935.523

-209.509 3999.32 0
3999.32 -2978.78 0
0 0 -956.486

664.745 1650.94 0
1650.94 795.311 0
0 0 438.017

-144.238 -1623.08 0
-1623.08 -9324.46 0
0 0 -2840.61

-1276.23 1994.89 0
1994.89 -5383.64 0
0 0 -1997.96

8633.11 3526.23 0
3526.23 -1536.79 0
0 0 2128.9

-1814.24 -998.256 0
-998.256 -6800.11 0
0 0 -2584.3

-295.833 247.278 0
247.278 -1733.89 0
0 0 -608.917

4448.75 745.765 0
745.765 -72.7791 0
0 0 1312.79

-907.657 2334.36 0
2334.36 501.774 0
0 0 -121.765

-2163.14 -960.254 0
-960.254 -1888.54 0
0 0 -1215.5

54.9531 -2544.1 0
-2544.1 -2826.56 0
0 0 -831.483

-95.075 -3788.73 0
-3788.73 -2635.72 0
0 0 -819.238

419.148 -1601.25 0
-1601.25 -76.7708 0
0 0 102.713

1207.87 -386.748 0
-386.748 -2931.59 0
0 0 -517.118

-74.8676 -2115.2 0
-2115.2 -5480.24 0
0 0 -1666.53

801.117 -2064.5 0
-2064.5 -5498.21 0
0 0 -1409.13

-1964.34 -964.222 0
-964.222 -1607.31 0
0 0 -1071.49

2250.97 -425.571 0
-425.571 -263.433 0
0 0 596.261

-1249.82 -2940.94 0
-2940.94 -9394.53 0
0 0 -3193.3

142.821 556.803 0
556.803 -2441.33 0
0 0 -689.553

-3477.81 -2531.03 0
-2531.03 -2966.01 0
0 0 -1933.15

1856.54 856.679 0
856.679 -2814.35 0
0 0 -287.345

TENSORS velocity_gradient double
-0.966935 -1.20084 0
-7.09992 -0.301576 0
0 0 0

-0.954533 -8.07037 0
-6.93226 -12.451 0
0 0 0

-0.591424 0.0348531 0
-5.13288 1.56405 0
0 0 0

-0.682743 -0.385863 0
-5.61613 -0.662308 0
0 0 0

2.15963 -12.4686 0
-10.0902 -16.723 0
0 0 0

2.16183 -12.9631 0
-10.1016 -12.8879 0
0 0 0

1.89776 -0.162721 0
-9.09964 -2.94748 0
0 0 0

1.90346 0.502333 0
-9.12359 -5.73763 0
0 0 0

2.85725 -17.6464 0
-4.39572 -11.3379 0
0 0 0

2.61433 -20.0661 0
-2.67225 -9.95106 0
0 0 0

3.88148 0.410057 0
-4.9293 -5.74117 0
0 0 0

3.6834 -0.233445 0
-4.3127 -3.73807 0
0 0 0

1.02281 -21.5894 0
1.38824 -8.8052 0
0 0 0

-0.0534084 -21.7426 0
3.55655 -10.3376 0
0 0 0

0.081561 -1.3736 0
4.85404 -0.642667 0
0 0 0

-0.0303505 -16.0348 0
4.97753 -8.17332 0
0 0 0

0.137793 -0.562427 0
-2.95257 2.01305 0
0 0 0

0.294004 -0.987445 0
-4.51002 -1.03797 0
0 0 0

2.35117 -0.96049 0
-0.0184642 2.40786 0
0 0 0

0.788718 -2.93548 0
-3.31765 -0.420457 0
0 0 0

1.2573 -0.164944 0
-6.50344 -3.43552 0
0 0 0

1.66465 0.607589 0
-6.67052 -6.19947 0
0 0 0

0.082179 -2.05256 0
-5.41064 -1.28382 0
0 0 0

1.66275 -0.545608 0
-6.31935 -1.9218 0
0 0 0

4.43414 0.207801 0
-6.64961 -5.11158 0
0 0 0

4.07218 -0.44259 0
-5.66986 -3.07124 0
0 0 0

3.98026 1.79656 0
-7.51141 -2.67049 0
0 0 0

2.42601 2.63949 0
-3.61355 -2.97261 0
0 0 0

0.637952 -1.18788 0
1.94955 0.486489 0
0 0 0

-2.88491 -2.19545 0
0.699881 3.91639 0
0 0 0

1.2124 0.971697 0
-0.972033 -0.502357 0
0 0 0

-3.82176 -1.73186 0
-2.32433 3.14274 0
0 0 0

4.15738 -2.15558 0
2.56181 0.633475 0
0 0 0

-0.330506 -2.98043 0
-3.5253 -0.648114 0
0 0 0

2.17624 -2.30512 0
1.83342 -0.173522 0
0 0 0

-1.48283 -0.627768 0
-4.68702 0.686686 0
0 0 0

-1.1332 -1.79811 0
-4.8659 -1.39787 0
0 0 0

1.01639 -0.152896 0
-6.46252 -2.06321 0
0 0 0

-1.51535 -0.863426 0
-4.67668 0.761619 0
0 0 0

-0.477116 -0.625576 0
-5.7975 0.42862 0
0 0 0

1.86551 2.21157 0
-6.85951 -2.79843 0
0 0 0

1.6706 3.95662 0
-2.83662 -3.25362 0
0 0 0

-0.10332 0.915913 0
-6.09267 -1.07219 0
0 0 0

1.49259 2.66692 0
-2.49101 -1.89374 0
0 0 0

1.4926 3.82003 0
-1.83168 -2.80696 0
0 0 0

-1.96501 2.80679 0
-3.53847 -2.16734 0
0 0 0

1.60835 3.71569 0
-2.3595 -1.93027 0
0 0 0

1.25199 2.01429 0
-4.87626 -1.89905 0
0 0 0

0.065897 -0.135235 0
0.398924 -0.807666 0
0 0 0

-1.25844 -0.679408 0
-4.75837 0.703106 0
0 0 0

0.040314 2.51048 0
-3.62643 -1.15427 0
0 0 0

-0.891451 2.00537 0
-5.17782 0.204436 0
0 0 0

-1.26877 -0.917349 0
-4.75509 0.778765 0
0 0 0

-1.58082 -0.397964 0
-4.75272 0.213159 0
0 0 0

-0.989572 1.56881 0
-5.11437 0.843524 0
0 0 0

-2.27078 1.3585 0
-4.26026 1.45957 0
0 0 0

-1.27444 0.81138 0
-5.04274 -0.931626 0
0 0 0

0.095223 2.18956 0
-3.47947 -0.863269 0
0 0 0

-2.21953 1.19533 0
-4.2381 1.31501 0
0 0 0

-1.69335 3.1572 0
-4.28356 0.570631 0
0 0 0

0.412298 3.79071 0
-3.2688 0.200571 0
0 0 0

1.87494 4.83098 0
-5.26075 0.755461 0
0 0 0

-1.06078 4.09343 0
-4.23381 0.377826 0
0 0 0

1.36917 4.88759 0
-5.35921 0.766481 0
0 0 0

SCALARS active double 1
LOOKUP_TABLE default
1
1
1
1
1
1
1
1
1
1
1
1
1
1
1
1
1
1
1
1
1
1
1
1
1
1
1
1
1
1
1
1
1
1
1
1
1
1
1
1
1
1
1
1
1
1
1
1
1
1
1
1
1
1
1
1
1
1
1
1
1
1
1
1
SCALARS extent double 1
LOOKUP_TABLE default
0.0125
0.0125
0.0125
0.0125
0.0125
0.0125
0.0125
0.0125
0.0125
0.0125
0.0125
0.0125
0.0125
0.0125
0.0125
0.0125
0.0125
0.0125
0.0125
0.0125
0.0125
0.0125
0.0125
0.0125
0.0125
0.0125
0.0125
0.0125
0.0125
0.0125
0.0125
0.0125
0.0125
0.0125
0.0125
0.0125
0.0125
0.0125
0.0125
0.0125
0.0125
0.0125
0.0125
0.0125
0.0125
0.0125
0.0125
0.0125
0.0125
0.0125
0.0125
0.0125
0.0125
0.0125
0.0125
0.0125
0.0125
0.0125
0.0125
0.0125
0.0125
0.0125
0.0125
0.0125
SCALARS pressure double 1
LOOKUP_TABLE default
-287.952
6076.85
4480.87
1341.08
11469.9
8010.9
4792.31
5618.55
16204.1
18995.5
12032.2
8446.24
21146.2
33709.9
10413.4
1238.15
6152.3
4714.47
3578.67
-2552.06
3903.48
4269.17
7530.45
8125.83
3745.32
5267.53
5621.71
-714.227
4609.21
-2421.97
5628.67
-3382.95
986.068
173.984
-1144.47
3479.27
494.543
884.161
4300.37
2146
4302.97
1351.31
1381.59
-632.691
4103.1
2885.94
-3075.07
3732.88
879.546
-1896.26
175.883
1755.73
1201.03
1183.34
-148.363
746.948
2407.21
2035.41
1547.71
-861.266
4612.55
996.021
2792.32
415.054
SCALARS density double 1
LOOKUP_TABLE default
996.551
1075.65
1055.24
1016.22
1147.56
1100.9
1059.19
1069.75
1214.64
1256.02
1155.33
1106.67
1288.85
1498.58
1133.1
1014.97
1076.62
1058.2
1043.88
969.839
1047.96
1052.57
1094.57
1102.42
1045.97
1065.25
1069.79
991.466
1056.87
971.355
1069.88
960.218
1011.9
1002.09
986.36
1042.64
1005.95
1010.67
1052.96
1026.09
1052.99
1016.35
1016.72
992.436
1050.47
1035.24
963.772
1045.81
1010.61
977.502
1002.11
1021.29
1014.52
1014.3
998.221
1009
1029.31
1024.73
1018.75
989.718
1056.91
1012.02
1034.08
1004.99
