# vtk DataFile Version 3.0
Frame: 40, Time: 0.667
ASCII
DATASET UNSTRUCTURED_GRID
POINTS 64 double
0.743283 0.508923 0 
0.754345 0.485387 0 
0.719197 0.49823 0 
0.729744 0.47349 0 
0.763716 0.461549 0 
0.774748 0.436294 0 
0.74046 0.450107 0 
0.751367 0.425395 0 
0.785798 0.412474 0 
0.794463 0.388111 0 
0.761612 0.401881 0 
0.771006 0.378705 0 
0.807282 0.36485 0 
0.820271 0.343882 0 
0.783873 0.355676 0 
0.794462 0.332733 0 
0.697099 0.487513 0 
0.706906 0.463112 0 
0.675958 0.478327 0 
0.685886 0.451968 0 
0.71858 0.439415 0 
0.729196 0.416163 0 
0.696017 0.428132 0 
0.70606 0.405436 0 
0.73831 0.391335 0 
0.748002 0.367674 0 
0.715394 0.38096 0 
0.725347 0.357106 0 
0.76038 0.344471 0 
0.771879 0.320506 0 
0.736259 0.334663 0 
0.747245 0.310265 0 
0.653578 0.469091 0 
0.661517 0.443391 0 
0.631239 0.458829 0 
0.638936 0.433775 0 
0.673252 0.419854 0 
0.680913 0.394611 0 
0.651068 0.410105 0 
0.657093 0.386059 0 
0.690701 0.370454 0 
0.701978 0.347997 0 
0.6669 0.361741 0 
0.678156 0.339233 0 
0.711606 0.324797 0 
0.722607 0.300448 0 
0.686376 0.314634 0 
0.699054 0.290853 0 
0.609313 0.449439 0 
0.61692 0.425064 0 
0.58348 0.441285 0 
0.591134 0.416614 0 
0.627399 0.402031 0 
0.634938 0.375933 0 
0.601925 0.392836 0 
0.610514 0.36665 0 
0.644842 0.351854 0 
0.655294 0.327638 0 
0.620855 0.343493 0 
0.632212 0.318514 0 
0.66412 0.302301 0 
0.676713 0.279519 0 
0.641413 0.293608 0 
0.654378 0.27031 0 
CELLS 64 128
1 0
1 1
1 2
1 3
1 4
1 5
1 6
1 7
1 8
1 9
1 10
1 11
1 12
1 13
1 14
1 15
1 16
1 17
1 18
1 19
1 20
1 21
1 22
1 23
1 24
1 25
1 26
1 27
1 28
1 29
1 30
1 31
1 32
1 33
1 34
1 35
1 36
1 37
1 38
1 39
1 40
1 41
1 42
1 43
1 44
1 45
1 46
1 47
1 48
1 49
1 50
1 51
1 52
1 53
1 54
1 55
1 56
1 57
1 58
1 59
1 60
1 61
1 62
1 63
CELL_TYPES 64
1
1
1
1
1
1
1
1
1
1
1
1
1
1
1
1
1
1
1
1
1
1
1
1
1
1
1
1
1
1
1
1
1
1
1
1
1
1
1
1
1
1
1
1
1
1
1
1
1
1
1
1
1
1
1
1
1
1
1
1
1
1
1
1
POINT_DATA 64
VECTORS displacement double
0.230783 -0.103577 0 
0.241845 -0.152113 0 
0.181697 -0.11427 0 
0.192244 -0.16401 0 
0.251216 -0.200951 0 
0.262248 -0.251206 0 
0.20296 -0.212393 0 
0.213867 -0.262105 0 
0.273298 -0.300026 0 
0.281963 -0.349389 0 
0.224112 -0.310619 0 
0.233506 -0.358795 0 
0.294782 -0.39765 0 
0.307771 -0.443618 0 
0.246373 -0.406824 0 
0.256962 -0.454767 0 
0.134599 -0.124987 0 
0.144406 -0.174388 0 
0.0884583 -0.134173 0 
0.0983858 -0.185532 0 
0.15608 -0.223085 0 
0.166696 -0.271337 0 
0.108517 -0.234368 0 
0.11856 -0.282064 0 
0.17581 -0.321165 0 
0.185502 -0.369826 0 
0.127894 -0.33154 0 
0.137847 -0.380394 0 
0.19788 -0.418029 0 
0.209379 -0.466994 0 
0.148759 -0.427837 0 
0.159745 -0.477235 0 
0.0410779 -0.143409 0 
0.0490172 -0.194109 0 
-0.00626055 -0.153671 0 
0.00143587 -0.203725 0 
0.0607519 -0.242646 0 
0.0684127 -0.292889 0 
0.0135678 -0.252395 0 
0.0195932 -0.301441 0 
0.0782007 -0.342046 0 
0.0894782 -0.389503 0 
0.0294001 -0.350759 0 
0.0406561 -0.398267 0 
0.0991057 -0.437703 0 
0.110107 -0.487052 0 
0.0488761 -0.447866 0 
0.0615545 -0.496647 0 
-0.0531866 -0.163061 0 
-0.0455799 -0.212436 0 
-0.10402 -0.171215 0 
-0.0963656 -0.220886 0 
-0.0351009 -0.260469 0 
-0.0275625 -0.311567 0 
-0.0855754 -0.269664 0 
-0.0769856 -0.32085 0 
-0.017658 -0.360646 0 
-0.0072061 -0.409862 0 
-0.0666454 -0.369007 0 
-0.0552877 -0.418986 0 
0.00161984 -0.460199 0 
0.0142129 -0.507981 0 
-0.0460871 -0.468892 0 
-0.0331219 -0.51719 0 
VECTORS velocity double
-2.1338 0.0551007 0 
-1.63491 0.401351 0 
-2.02159 -0.243007 0 
-1.37143 0.174925 0 
-2.25295 0.494145 0 
-1.84475 -0.067947 0 
-2.03401 0.352628 0 
-1.61981 -0.0506765 0 
-1.2103 0.286145 0 
-1.92692 -0.0504847 0 
-1.32472 0.132636 0 
-1.81535 -0.301552 0 
-1.63143 0.127578 0 
-1.1827 0.0236943 0 
-0.898702 -0.224018 0 
-1.34843 0.479178 0 
-1.92896 -0.158462 0 
-1.40413 -0.901118 0 
-2.10421 0.368007 0 
-1.57859 0.0378228 0 
-1.23087 -0.428223 0 
-1.03352 -0.596485 0 
-1.83015 0.234796 0 
-1.68436 0.0786485 0 
-1.17544 -0.303962 0 
-1.61165 -0.529628 0 
-1.19427 -0.20978 0 
-1.47447 -0.181684 0 
-1.35188 -0.805796 0 
-0.470737 -0.687447 0 
-1.38122 -0.302778 0 
-1.16939 0.00227863 0 
-1.59645 -0.183742 0 
-1.03425 -0.245505 0 
-1.76919 -0.536232 0 
-1.20663 -0.293783 0 
-1.34359 -0.393744 0 
-1.3687 -0.52774 0 
-1.50067 -0.925543 0 
-1.33182 -0.795736 0 
-0.304456 -0.266042 0 
-1.20845 -0.150437 0 
-0.637949 -0.921436 0 
-1.53392 -0.364741 0 
-1.0374 -0.662129 0 
-0.71744 -0.651771 0 
-0.935484 -0.791338 0 
-0.648729 -0.751288 0 
-1.29083 -0.117349 0 
-1.06958 -0.0665214 0 
-1.17155 -0.710778 0 
-0.956905 -0.890144 0 
-1.03968 0.158032 0 
-0.671154 0.306225 0 
-1.2693 -0.809325 0 
-1.26668 -1.03179 0 
-0.469345 0.0200132 0 
-1.36285 -0.113462 0 
-0.385118 -0.861694 0 
-0.0782891 -0.838082 0 
-0.801046 -0.286407 0 
-0.806976 -0.473864 0 
-0.819313 -0.471712 0 
-0.880056 -0.761976 0 
SCALARS mass double 1
LOOKUP_TABLE default
0.625
0.625
0.625
0.625
0.625
0.625
0.625
0.625
0.625
0.625
0.625
0.625
0.625
0.625
0.625
0.625
0.625
0.625
0.625
0.625
0.625
0.625
0.625
0.625
0.625
0.625
0.625
0.625
0.625
0.625
0.625
0.625
0.625
0.625
0.625
0.625
0.625
0.625
0.625
0.625
0.625
0.625
0.625
0.625
0.625
0.625
0.625
0.625
0.625
0.625
0.625
0.625
0.625
0.625
0.625
0.625
0.625
0.625
0.625
0.625
0.625
0.625
0.625
0.625
SCALARS volume double 1
LOOKUP_TABLE default
0.000622136
0.000617274
0.000634711
0.000624822
0.000646241
0.000650954
0.000639064
0.000626837
0.000624276
0.000623067
0.000631218
0.000613856
0.000646115
0.000626444
0.000621814
0.000609959
0.000586362
0.000617065
0.000623103
0.000627373
0.000627009
0.000615485
0.000603785
0.000646456
0.00063395
0.000650465
0.000657375
0.000609396
0.00063837
0.000647876
0.000627304
0.000637534
0.000598963
0.000618781
0.000615451
0.000615565
0.000613997
0.000667707
0.000608403
0.000582974
0.000643189
0.00057597
0.000606537
0.000603718
0.000647232
0.000612507
0.000678432
0.000632567
0.000625996
0.00060357
0.000638945
0.000621589
0.000642104
0.000612628
0.000632331
0.000643683
0.000625486
0.00062787
0.000631763
0.000588266
0.000582753
0.000603992
0.00063064
0.000648831
VECTORS momentum double
-1.33363 0.0344379 0 
-1.02182 0.250845 0 
-1.26349 -0.151879 0 
-0.857146 0.109328 0 
-1.40809 0.308841 0 
-1.15297 -0.0424669 0 
-1.27126 0.220393 0 
-1.01238 -0.0316728 0 
-0.756441 0.17884 0 
-1.20433 -0.031553 0 
-0.827948 0.0828974 0 
-1.13459 -0.18847 0 
-1.01965 0.0797362 0 
-0.739187 0.0148089 0 
-0.561689 -0.140011 0 
-0.84277 0.299486 0 
-1.2056 -0.0990389 0 
-0.877584 -0.563199 0 
-1.31513 0.230004 0 
-0.986621 0.0236392 0 
-0.769296 -0.267639 0 
-0.645951 -0.372803 0 
-1.14384 0.146747 0 
-1.05272 0.0491553 0 
-0.734649 -0.189976 0 
-1.00728 -0.331017 0 
-0.74642 -0.131113 0 
-0.921542 -0.113552 0 
-0.844922 -0.503623 0 
-0.294211 -0.429654 0 
-0.863262 -0.189236 0 
-0.73087 0.00142414 0 
-0.997779 -0.114839 0 
-0.646405 -0.153441 0 
-1.10574 -0.335145 0 
-0.754142 -0.183614 0 
-0.839746 -0.24609 0 
-0.855435 -0.329838 0 
-0.937921 -0.578465 0 
-0.832386 -0.497335 0 
-0.190285 -0.166276 0 
-0.755281 -0.0940232 0 
-0.398718 -0.575897 0 
-0.958702 -0.227963 0 
-0.648374 -0.413831 0 
-0.4484 -0.407357 0 
-0.584677 -0.494586 0 
-0.405455 -0.469555 0 
-0.806769 -0.0733433 0 
-0.668487 -0.0415759 0 
-0.732222 -0.444236 0 
-0.598065 -0.55634 0 
-0.6498 0.0987703 0 
-0.419471 0.191391 0 
-0.793311 -0.505828 0 
-0.791677 -0.644866 0 
-0.293341 0.0125082 0 
-0.851784 -0.0709136 0 
-0.240699 -0.538559 0 
-0.0489307 -0.523801 0 
-0.500653 -0.179005 0 
-0.50436 -0.296165 0 
-0.512071 -0.29482 0 
-0.550035 -0.476235 0 
VECTORS body_force double
0 -9.81 0 
0 -9.81 0 
0 -9.81 0 
0 -9.81 0 
0 -9.81 0 
0 -9.81 0 
0 -9.81 0 
0 -9.81 0 
0 -9.81 0 
0 -9.81 0 
0 -9.81 0 
0 -9.81 0 
0 -9.81 0 
0 -9.81 0 
0 -9.81 0 
0 -9.81 0 
0 -9.81 0 
0 -9.81 0 
0 -9.81 0 
0 -9.81 0 
0 -9.81 0 
0 -9.81 0 
0 -9.81 0 
0 -9.81 0 
0 -9.81 0 
0 -9.81 0 
0 -9.81 0 
0 -9.81 0 
0 -9.81 0 
0 -9.81 0 
0 -9.81 0 
0 -9.81 0 
0 -9.81 0 
0 -9.81 0 
0 -9.81 0 
0 -9.81 0 
0 -9.81 0 
0 -9.81 0 
0 -9.81 0 
0 -9.81 0 
0 -9.81 0 
0 -9.81 0 
0 -9.81 0 
0 -9.81 0 
0 -9.81 0 
0 -9.81 0 
0 -9.81 0 
0 -9.81 0 
0 -9.81 0 
0 -9.81 0 
0 -9.81 0 
0 -9.81 0 
0 -9.81 0 
0 -9.81 0 
0 -9.81 0 
0 -9.81 0 
0 -9.81 0 
0 -9.81 0 
0 -9.81 0 
0 -9.81 0 
0 -9.81 0 
0 -9.81 0 
0 -9.81 0 
0 -9.81 0 
TENSORS cauchy_stress double
324.046 -707.248 0
-707.248 -1207.31 0
0 0 -264.979

555.908 -1669.62 0
-1669.62 -2947.93 0
0 0 -717.606

-647.578 146.089 0
146.089 3612.55 0
0 0 889.492

-2589.82 1252.57 0
1252.57 2535.1 0
0 0 -16.4152

265.174 -1624.28 0
-1624.28 6161.9 0
0 0 1928.12

1063.64 730.357 0
730.357 6760.78 0
0 0 2347.32

-1008.47 -2832.71 0
-2832.71 5287.86 0
0 0 1283.82

-4192.68 1634.49 0
1634.49 4757.19 0
0 0 169.352

-378.559 -1796.98 0
-1796.98 155.786 0
0 0 -66.8318

-2246.29 -1635.95 0
-1635.95 1650.49 0
0 0 -178.741

1678.38 2474.08 0
2474.08 225.286 0
0 0 571.099

-3858.08 169.835 0
169.835 398.093 0
0 0 -1038

2175.54 -1967.48 0
-1967.48 4214.13 0
0 0 1916.9

-655.667 391.845 0
391.845 1099.44 0
0 0 133.133

-1967.64 162.799 0
162.799 984.726 0
0 0 -294.874

-113.454 1236.75 0
1236.75 -4571.25 0
0 0 -1405.41

-7805.16 -403.881 0
-403.881 -4466.8 0
0 0 -3681.59

-1351.68 -3045.06 0
-3045.06 -1105.38 0
0 0 -737.117

-5975.89 -1396.37 0
-1396.37 5391.41 0
0 0 -175.345

955.213 -2950.5 0
-2950.5 -226.482 0
0 0 218.619

-1419.57 1210.64 0
1210.64 2036.81 0
0 0 185.172

-4511.61 712.703 0
712.703 1561.56 0
0 0 -885.016

-5492.34 -321.306 0
-321.306 -1148.6 0
0 0 -1992.28

5773.91 -676.365 0
-676.365 717.056 0
0 0 1947.29

-2540.69 2372.41 0
2372.41 5274.97 0
0 0 820.286

4888.46 -1229.4 0
-1229.4 2791.63 0
0 0 2304.03

5329.79 -2725.16 0
-2725.16 4382.41 0
0 0 2913.66

411.27 -2781.69 0
-2781.69 -5273.31 0
0 0 -1458.61

931.09 480.361 0
480.361 3139.42 0
0 0 1221.15

-1749.93 1679.04 0
1679.04 8662.97 0
0 0 2073.91

3681.59 -2582.29 0
-2582.29 -2974.11 0
0 0 212.245

4876.49 -1159 0
-1159 -1057.89 0
0 0 1145.58

-6391.22 -2230.07 0
-2230.07 -1791.7 0
0 0 -2454.87

-1268.83 -1711.38 0
-1711.38 -654.447 0
0 0 -576.982

-2354.6 -2078.07 0
-2078.07 -606.086 0
0 0 -888.205

-2385.37 -4426.4 0
-4426.4 -539.72 0
0 0 -877.528

-4863.23 -4562.14 0
-4562.14 1447.62 0
0 0 -1024.68

3288.46 3521.07 0
3521.07 9422.66 0
0 0 3813.34

-4258.64 1391.31 0
1391.31 -917.253 0
0 0 -1552.77

-5037.58 2679.72 0
2679.72 -8348.68 0
0 0 -4015.88

6966.51 -2929.76 0
-2929.76 -1449.77 0
0 0 1655.02

-8784.88 1923.91 0
1923.91 -6926.02 0
0 0 -4713.27

-4956.31 -4860.24 0
-4860.24 -810.246 0
0 0 -1729.97

-4544.42 3732.96 0
3732.96 -2118.07 0
0 0 -1998.75

2617.43 908.714 0
908.714 4104.4 0
0 0 2016.55

-3351.68 1937.6 0
1937.6 -531.298 0
0 0 -1164.89

10552.6 -1410.54 0
-1410.54 5223.03 0
0 0 4732.68

1568.11 -1491.8 0
-1491.8 746.152 0
0 0 694.277

1168.86 -2345.61 0
-2345.61 -862.687 0
0 0 91.8516

-144.455 -1581.17 0
-1581.17 -6565.13 0
0 0 -2012.88

-41.499 668.212 0
668.212 4285.09 0
0 0 1273.08

-1226.53 840.387 0
840.387 174.193 0
0 0 -315.701

1679.83 491.047 0
491.047 3512.36 0
0 0 1557.66

-3447.72 -3297.12 0
-3297.12 -397.154 0
0 0 -1153.46

1151.54 1063.02 0
1063.02 1091.13 0
0 0 672.804

-439.168 627.199 0
627.199 6103.41 0
0 0 1699.27

1889.38 -6888.98 0
-6888.98 -1739.96 0
0 0 44.8271

-5154.37 1045.24 0
1045.24 6035.55 0
0 0 264.354

-1985.17 -2029.58 0
-2029.58 4054.91 0
0 0 620.921

-8984.12 1201.23 0
1201.23 -2664.42 0
0 0 -3494.56

-6440.07 -3301.09 0
-3301.09 -7019.3 0
0 0 -4037.81

-7715 2288.65 0
2288.65 1140.02 0
0 0 -1972.49

1036.04 -1287.99 0
-1287.99 691.66 0
0 0 518.312

6898.81 -1589.37 0
-1589.37 297.369 0
0 0 2158.85

TENSORS velocity_gradient double
-0.788539 -5.32403 0
5.63994 -0.38775 0
0 0 0

-1.60363 -2.49772 0
5.65494 1.07532 0
0 0 0

-0.965088 -4.69195 0
4.69842 -0.663735 0
0 0 0

-2.36713 -3.61476 0
4.81273 0.695549 0
0 0 0

-1.51507 -2.52988 0
2.91745 2.14369 0
0 0 0

-1.78916 -5.65891 0
2.05519 3.91802 0
0 0 0

-3.56368 -4.51794 0
4.99697 2.38488 0
0 0 0

-2.38497 -6.1296 0
2.76786 4.53563 0
0 0 0

-2.33483 -5.40761 0
2.83436 3.55918 0
0 0 0

-2.01856 -4.62962 0
3.69535 1.48483 0
0 0 0

-2.38553 -4.77401 0
3.26389 4.17742 0
0 0 0

-1.22216 -3.08917 0
4.78807 3.15022 0
0 0 0

-1.67918 -5.35837 0
2.31709 0.925714 0
0 0 0

-1.16053 -6.70471 0
2.93221 0.0952648 0
0 0 0

0.290937 -4.05343 0
6.44765 2.1543 0
0 0 0

0.544752 -7.43602 0
5.82894 0.753743 0
0 0 0

-0.342422 -5.64821 0
1.58664 1.37413 0
0 0 0

-3.00021 -5.03096 0
4.99892 1.11207 0
0 0 0

-0.159609 -7.05263 0
-0.0844589 2.19335 0
0 0 0

-1.77564 -6.03556 0
0.983864 1.91575 0
0 0 0

-3.62005 -5.70509 0
4.61184 2.99767 0
0 0 0

-3.18372 -5.90275 0
3.22193 3.62729 0
0 0 0

-2.41289 -5.34734 0
2.40348 2.03719 0
0 0 0

-3.00178 -5.37309 0
2.58816 2.25171 0
0 0 0

-3.24336 -2.05273 0
1.81463 4.26188 0
0 0 0

-2.57676 -1.94055 0
2.84203 4.40762 0
0 0 0

-3.68974 -3.0503 0
1.28892 3.08701 0
0 0 0

-4.72021 -2.62015 0
0.0753068 3.59361 0
0 0 0

0.732343 -6.6321 0
6.64765 -0.0621525 0
0 0 0

1.09218 -7.17223 0
5.81947 -0.00574335 0
0 0 0

-4.44651 -6.35166 0
1.23973 0.447299 0
0 0 0

-1.75847 -6.72641 0
4.37892 -0.357106 0
0 0 0

-1.27996 -8.44635 0
0.64765 3.09533 0
0 0 0

-2.0431 -5.20945 0
1.29043 2.92564 0
0 0 0

-5.32934 -6.5127 0
4.29346 3.10361 0
0 0 0

-3.26189 -4.67126 0
3.91789 3.16788 0
0 0 0

-1.96885 -5.24623 0
2.00931 2.56959 0
0 0 0

-2.33326 -5.13287 0
2.3432 1.49078 0
0 0 0

-1.97513 -5.08139 0
2.6959 3.15982 0
0 0 0

-2.92651 -6.92145 0
1.99233 0.284097 0
0 0 0

-4.1049 -4.38746 0
1.26168 1.85527 0
0 0 0

-4.88068 -4.45299 0
0.215992 3.2563 0
0 0 0

-4.75853 -6.19188 0
0.856406 0.736459 0
0 0 0

-4.77853 -3.04901 0
-0.214712 3.30125 0
0 0 0

-4.05439 -5.35921 0
2.25429 3.01513 0
0 0 0

-2.73844 -5.38501 0
4.06901 2.65638 0
0 0 0

-2.6622 -3.75427 0
-1.41075 3.69982 0
0 0 0

-1.19675 -1.16846 0
0.932648 0.634753 0
0 0 0

-4.3297 -3.30894 0
4.16017 2.7494 0
0 0 0

-2.82274 -3.54182 0
3.78183 2.81795 0
0 0 0

-1.53357 -2.32351 0
4.72934 0.526337 0
0 0 0

-1.0639 -2.4683 0
1.50318 1.52088 0
0 0 0

-1.70622 -4.98531 0
3.59738 2.57115 0
0 0 0

-1.04785 -7.25697 0
5.26127 1.02436 0
0 0 0

-1.12235 -6.53819 0
2.50801 3.34612 0
0 0 0

-0.864989 -6.7659 0
5.98968 2.98043 0
0 0 0

-1.44146 -5.35665 0
5.90294 0.76124 0
0 0 0

-3.76176 -1.07573 0
-0.703195 2.17874 0
0 0 0

-0.998257 -2.87672 0
6.98797 0.224613 0
0 0 0

-2.94243 -1.87224 0
5.50122 0.852224 0
0 0 0

-1.63666 -0.946859 0
-1.80683 2.55401 0
0 0 0

-0.0924735 0.57361 0
-0.736397 1.51067 0
0 0 0

-4.58501 2.00188 0
3.89342 2.81307 0
0 0 0

0.0182997 1.94185 0
0.0965275 3.01951 0
0 0 0

SCALARS active double 1
LOOKUP_TABLE default
1
1
1
1
1
1
1
1
1
1
1
1
1
1
1
1
1
1
1
1
1
1
1
1
1
1
1
1
1
1
1
1
1
1
1
1
1
1
1
1
1
1
1
1
1
1
1
1
1
1
1
1
1
1
1
1
1
1
1
1
1
1
1
1
SCALARS extent double 1
LOOKUP_TABLE default
0.0125
0.0125
0.0125
0.0125
0.0125
0.0125
0.0125
0.0125
0.0125
0.0125
0.0125
0.0125
0.0125
0.0125
0.0125
0.0125
0.0125
0.0125
0.0125
0.0125
0.0125
0.0125
0.0125
0.0125
0.0125
0.0125
0.0125
0.0125
0.0125
0.0125
0.0125
0.0125
0.0125
0.0125
0.0125
0.0125
0.0125
0.0125
0.0125
0.0125
0.0125
0.0125
0.0125
0.0125
0.0125
0.0125
0.0125
0.0125
0.0125
0.0125
0.0125
0.0125
0.0125
0.0125
0.0125
0.0125
0.0125
0.0125
0.0125
0.0125
0.0125
0.0125
0.0125
0.0125
SCALARS pressure double 1
LOOKUP_TABLE default
382.748
1036.54
-1284.82
23.7108
-2785.07
-3390.58
-1854.4
-244.62
96.5349
258.182
-824.921
1499.33
-2768.86
-192.303
425.93
2030.04
5317.85
1064.72
253.276
-315.783
-267.47
1278.36
2877.74
-2812.75
-1184.86
-3328.04
-4208.62
2106.88
-1763.89
-2995.65
-306.577
-1654.73
3545.93
833.418
1282.96
1267.54
1480.1
-5508.15
2242.89
5800.71
-2390.58
6808.05
2498.84
2887.08
-2912.8
1682.62
-6836.09
-1002.84
-132.675
2907.49
-1838.89
456.012
-2249.95
1666.11
-971.828
-2454.5
-64.7503
-381.845
-896.885
5047.7
5832.39
2849.16
-748.672
-3118.34
SCALARS density double 1
LOOKUP_TABLE default
1004.6
1012.52
984.7
1000.28
967.132
960.13
977.993
997.069
1001.16
1003.1
990.15
1018.15
967.32
997.695
1005.12
1024.66
1065.89
1012.86
1003.04
996.218
996.796
1015.46
1035.14
966.81
985.882
960.85
950.751
1025.6
979.056
964.691
996.328
980.339
1043.47
1010.05
1015.51
1015.33
1017.92
936.039
1027.28
1072.09
971.721
1085.13
1030.44
1035.25
965.65
1020.4
921.242
988.038
998.409
1035.51
978.175
1005.49
973.362
1020.19
988.406
970.975
999.223
995.428
989.295
1062.44
1072.5
1034.78
991.056
963.271
