# vtk DataFile Version 3.0
Frame: 13, Time: 0.217
ASCII
DATASET UNSTRUCTURED_GRID
POINTS 64 double
0.5125 0.378325 0 
0.5125 0.403325 0 
0.5375 0.378325 0 
0.5375 0.403325 0 
0.5125 0.428325 0 
0.5125 0.453325 0 
0.5375 0.428325 0 
0.5375 0.453325 0 
0.5125 0.478325 0 
0.5125 0.503325 0 
0.5375 0.478325 0 
0.5375 0.503325 0 
0.5125 0.528325 0 
0.5125 0.553325 0 
0.5375 0.528325 0 
0.5375 0.553325 0 
0.5625 0.378325 0 
0.5625 0.403325 0 
0.5875 0.378325 0 
0.5875 0.403325 0 
0.5625 0.428325 0 
0.5625 0.453325 0 
0.5875 0.428325 0 
0.5875 0.453325 0 
0.5625 0.478325 0 
0.5625 0.503325 0 
0.5875 0.478325 0 
0.5875 0.503325 0 
0.5625 0.528325 0 
0.5625 0.553325 0 
0.5875 0.528325 0 
0.5875 0.553325 0 
0.6125 0.378325 0 
0.6125 0.403325 0 
0.6375 0.378325 0 
0.6375 0.403325 0 
0.6125 0.428325 0 
0.6125 0.453325 0 
0.6375 0.428325 0 
0.6375 0.453325 0 
0.6125 0.478325 0 
0.6125 0.503325 0 
0.6375 0.478325 0 
0.6375 0.503325 0 
0.6125 0.528325 0 
0.6125 0.553325 0 
0.6375 0.528325 0 
0.6375 0.553325 0 
0.6625 0.378325 0 
0.6625 0.403325 0 
0.6875 0.378325 0 
0.6875 0.403325 0 
0.6625 0.428325 0 
0.6625 0.453325 0 
0.6875 0.428325 0 
0.6875 0.453325 0 
0.6625 0.478325 0 
0.6625 0.503325 0 
0.6875 0.478325 0 
0.6875 0.503325 0 
0.6625 0.528325 0 
0.6625 0.553325 0 
0.6875 0.528325 0 
0.6875 0.553325 0 
CELLS 64 128
1 0
1 1
1 2
1 3
1 4
1 5
1 6
1 7
1 8
1 9
1 10
1 11
1 12
1 13
1 14
1 15
1 16
1 17
1 18
1 19
1 20
1 21
1 22
1 23
1 24
1 25
1 26
1 27
1 28
1 29
1 30
1 31
1 32
1 33
1 34
1 35
1 36
1 37
1 38
1 39
1 40
1 41
1 42
1 43
1 44
1 45
1 46
1 47
1 48
1 49
1 50
1 51
1 52
1 53
1 54
1 55
1 56
1 57
1 58
1 59
1 60
1 61
1 62
1 63
CELL_TYPES 64
1
1
1
1
1
1
1
1
1
1
1
1
1
1
1
1
1
1
1
1
1
1
1
1
1
1
1
1
1
1
1
1
1
1
1
1
1
1
1
1
1
1
1
1
1
1
1
1
1
1
1
1
1
1
1
1
1
1
1
1
1
1
1
1
POINT_DATA 64
VECTORS displacement double
-7.83338e-17 -0.234175 0 
-8.27812e-17 -0.234175 0 
-9.57235e-17 -0.234175 0 
-8.66908e-17 -0.234175 0 
-7.37249e-17 -0.234175 0 
-1.61827e-17 -0.234175 0 
-6.16674e-17 -0.234175 0 
-2.30775e-18 -0.234175 0 
6.34199e-17 -0.234175 0 
1.37427e-16 -0.234175 0 
7.16165e-17 -0.234175 0 
1.38926e-16 -0.234175 0 
1.83013e-16 -0.234175 0 
2.25219e-16 -0.234175 0 
1.87349e-16 -0.234175 0 
2.32538e-16 -0.234175 0 
-1.07025e-16 -0.234175 0 
-8.24536e-17 -0.234175 0 
-1.12238e-16 -0.234175 0 
-7.00696e-17 -0.234175 0 
-4.46476e-17 -0.234175 0 
1.48988e-17 -0.234175 0 
-2.26657e-17 -0.234175 0 
3.54369e-17 -0.234175 0 
8.23329e-17 -0.234175 0 
1.43757e-16 -0.234175 0 
9.55688e-17 -0.234175 0 
1.5192e-16 -0.234175 0 
1.94164e-16 -0.234175 0 
2.42501e-16 -0.234175 0 
2.03459e-16 -0.234175 0 
2.55108e-16 -0.234175 0 
-1.20315e-16 -0.234175 0 
-5.82254e-17 -0.234175 0 
-1.31258e-16 -0.234175 0 
-4.69207e-17 -0.234175 0 
-2.35214e-19 -0.234175 0 
5.5948e-17 -0.234175 0 
2.2644e-17 -0.234175 0 
7.64322e-17 -0.234175 0 
1.08076e-16 -0.234175 0 
1.59535e-16 -0.234175 0 
1.19853e-16 -0.234175 0 
1.66603e-16 -0.234175 0 
2.13253e-16 -0.234175 0 
2.67785e-16 -0.234175 0 
2.23544e-16 -0.234175 0 
2.80532e-16 -0.234175 0 
-1.48212e-16 -0.234175 0 
-4.18341e-17 -0.234175 0 
-1.71179e-16 -0.234175 0 
-4.29656e-17 -0.234175 0 
4.10877e-17 -0.234175 0 
9.33388e-17 -0.234175 0 
5.50959e-17 -0.234175 0 
1.06668e-16 -0.234175 0 
1.29888e-16 -0.234175 0 
1.70614e-16 -0.234175 0 
1.3818e-16 -0.234175 0 
1.71568e-16 -0.234175 0 
2.30962e-16 -0.234175 0 
2.90033e-16 -0.234175 0 
2.35506e-16 -0.234175 0 
2.96288e-16 -0.234175 0 
VECTORS velocity double
-2.95481e-15 -2.13858 0 
7.72334e-16 -2.13858 0 
2.06645e-15 -2.13858 0 
-1.91212e-15 -2.13858 0 
9.75968e-16 -2.13858 0 
-1.40505e-15 -2.13858 0 
-2.52332e-15 -2.13858 0 
-3.94929e-15 -2.13858 0 
-5.21931e-15 -2.13858 0 
-2.36297e-15 -2.13858 0 
-4.84687e-15 -2.13858 0 
-1.03491e-15 -2.13858 0 
1.63808e-16 -2.13858 0 
7.75847e-15 -2.13858 0 
2.55465e-15 -2.13858 0 
4.93513e-15 -2.13858 0 
3.24603e-15 -2.13858 0 
-2.66541e-15 -2.13858 0 
5.83925e-16 -2.13858 0 
-1.48751e-15 -2.13858 0 
-3.46714e-15 -2.13858 0 
-3.86116e-15 -2.13858 0 
-1.85549e-15 -2.13858 0 
-1.14066e-15 -2.13858 0 
-3.14753e-15 -2.13858 0 
1.73035e-16 -2.13858 0 
-1.21271e-16 -2.13858 0 
1.26087e-15 -2.13858 0 
3.12267e-15 -2.13858 0 
3.68276e-15 -2.13858 0 
1.86787e-15 -2.13858 0 
4.00136e-15 -2.13858 0 
-2.62268e-15 -2.13858 0 
-5.19504e-16 -2.13858 0 
-6.37377e-15 -2.13858 0 
2.38613e-16 -2.13858 0 
-6.28828e-16 -2.13858 0 
9.36204e-16 -2.13858 0 
2.12848e-16 -2.13858 0 
2.36942e-15 -2.13858 0 
2.24607e-15 -2.13858 0 
2.24209e-15 -2.13858 0 
3.95449e-15 -2.13858 0 
3.1167e-15 -2.13858 0 
9.54905e-16 -2.13858 0 
4.42204e-15 -2.13858 0 
3.83777e-16 -2.13858 0 
4.94479e-15 -2.13858 0 
-6.6864e-15 -2.13858 0 
-3.16357e-16 -2.13858 0 
-3.56057e-15 -2.13858 0 
-2.18441e-15 -2.13858 0 
-1.34767e-15 -2.13858 0 
1.44777e-15 -2.13858 0 
-5.31037e-15 -2.13858 0 
-1.82875e-15 -2.13858 0 
5.09316e-15 -2.13858 0 
4.37648e-15 -2.13858 0 
5.66208e-15 -2.13858 0 
6.02143e-15 -2.13858 0 
1.60901e-15 -2.13858 0 
3.92339e-15 -2.13858 0 
4.6306e-15 -2.13858 0 
1.35786e-15 -2.13858 0 
SCALARS mass double 1
LOOKUP_TABLE default
0.625
0.625
0.625
0.625
0.625
0.625
0.625
0.625
0.625
0.625
0.625
0.625
0.625
0.625
0.625
0.625
0.625
0.625
0.625
0.625
0.625
0.625
0.625
0.625
0.625
0.625
0.625
0.625
0.625
0.625
0.625
0.625
0.625
0.625
0.625
0.625
0.625
0.625
0.625
0.625
0.625
0.625
0.625
0.625
0.625
0.625
0.625
0.625
0.625
0.625
0.625
0.625
0.625
0.625
0.625
0.625
0.625
0.625
0.625
0.625
0.625
0.625
0.625
0.625
SCALARS volume double 1
LOOKUP_TABLE default
0.000625
0.000625
0.000625
0.000625
0.000625
0.000625
0.000625
0.000625
0.000625
0.000625
0.000625
0.000625
0.000625
0.000625
0.000625
0.000625
0.000625
0.000625
0.000625
0.000625
0.000625
0.000625
0.000625
0.000625
0.000625
0.000625
0.000625
0.000625
0.000625
0.000625
0.000625
0.000625
0.000625
0.000625
0.000625
0.000625
0.000625
0.000625
0.000625
0.000625
0.000625
0.000625
0.000625
0.000625
0.000625
0.000625
0.000625
0.000625
0.000625
0.000625
0.000625
0.000625
0.000625
0.000625
0.000625
0.000625
0.000625
0.000625
0.000625
0.000625
0.000625
0.000625
0.000625
0.000625
VECTORS momentum double
-1.84676e-15 -1.33661 0 
4.82709e-16 -1.33661 0 
1.29153e-15 -1.33661 0 
-1.19508e-15 -1.33661 0 
6.0998e-16 -1.33661 0 
-8.78157e-16 -1.33661 0 
-1.57708e-15 -1.33661 0 
-2.46831e-15 -1.33661 0 
-3.26207e-15 -1.33661 0 
-1.47685e-15 -1.33661 0 
-3.0293e-15 -1.33661 0 
-6.46819e-16 -1.33661 0 
1.0238e-16 -1.33661 0 
4.84904e-15 -1.33661 0 
1.59666e-15 -1.33661 0 
3.08446e-15 -1.33661 0 
2.02877e-15 -1.33661 0 
-1.66588e-15 -1.33661 0 
3.64953e-16 -1.33661 0 
-9.29694e-16 -1.33661 0 
-2.16696e-15 -1.33661 0 
-2.41322e-15 -1.33661 0 
-1.15968e-15 -1.33661 0 
-7.1291e-16 -1.33661 0 
-1.9672e-15 -1.33661 0 
1.08147e-16 -1.33661 0 
-7.57943e-17 -1.33661 0 
7.88043e-16 -1.33661 0 
1.95167e-15 -1.33661 0 
2.30173e-15 -1.33661 0 
1.16742e-15 -1.33661 0 
2.50085e-15 -1.33661 0 
-1.63917e-15 -1.33661 0 
-3.2469e-16 -1.33661 0 
-3.98361e-15 -1.33661 0 
1.49133e-16 -1.33661 0 
-3.93018e-16 -1.33661 0 
5.85128e-16 -1.33661 0 
1.3303e-16 -1.33661 0 
1.48089e-15 -1.33661 0 
1.40379e-15 -1.33661 0 
1.40131e-15 -1.33661 0 
2.47156e-15 -1.33661 0 
1.94793e-15 -1.33661 0 
5.96815e-16 -1.33661 0 
2.76377e-15 -1.33661 0 
2.39861e-16 -1.33661 0 
3.09049e-15 -1.33661 0 
-4.179e-15 -1.33661 0 
-1.97723e-16 -1.33661 0 
-2.22536e-15 -1.33661 0 
-1.36526e-15 -1.33661 0 
-8.42291e-16 -1.33661 0 
9.04856e-16 -1.33661 0 
-3.31898e-15 -1.33661 0 
-1.14297e-15 -1.33661 0 
3.18323e-15 -1.33661 0 
2.7353e-15 -1.33661 0 
3.5388e-15 -1.33661 0 
3.76339e-15 -1.33661 0 
1.00563e-15 -1.33661 0 
2.45212e-15 -1.33661 0 
2.89413e-15 -1.33661 0 
8.48661e-16 -1.33661 0 
VECTORS body_force double
0 -9.81 0 
0 -9.81 0 
0 -9.81 0 
0 -9.81 0 
0 -9.81 0 
0 -9.81 0 
0 -9.81 0 
0 -9.81 0 
0 -9.81 0 
0 -9.81 0 
0 -9.81 0 
0 -9.81 0 
0 -9.81 0 
0 -9.81 0 
0 -9.81 0 
0 -9.81 0 
0 -9.81 0 
0 -9.81 0 
0 -9.81 0 
0 -9.81 0 
0 -9.81 0 
0 -9.81 0 
0 -9.81 0 
0 -9.81 0 
0 -9.81 0 
0 -9.81 0 
0 -9.81 0 
0 -9.81 0 
0 -9.81 0 
0 -9.81 0 
0 -9.81 0 
0 -9.81 0 
0 -9.81 0 
0 -9.81 0 
0 -9.81 0 
0 -9.81 0 
0 -9.81 0 
0 -9.81 0 
0 -9.81 0 
0 -9.81 0 
0 -9.81 0 
0 -9.81 0 
0 -9.81 0 
0 -9.81 0 
0 -9.81 0 
0 -9.81 0 
0 -9.81 0 
0 -9.81 0 
0 -9.81 0 
0 -9.81 0 
0 -9.81 0 
0 -9.81 0 
0 -9.81 0 
0 -9.81 0 
0 -9.81 0 
0 -9.81 0 
0 -9.81 0 
0 -9.81 0 
0 -9.81 0 
0 -9.81 0 
0 -9.81 0 
0 -9.81 0 
0 -9.81 0 
0 -9.81 0 
TENSORS cauchy_stress double
-7.78467e-11 1.79972e-11 0
1.79972e-11 -3.28621e-12 0
0 0 -2.43399e-11

7.52669e-11 -5.31485e-11 0
-5.31485e-11 2.15722e-10 0
0 0 8.72965e-11

-1.07946e-10 2.24188e-11 0
2.24188e-11 -7.3518e-11 0
0 0 -5.44392e-11

3.38497e-11 -1.68692e-11 0
-1.68692e-11 1.19081e-10 0
0 0 4.58793e-11

1.03705e-10 -1.11549e-11 0
-1.11549e-11 1.18311e-10 0
0 0 6.66046e-11

6.11358e-11 5.5399e-11 0
5.5399e-11 3.42613e-13 0
0 0 1.84435e-11

5.8437e-11 4.8155e-12 0
4.8155e-12 1.26856e-11 0
0 0 2.13368e-11

6.26762e-11 2.57916e-11 0
2.57916e-11 3.93696e-12 0
0 0 1.9984e-11

-6.08187e-12 1.72326e-11 0
1.72326e-11 -9.82595e-11 0
0 0 -3.13024e-11

-5.36643e-11 9.12856e-12 0
9.12856e-12 -1.40591e-10 0
0 0 -5.82766e-11

4.99501e-12 1.70468e-11 0
1.70468e-11 -7.24135e-11 0
0 0 -2.02255e-11

-3.434e-11 3.0598e-12 0
3.0598e-12 -9.55011e-11 0
0 0 -3.89523e-11

3.16353e-11 -3.44132e-12 0
-3.44132e-12 2.93443e-11 0
0 0 1.82939e-11

2.54261e-11 2.66924e-13 0
2.66924e-13 -1.57424e-11 0
0 0 2.90511e-12

2.64051e-11 3.95352e-12 0
3.95352e-12 1.71406e-11 0
0 0 1.30637e-11

3.6097e-11 1.7025e-12 0
1.7025e-12 9.15652e-12 0
0 0 1.35761e-11

-5.74006e-11 -1.6183e-11 0
-1.6183e-11 -8.04683e-11 0
0 0 -4.13607e-11

5.89184e-11 -2.46151e-11 0
-2.46151e-11 1.0461e-11 0
0 0 2.08138e-11

-6.59875e-11 7.89616e-12 0
7.89616e-12 -1.00504e-10 0
0 0 -4.99475e-11

6.16229e-11 -3.82948e-13 0
-3.82948e-13 1.67716e-11 0
0 0 2.35184e-11

6.86734e-11 7.22131e-12 0
7.22131e-12 -6.52173e-11 0
0 0 1.03681e-12

7.12047e-11 3.35566e-11 0
3.35566e-11 -4.45031e-11 0
0 0 8.01047e-12

9.82423e-11 -6.52208e-13 0
-6.52208e-13 3.77674e-12 0
0 0 3.06057e-11

7.56402e-11 1.58512e-11 0
1.58512e-11 -3.41534e-11 0
0 0 1.2446e-11

1.67137e-11 1.60301e-11 0
1.60301e-11 -9.67549e-11 0
0 0 -2.40124e-11

2.16174e-11 8.99038e-13 0
8.99038e-13 -3.32838e-11 0
0 0 -3.49993e-12

3.03546e-11 3.61903e-12 0
3.61903e-12 -6.49261e-11 0
0 0 -1.03715e-11

3.38835e-12 -2.15543e-12 0
-2.15543e-12 -7.58182e-11 0
0 0 -2.17289e-11

6.94312e-11 -1.42495e-11 0
-1.42495e-11 6.66711e-11 0
0 0 4.08307e-11

5.5001e-11 -1.72108e-11 0
-1.72108e-11 -9.62865e-13 0
0 0 1.62114e-11

5.61189e-11 -4.248e-12 0
-4.248e-12 3.56092e-11 0
0 0 2.75184e-11

5.61379e-11 -3.29892e-14 0
-3.29892e-14 1.68993e-12 0
0 0 1.73483e-11

-8.4752e-11 -1.07643e-12 0
-1.07643e-12 -8.55275e-11 0
0 0 -5.10839e-11

7.05747e-11 1.05317e-11 0
1.05317e-11 4.87297e-11 0
0 0 3.57913e-11

-9.3451e-11 3.75473e-11 0
3.75473e-11 -1.05825e-10 0
0 0 -5.97828e-11

6.21904e-11 3.64149e-11 0
3.64149e-11 2.91663e-11 0
0 0 2.7407e-11

1.09371e-10 3.00064e-12 0
3.00064e-12 2.05415e-11 0
0 0 3.89738e-11

6.55291e-11 -7.53714e-12 0
-7.53714e-12 -5.71928e-11 0
0 0 2.50087e-12

7.04678e-11 4.16436e-12 0
4.16436e-12 -7.02335e-11 0
0 0 7.02636e-14

7.43249e-11 -1.64887e-11 0
-1.64887e-11 -3.66692e-11 0
0 0 1.12967e-11

3.01735e-11 -1.85454e-11 0
-1.85454e-11 -5.03893e-11 0
0 0 -6.06474e-12

-1.16445e-12 5.85291e-13 0
5.85291e-13 -7.52073e-11 0
0 0 -2.29115e-11

3.53385e-11 -1.98859e-11 0
-1.98859e-11 -3.83378e-11 0
0 0 -8.99804e-13

1.31927e-11 2.95307e-12 0
2.95307e-12 -4.17074e-11 0
0 0 -8.55442e-12

7.42322e-11 5.42871e-13 0
5.42871e-13 6.76536e-11 0
0 0 4.25657e-11

6.18167e-11 4.14919e-12 0
4.14919e-12 1.34996e-11 0
0 0 2.25949e-11

4.64948e-11 5.44846e-12 0
5.44846e-12 2.93292e-12 0
0 0 1.48283e-11

5.32243e-11 9.7153e-12 0
9.7153e-12 -6.54951e-12 0
0 0 1.40024e-11

-1.3702e-10 -4.51506e-11 0
-4.51506e-11 -8.41529e-11 0
0 0 -6.6352e-11

2.04395e-11 7.81375e-12 0
7.81375e-12 5.92963e-11 0
0 0 2.39207e-11

-9.3226e-11 -2.08785e-11 0
-2.08785e-11 1.80338e-11 0
0 0 -2.25577e-11

1.02984e-10 6.29456e-11 0
6.29456e-11 2.519e-10 0
0 0 1.06465e-10

5.6685e-11 -4.90826e-12 0
-4.90826e-12 -1.14089e-11 0
0 0 1.35828e-11

3.78133e-11 -2.84503e-11 0
-2.84503e-11 -4.8477e-11 0
0 0 -3.19911e-12

1.14007e-10 7.05929e-12 0
7.05929e-12 1.22342e-10 0
0 0 7.09048e-11

7.57653e-11 -3.8695e-11 0
-3.8695e-11 4.00777e-11 0
0 0 3.47529e-11

5.38119e-12 -1.59055e-13 0
-1.59055e-13 -7.24897e-11 0
0 0 -2.01326e-11

-2.31299e-11 1.05509e-11 0
1.05509e-11 -6.37525e-11 0
0 0 -2.60647e-11

-1.18482e-11 -1.53465e-11 0
-1.53465e-11 -1.12692e-10 0
0 0 -3.7362e-11

-5.17352e-11 -1.32221e-13 0
-1.32221e-13 -1.30498e-10 0
0 0 -5.46701e-11

4.05164e-11 -8.50434e-12 0
-8.50434e-12 4.79372e-11 0
0 0 2.65361e-11

2.54921e-11 -8.45376e-12 0
-8.45376e-12 -4.67283e-12 0
0 0 6.24579e-12

2.25912e-11 1.0798e-11 0
1.0798e-11 6.11185e-12 0
0 0 8.61091e-12

2.88772e-11 -1.73011e-11 0
-1.73011e-11 3.22577e-12 0
0 0 9.6309e-12

TENSORS velocity_gradient double
5.37662e-14 3.02582e-14 0
1.7053e-13 -8.52651e-14 0
0 0 0

-4.33153e-15 7.86764e-15 0
1.44773e-13 1.58984e-13 0
0 0 0

5.37662e-14 -3.58875e-14 0
1.77636e-13 -1.06581e-13 0
0 0 0

-4.33153e-15 -2.60863e-14 0
1.81188e-13 8.17124e-14 0
0 0 0

-3.66656e-14 6.36539e-15 0
6.39488e-14 1.77636e-13 0
0 0 0

-4.72757e-14 -4.56957e-14 0
1.33227e-14 1.33227e-14 0
0 0 0

-3.66656e-14 -2.54287e-14 0
9.23706e-14 9.23706e-14 0
0 0 0

-4.72757e-14 7.24631e-15 0
2.84217e-14 -2.84217e-14 0
0 0 0

9.93021e-15 -4.91886e-14 0
-2.4869e-14 3.19744e-14 0
0 0 0

4.63005e-14 1.34277e-13 0
-9.23706e-14 1.20792e-13 0
0 0 0

9.93021e-15 9.43858e-15 0
-4.26326e-14 -4.26326e-14 0
0 0 0

4.63005e-14 1.03876e-13 0
-7.4607e-14 1.24345e-13 0
0 0 0

1.142e-14 1.46586e-13 0
-7.81597e-14 -7.81597e-14 0
0 0 0

-1.8753e-14 5.6283e-14 0
-7.28306e-14 -1.59872e-14 0
0 0 0

1.142e-14 1.10212e-13 0
-5.68434e-14 -5.68434e-14 0
0 0 0

-1.8753e-14 4.47118e-14 0
-9.59233e-14 1.77636e-14 0
0 0 0

-3.4102e-14 -5.13407e-14 0
-3.19744e-14 -7.4607e-14 0
0 0 0

-3.95435e-16 -2.85091e-14 0
-1.15463e-14 3.10862e-14 0
0 0 0

-3.4102e-14 -1.61014e-14 0
-3.55271e-14 -3.55271e-14 0
0 0 0

-3.95435e-16 5.99298e-16 0
-7.10543e-15 7.81597e-14 0
0 0 0

2.84045e-14 -2.69773e-14 0
-7.10543e-15 4.9738e-14 0
0 0 0

4.986e-14 3.35828e-14 0
1.24345e-14 -4.44089e-14 0
0 0 0

2.84045e-14 1.71979e-15 0
1.42109e-14 5.68434e-14 0
0 0 0

4.986e-14 3.33138e-14 0
3.55271e-15 -8.17124e-14 0
0 0 0

4.81334e-14 3.7646e-14 0
-2.13163e-14 -1.06581e-13 0
0 0 0

3.96071e-14 7.49421e-14 0
-3.19744e-14 1.38556e-13 0
0 0 0

4.81334e-14 3.54335e-14 0
7.10543e-15 -7.81597e-14 0
0 0 0

3.96071e-14 4.74742e-14 0
-5.32907e-14 1.1724e-13 0
0 0 0

1.08683e-14 7.74444e-14 0
-4.26326e-14 -7.10543e-14 0
0 0 0

-1.26762e-14 3.55807e-14 0
-2.57572e-14 -2.57572e-14 0
0 0 0

1.08683e-14 4.8282e-14 0
-4.9738e-14 -9.23706e-14 0
0 0 0

-1.26762e-14 2.88897e-14 0
-7.10543e-14 -7.10543e-14 0
0 0 0

-5.18906e-14 2.30671e-14 0
-4.61853e-14 -3.55271e-15 0
0 0 0

-1.35011e-14 2.72859e-14 0
-2.13163e-14 9.23706e-14 0
0 0 0

-5.18906e-14 6.61648e-14 0
-7.81597e-14 -4.9738e-14 0
0 0 0

-1.35011e-14 5.15506e-14 0
-7.10543e-14 9.9476e-14 0
0 0 0

9.81598e-15 2.75689e-14 0
-2.84217e-14 5.68434e-14 0
0 0 0

2.89657e-14 3.69768e-14 0
-4.79616e-14 -7.63833e-14 0
0 0 0

9.81598e-15 5.05701e-14 0
-3.55271e-14 7.81597e-14 0
0 0 0

2.89657e-14 4.45719e-14 0
-4.61853e-14 -1.03029e-13 0
0 0 0

3.57855e-14 3.7608e-14 0
-2.84217e-14 -8.52651e-14 0
0 0 0

3.5533e-14 2.33929e-14 0
-8.88178e-16 9.85878e-14 0
0 0 0

3.57855e-14 4.41695e-14 0
-3.55271e-14 -4.9738e-14 0
0 0 0

3.5533e-14 2.69811e-15 0
1.42109e-14 1.27898e-13 0
0 0 0

1.34667e-14 2.24391e-14 0
7.10543e-15 -9.23706e-14 0
0 0 0

-2.52395e-15 2.7348e-14 0
5.06262e-14 -3.4639e-14 0
0 0 0

1.34667e-14 -8.43272e-17 0
7.10543e-15 -4.9738e-14 0
0 0 0

-2.52395e-15 3.09558e-14 0
4.61853e-14 -2.4869e-14 0
0 0 0

3.23346e-14 6.04318e-14 0
-1.7053e-13 1.42109e-14 0
0 0 0

-1.69687e-14 4.6922e-14 0
-1.76748e-13 7.90479e-14 0
0 0 0

3.23346e-14 5.86795e-15 0
-1.7053e-13 -4.26326e-14 0
0 0 0

-1.69687e-14 1.34e-14 0
-1.88294e-13 1.52767e-13 0
0 0 0

-4.94319e-14 4.60156e-14 0
-1.35003e-13 6.39488e-14 0
0 0 0

-5.8636e-14 7.81268e-14 0
-7.81597e-14 -4.9738e-14 0
0 0 0

-4.94319e-14 1.39054e-14 0
-9.23706e-14 1.49214e-13 0
0 0 0

-5.8636e-14 1.37641e-13 0
-1.06581e-13 -7.10543e-15 0
0 0 0

5.48914e-15 8.02812e-14 0
-5.68434e-14 -5.68434e-14 0
0 0 0

4.78329e-14 -2.14547e-14 0
-1.59872e-14 1.54543e-13 0
0 0 0

5.48914e-15 1.45943e-13 0
-5.68434e-14 -2.84217e-14 0
0 0 0

4.78329e-14 -4.90657e-14 0
-7.10543e-15 1.35003e-13 0
0 0 0

1.55285e-14 -2.82805e-14 0
-3.19744e-14 -7.4607e-14 0
0 0 0

-1.00447e-14 3.24167e-14 0
6.21725e-15 -7.90479e-14 0
0 0 0

1.55285e-14 -6.21494e-14 0
-4.26326e-14 -1.42109e-14 0
0 0 0

-1.00447e-14 3.17308e-14 0
-1.77636e-14 1.06581e-14 0
0 0 0

SCALARS active double 1
LOOKUP_TABLE default
1
1
1
1
1
1
1
1
1
1
1
1
1
1
1
1
1
1
1
1
1
1
1
1
1
1
1
1
1
1
1
1
1
1
1
1
1
1
1
1
1
1
1
1
1
1
1
1
1
1
1
1
1
1
1
1
1
1
1
1
1
1
1
1
SCALARS extent double 1
LOOKUP_TABLE default
0.0125
0.0125
0.0125
0.0125
0.0125
0.0125
0.0125
0.0125
0.0125
0.0125
0.0125
0.0125
0.0125
0.0125
0.0125
0.0125
0.0125
0.0125
0.0125
0.0125
0.0125
0.0125
0.0125
0.0125
0.0125
0.0125
0.0125
0.0125
0.0125
0.0125
0.0125
0.0125
0.0125
0.0125
0.0125
0.0125
0.0125
0.0125
0.0125
0.0125
0.0125
0.0125
0.0125
0.0125
0.0125
0.0125
0.0125
0.0125
0.0125
0.0125
0.0125
0.0125
0.0125
0.0125
0.0125
0.0125
0.0125
0.0125
0.0125
0.0125
0.0125
0.0125
0.0125
0.0125
SCALARS pressure double 1
LOOKUP_TABLE default
3.51576e-11
-1.26095e-10
7.86344e-11
-6.62702e-11
-9.62067e-11
-2.66406e-11
-3.08198e-11
-2.88657e-11
4.52146e-11
8.41773e-11
2.92147e-11
5.62645e-11
-2.64245e-11
-4.19627e-12
-1.88698e-11
-1.96099e-11
5.97432e-11
-3.00644e-11
7.21464e-11
-3.3971e-11
-1.49762e-12
-1.15707e-11
-4.42082e-11
-1.79776e-11
3.46846e-11
5.05546e-12
1.4981e-11
3.13862e-11
-5.89777e-11
-2.34165e-11
-3.97488e-11
-2.50587e-11
7.37878e-11
-5.16986e-11
8.6353e-11
-3.95879e-11
-5.62955e-11
-3.61236e-12
-1.01492e-13
-1.63175e-11
8.76018e-12
3.30944e-11
1.29972e-12
1.23564e-11
-6.14839e-11
-3.26371e-11
-2.14187e-11
-2.02257e-11
9.58417e-11
-3.45521e-11
3.25833e-11
-1.53783e-10
-1.96196e-11
4.62094e-12
-1.02418e-10
-5.01986e-11
2.90804e-11
3.76491e-11
5.39673e-11
7.89679e-11
-3.83299e-11
-9.0217e-12
-1.2438e-11
-1.39113e-11
SCALARS density double 1
LOOKUP_TABLE default
1000
1000
1000
1000
1000
1000
1000
1000
1000
1000
1000
1000
1000
1000
1000
1000
1000
1000
1000
1000
1000
1000
1000
1000
1000
1000
1000
1000
1000
1000
1000
1000
1000
1000
1000
1000
1000
1000
1000
1000
1000
1000
1000
1000
1000
1000
1000
1000
1000
1000
1000
1000
1000
1000
1000
1000
1000
1000
1000
1000
1000
1000
1000
1000
