# vtk DataFile Version 3.0
Frame: 26, Time: 0.434
ASCII
DATASET UNSTRUCTURED_GRID
POINTS 64 double
0.74195 0.437135 0 
0.76375 0.422544 0 
0.727531 0.415712 0 
0.750161 0.400447 0 
0.785769 0.40896 0 
0.808956 0.395179 0 
0.772857 0.387317 0 
0.796239 0.373544 0 
0.830615 0.380357 0 
0.852361 0.366435 0 
0.818127 0.358169 0 
0.840117 0.344633 0 
0.874504 0.353838 0 
0.896834 0.340954 0 
0.862184 0.332212 0 
0.884117 0.31862 0 
0.715547 0.393286 0 
0.737661 0.379888 0 
0.703521 0.370515 0 
0.725947 0.357663 0 
0.760202 0.366703 0 
0.782926 0.353629 0 
0.747932 0.344227 0 
0.771419 0.331164 0 
0.804766 0.336843 0 
0.82658 0.322341 0 
0.793416 0.315271 0 
0.81475 0.299594 0 
0.849253 0.309762 0 
0.870535 0.296676 0 
0.836456 0.286943 0 
0.858413 0.273679 0 
0.692569 0.347314 0 
0.713996 0.333968 0 
0.680927 0.324337 0 
0.703612 0.311107 0 
0.737103 0.321953 0 
0.760439 0.307906 0 
0.726707 0.298889 0 
0.747073 0.28561 0 
0.78214 0.293127 0 
0.803174 0.278081 0 
0.769118 0.271043 0 
0.790572 0.255556 0 
0.824088 0.263613 0 
0.845878 0.249805 0 
0.810836 0.240732 0 
0.83333 0.227122 0 
0.670308 0.30212 0 
0.692379 0.289685 0 
0.657065 0.279794 0 
0.678437 0.267568 0 
0.714112 0.27665 0 
0.735629 0.262383 0 
0.700004 0.254924 0 
0.721782 0.240671 0 
0.757827 0.24808 0 
0.777704 0.232494 0 
0.74188 0.227506 0 
0.761829 0.211356 0 
0.797869 0.217551 0 
0.820626 0.205575 0 
0.78402 0.196341 0 
0.807203 0.183716 0 
CELLS 64 128
1 0
1 1
1 2
1 3
1 4
1 5
1 6
1 7
1 8
1 9
1 10
1 11
1 12
1 13
1 14
1 15
1 16
1 17
1 18
1 19
1 20
1 21
1 22
1 23
1 24
1 25
1 26
1 27
1 28
1 29
1 30
1 31
1 32
1 33
1 34
1 35
1 36
1 37
1 38
1 39
1 40
1 41
1 42
1 43
1 44
1 45
1 46
1 47
1 48
1 49
1 50
1 51
1 52
1 53
1 54
1 55
1 56
1 57
1 58
1 59
1 60
1 61
1 62
1 63
CELL_TYPES 64
1
1
1
1
1
1
1
1
1
1
1
1
1
1
1
1
1
1
1
1
1
1
1
1
1
1
1
1
1
1
1
1
1
1
1
1
1
1
1
1
1
1
1
1
1
1
1
1
1
1
1
1
1
1
1
1
1
1
1
1
1
1
1
1
POINT_DATA 64
VECTORS displacement double
0.22945 -0.175365 0 
0.25125 -0.214956 0 
0.190031 -0.196788 0 
0.212661 -0.237053 0 
0.273269 -0.25354 0 
0.296456 -0.292321 0 
0.235357 -0.275183 0 
0.258739 -0.313956 0 
0.318115 -0.332143 0 
0.339861 -0.371065 0 
0.280627 -0.354331 0 
0.302617 -0.392867 0 
0.362004 -0.408662 0 
0.384334 -0.446546 0 
0.324684 -0.430288 0 
0.346617 -0.46888 0 
0.153047 -0.219214 0 
0.175161 -0.257612 0 
0.116021 -0.241985 0 
0.138447 -0.279837 0 
0.197702 -0.295797 0 
0.220426 -0.333871 0 
0.160432 -0.318273 0 
0.183919 -0.356336 0 
0.242266 -0.375657 0 
0.26408 -0.415159 0 
0.205916 -0.397229 0 
0.22725 -0.437906 0 
0.286753 -0.452738 0 
0.308035 -0.490824 0 
0.248956 -0.475557 0 
0.270913 -0.513821 0 
0.0800686 -0.265186 0 
0.101496 -0.303532 0 
0.0434274 -0.288163 0 
0.0661116 -0.326393 0 
0.124603 -0.340547 0 
0.147939 -0.379594 0 
0.0892071 -0.363611 0 
0.109573 -0.40189 0 
0.16964 -0.419373 0 
0.190674 -0.459419 0 
0.131618 -0.441457 0 
0.153072 -0.481944 0 
0.211588 -0.498887 0 
0.233378 -0.537695 0 
0.173336 -0.521768 0 
0.19583 -0.560378 0 
0.00780822 -0.31038 0 
0.0298791 -0.347815 0 
-0.0304346 -0.332706 0 
-0.00906328 -0.369932 0 
0.051612 -0.38585 0 
0.0731285 -0.425117 0 
0.0125038 -0.407576 0 
0.0342819 -0.446829 0 
0.0953273 -0.46442 0 
0.115204 -0.505006 0 
0.0543805 -0.484994 0 
0.0743291 -0.526144 0 
0.135369 -0.544949 0 
0.158126 -0.581925 0 
0.0965202 -0.566159 0 
0.119703 -0.603784 0 
VECTORS velocity double
4.21065 1.06563 0 
3.95583 0.179012 0 
3.28838 1.45947 0 
2.78973 0.655117 0 
3.76156 0.23729 0 
4.07303 0.0793862 0 
2.38125 0.720417 0 
2.33783 0.0157704 0 
3.71585 -0.688081 0 
3.02134 -1.30426 0 
1.94677 -0.440728 0 
1.52255 -0.823532 0 
2.68899 -0.903079 0 
2.24942 -2.11482 0 
1.41997 -0.569827 0 
1.22996 -1.60635 0 
3.49462 1.49334 0 
3.16235 0.640607 0 
3.01166 1.90167 0 
2.78593 0.952125 0 
3.19339 1.37255 0 
3.20081 0.759898 0 
2.62377 1.33337 0 
2.51203 0.952616 0 
2.27081 0.105428 0 
1.62525 -0.24317 0 
1.58117 -0.205828 0 
0.990435 -0.574888 0 
1.4789 -0.136684 0 
0.942389 -1.30402 0 
1.0791 -0.165263 0 
0.775557 -1.17796 0 
2.39934 1.87378 0 
2.09647 1.15805 0 
1.86863 2.27565 0 
1.59272 1.5593 0 
2.11204 1.35123 0 
1.90954 1.17989 0 
1.76418 1.42971 0 
1.29238 1.1938 0 
1.52158 -0.234532 0 
0.675695 -0.748588 0 
0.770987 -0.501991 0 
0.369766 -0.720225 0 
0.240927 -0.300987 0 
0.464355 -0.801043 0 
-0.0922618 -0.0865274 0 
-0.121912 -0.956673 0 
1.75554 2.68291 0 
1.60497 1.56661 0 
0.835908 2.99325 0 
0.634372 1.8413 0 
1.70242 1.51685 0 
0.969393 1.45048 0 
0.371 2.08361 0 
-0.468765 1.63198 0 
0.318064 0.654801 0 
0.377289 0.492527 0 
-0.824313 1.00962 0 
-0.370929 0.68306 0 
0.287852 0.381574 0 
-0.200358 -1.4105 0 
-0.841663 0.487275 0 
-1.88182 -0.695721 0 
SCALARS mass double 1
LOOKUP_TABLE default
0.625
0.625
0.625
0.625
0.625
0.625
0.625
0.625
0.625
0.625
0.625
0.625
0.625
0.625
0.625
0.625
0.625
0.625
0.625
0.625
0.625
0.625
0.625
0.625
0.625
0.625
0.625
0.625
0.625
0.625
0.625
0.625
0.625
0.625
0.625
0.625
0.625
0.625
0.625
0.625
0.625
0.625
0.625
0.625
0.625
0.625
0.625
0.625
0.625
0.625
0.625
0.625
0.625
0.625
0.625
0.625
0.625
0.625
0.625
0.625
0.625
0.625
0.625
0.625
SCALARS volume double 1
LOOKUP_TABLE default
0.000636897
0.000645133
0.000630673
0.000639895
0.000656411
0.000656359
0.000628519
0.000645251
0.000631383
0.000614845
0.000647976
0.000623945
0.000636853
0.00062761
0.000613605
0.000639328
0.000627748
0.000618873
0.00065215
0.00063916
0.000619781
0.000643851
0.000664599
0.000658268
0.000628807
0.000670482
0.000656473
0.000630886
0.000623261
0.000622769
0.000644926
0.000652468
0.000628056
0.000650994
0.000620374
0.000644686
0.000637606
0.000672067
0.000622765
0.000638811
0.000631921
0.000600944
0.000673144
0.000635534
0.000642133
0.000641373
0.000649717
0.000637951
0.000622199
0.000618591
0.000638244
0.00061253
0.000632011
0.000634492
0.00062535
0.000620173
0.000629786
0.000632699
0.000635252
0.000639247
0.000626594
0.000648108
0.00064947
0.000642097
VECTORS momentum double
2.63165 0.666021 0 
2.4724 0.111882 0 
2.05524 0.912169 0 
1.74358 0.409448 0 
2.35098 0.148306 0 
2.54565 0.0496163 0 
1.48828 0.45026 0 
1.46114 0.00985648 0 
2.32241 -0.430051 0 
1.88834 -0.815163 0 
1.21673 -0.275455 0 
0.951595 -0.514707 0 
1.68062 -0.564425 0 
1.40589 -1.32177 0 
0.887482 -0.356142 0 
0.768727 -1.00397 0 
2.18414 0.93334 0 
1.97647 0.400379 0 
1.88229 1.18854 0 
1.74121 0.595078 0 
1.99587 0.857844 0 
2.00051 0.474936 0 
1.63985 0.833354 0 
1.57002 0.595385 0 
1.41926 0.0658928 0 
1.01578 -0.151981 0 
0.988229 -0.128643 0 
0.619022 -0.359305 0 
0.924311 -0.0854275 0 
0.588993 -0.815015 0 
0.674436 -0.103289 0 
0.484723 -0.736225 0 
1.49959 1.17111 0 
1.31029 0.723783 0 
1.1679 1.42228 0 
0.995451 0.97456 0 
1.32002 0.84452 0 
1.19346 0.737428 0 
1.10261 0.893567 0 
0.807735 0.746127 0 
0.950986 -0.146583 0 
0.42231 -0.467867 0 
0.481867 -0.313745 0 
0.231104 -0.450141 0 
0.15058 -0.188117 0 
0.290222 -0.500652 0 
-0.0576636 -0.0540796 0 
-0.076195 -0.597921 0 
1.09722 1.67682 0 
1.0031 0.979131 0 
0.522442 1.87078 0 
0.396483 1.15081 0 
1.06401 0.94803 0 
0.60587 0.906551 0 
0.231875 1.30226 0 
-0.292978 1.01999 0 
0.19879 0.409251 0 
0.235806 0.307829 0 
-0.515196 0.631011 0 
-0.231831 0.426913 0 
0.179908 0.238484 0 
-0.125223 -0.881563 0 
-0.526039 0.304547 0 
-1.17614 -0.434825 0 
VECTORS body_force double
0 -9.81 0 
0 -9.81 0 
0 -9.81 0 
0 -9.81 0 
0 -9.81 0 
0 -9.81 0 
0 -9.81 0 
0 -9.81 0 
0 -9.81 0 
0 -9.81 0 
0 -9.81 0 
0 -9.81 0 
0 -9.81 0 
0 -9.81 0 
0 -9.81 0 
0 -9.81 0 
0 -9.81 0 
0 -9.81 0 
0 -9.81 0 
0 -9.81 0 
0 -9.81 0 
0 -9.81 0 
0 -9.81 0 
0 -9.81 0 
0 -9.81 0 
0 -9.81 0 
0 -9.81 0 
0 -9.81 0 
0 -9.81 0 
0 -9.81 0 
0 -9.81 0 
0 -9.81 0 
0 -9.81 0 
0 -9.81 0 
0 -9.81 0 
0 -9.81 0 
0 -9.81 0 
0 -9.81 0 
0 -9.81 0 
0 -9.81 0 
0 -9.81 0 
0 -9.81 0 
0 -9.81 0 
0 -9.81 0 
0 -9.81 0 
0 -9.81 0 
0 -9.81 0 
0 -9.81 0 
0 -9.81 0 
0 -9.81 0 
0 -9.81 0 
0 -9.81 0 
0 -9.81 0 
0 -9.81 0 
0 -9.81 0 
0 -9.81 0 
0 -9.81 0 
0 -9.81 0 
0 -9.81 0 
0 -9.81 0 
0 -9.81 0 
0 -9.81 0 
0 -9.81 0 
0 -9.81 0 
TENSORS cauchy_stress double
2707.55 67.1202 0
67.1202 918.63 0
0 0 1087.85

2280.11 -1649.01 0
-1649.01 3817 0
0 0 1829.13

3964.29 -512.961 0
-512.961 -2226.57 0
0 0 521.316

-233.569 -5418.51 0
-5418.51 4762.82 0
0 0 1358.78

4924.63 -1775.5 0
-1775.5 4505.38 0
0 0 2829.01

4775.55 -1732.75 0
-1732.75 4639.18 0
0 0 2824.42

5415.96 -1194.31 0
-1194.31 -4336.38 0
0 0 323.874

3015.74 -4750.25 0
-4750.25 3116.43 0
0 0 1839.65

-40.9436 -2950.42 0
-2950.42 1994.88 0
0 0 586.18

-207.255 -266.833 0
-266.833 -2942.93 0
0 0 -945.055

-12.3995 -2417.04 0
-2417.04 6955.2 0
0 0 2082.84

-2795.97 -2074.25 0
-2074.25 2471.07 0
0 0 -97.4712

936.459 -837.815 0
-837.815 2676.32 0
0 0 1083.83

377.091 19.95 0
19.95 424.447 0
0 0 240.461

-3953.35 -1897.81 0
-1897.81 414.928 0
0 0 -1061.53

4184.06 2490.78 0
2490.78 174.882 0
0 0 1307.68

-402.279 2245.68 0
2245.68 1245.97 0
0 0 253.109

-650.072 -3923.27 0
-3923.27 -1244.61 0
0 0 -568.404

4194.42 -299.934 0
-299.934 3983.06 0
0 0 2453.24

-1183.07 1306.83 0
1306.83 5491.36 0
0 0 1292.49

212.912 353.866 0
353.866 -1825.64 0
0 0 -483.818

281.126 -5529.79 0
-5529.79 5433.34 0
0 0 1714.34

5486.25 -4703.19 0
-4703.19 6327.52 0
0 0 3544.13

2701.7 -2835.68 0
-2835.68 7271.39 0
0 0 2991.93

-4057.99 -6394.84 0
-6394.84 5225.82 0
0 0 350.349

8753.87 763.727 0
763.727 4754.79 0
0 0 4052.6

1933.96 -6107.58 0
-6107.58 7513.99 0
0 0 2834.39

-817.091 -2254.48 0
-2254.48 2619.56 0
0 0 540.74

52.1898 1823.25 0
1823.25 -588.167 0
0 0 -160.793

1069.58 1284.07 0
1284.07 -1757.19 0
0 0 -206.282

679.441 1019.46 0
1019.46 5355.95 0
0 0 1810.62

2322.66 -708.503 0
-708.503 5948.56 0
0 0 2481.37

-1554.56 1219.46 0
1219.46 2492.55 0
0 0 281.399

1769.62 -1946.47 0
-1946.47 6066.71 0
0 0 2350.9

532.436 -1654.65 0
-1654.65 -1961.03 0
0 0 -428.578

5871.56 -3879.53 0
-3879.53 92.1851 0
0 0 1789.12

3190.28 -3908.81 0
-3908.81 649.862 0
0 0 1152.04

5705.62 -2392.22 0
-2392.22 8257.28 0
0 0 4188.87

-4815.69 16.8786 0
16.8786 4126.69 0
0 0 -206.7

-3307.15 2893.59 0
2893.59 7510.5 0
0 0 1261.01

-2395.82 -2662.01 0
-2662.01 4513.65 0
0 0 635.347

-8062.86 -4668.18 0
-4668.18 514.76 0
0 0 -2264.43

2311.2 -7838.07 0
-7838.07 11959.4 0
0 0 4281.17

-6635.27 -731.171 0
-731.171 9849.52 0
0 0 964.275

-847.09 -418.36 0
-418.36 6047.93 0
0 0 1560.25

-721.967 600.284 0
600.284 5695.07 0
0 0 1491.93

3827.83 1588.34 0
1588.34 3630.85 0
0 0 2237.6

4838.52 -2009.35 0
-2009.35 -894.363 0
0 0 1183.25

1239.39 1351.89 0
1351.89 -2103.06 0
0 0 -259.099

608.999 2192.06 0
2192.06 -2591.29 0
0 0 -594.686

2083.26 438.44 0
438.44 1949.26 0
0 0 1209.76

-4666.86 1705.06 0
1705.06 791.231 0
0 0 -1162.69

855.5 446.61 0
446.61 1289.87 0
0 0 643.611

3962.56 -2150.68 0
-2150.68 -1064.05 0
0 0 869.553

-293.328 1021.7 0
1021.7 400.847 0
0 0 32.2556

-574.164 294.068 0
294.068 -916.747 0
0 0 -447.273

667.878 -1633.19 0
-1633.19 799.005 0
0 0 440.065

-1844.57 359.391 0
359.391 4199.15 0
0 0 706.374

-2375.25 1217.93 0
1217.93 5504.19 0
0 0 938.681

1036.01 255.508 0
255.508 3298.32 0
0 0 1300.3

-1103.93 1775.59 0
1775.59 1593.87 0
0 0 146.982

3160.16 516.166 0
516.166 3821.64 0
0 0 2094.54

2602.85 -3768.17 0
-3768.17 4782.64 0
0 0 2215.65

2698.27 2562.98 0
2562.98 2491.79 0
0 0 1557.02

TENSORS velocity_gradient double
-0.0990272 13.9564 0
-11.4203 -1.69775 0
0 0 0

0.715953 12.9725 0
-15.1432 -2.38107 0
0 0 0

-0.42384 13.7441 0
-10.4696 -1.07634 0
0 0 0

0.324753 12.1301 0
-11.3232 -2.75649 0
0 0 0

2.22554 10.4565 0
-14.9286 -2.73883 0
0 0 0

-1.69537 19.2084 0
-17.4642 0.272125 0
0 0 0

0.443582 13.9777 0
-15.8517 -1.82025 0
0 0 0

-2.34831 18.9006 0
-16.9257 0.073584 0
0 0 0

-2.82793 22.3522 0
-17.5915 0.317899 0
0 0 0

-3.23814 23.2675 0
-15.1781 0.555435 0
0 0 0

-4.50366 21.451 0
-17.3606 0.44208 0
0 0 0

-4.75306 19.7541 0
-16.3974 -0.272156 0
0 0 0

-0.631708 20.0428 0
-14.4425 2.70361 0
0 0 0

0.816932 17.4969 0
-14.9289 -2.09302 0
0 0 0

0.649652 18.3914 0
-15.3008 -2.21666 0
0 0 0

0.925609 17.931 0
-15.3491 -2.13603 0
0 0 0

0.0511121 13.1426 0
-10.0115 -4.28252 0
0 0 0

1.20633 11.1982 0
-10.3205 -3.76255 0
0 0 0

2.99561 14.5514 0
-10.3359 -4.81651 0
0 0 0

3.16579 12.1963 0
-10.8445 -4.02945 0
0 0 0

-3.90522 11.3914 0
-17.5246 -2.81519 0
0 0 0

-6.25313 17.4144 0
-18.5394 0.292872 0
0 0 0

2.05756 20.5312 0
-12.66 1.32905 0
0 0 0

-7.523 21.035 0
-20.3377 3.32359 0
0 0 0

-5.23455 21.2356 0
-16.4987 4.90512 0
0 0 0

-3.53973 20.0723 0
-12.9046 1.77153 0
0 0 0

-7.76765 21.3933 0
-21.5559 5.10788 0
0 0 0

-2.12756 19.417 0
-9.74134 2.10238 0
0 0 0

-1.52274 18.8089 0
-12.3995 -1.57503 0
0 0 0

1.6206 15.0436 0
-14.703 -2.53026 0
0 0 0

-1.16411 16.2845 0
-9.21428 0.563491 0
0 0 0

3.25701 14.4941 0
-11.1972 -0.742394 0
0 0 0

7.8364 17.7276 0
-12.5596 -4.05791 0
0 0 0

3.04731 19.2499 0
-12.7074 -1.94934 0
0 0 0

6.12938 16.9903 0
-14.179 -4.52006 0
0 0 0

3.16456 18.762 0
-14.9974 -2.8537 0
0 0 0

2.59442 20.1495 0
-13.855 0.330213 0
0 0 0

-7.896 20.8666 0
-22.195 2.48511 0
0 0 0

1.12418 21.96 0
-16.0207 0.558594 0
0 0 0

-1.60996 26.1238 0
-17.8458 2.47917 0
0 0 0

-6.88854 22.2893 0
-22.4487 1.53464 0
0 0 0

-1.71528 19.2111 0
-13.1713 0.756915 0
0 0 0

-3.35188 24.2805 0
-21.4563 2.09343 0
0 0 0

-1.03811 20.549 0
-20.7958 1.02298 0
0 0 0

0.799605 17.2885 0
-9.13496 0.604047 0
0 0 0

2.18222 16.3062 0
-9.10977 2.94341 0
0 0 0

1.64902 16.3647 0
-10.5685 0.741012 0
0 0 0

1.15604 17.2049 0
-12.7807 4.51142 0
0 0 0

4.01904 15.1545 0
-15.414 -2.5965 0
0 0 0

2.47422 17.3641 0
-15.4173 -0.544739 0
0 0 0

0.956479 12.371 0
-15.0799 0.242571 0
0 0 0

-0.691926 15.441 0
-14.9071 -0.23482 0
0 0 0

-2.4556 20.8587 0
-17.7088 0.201791 0
0 0 0

-4.82263 24.6026 0
-18.7218 1.80412 0
0 0 0

-4.04876 19.4783 0
-16.6387 0.555982 0
0 0 0

-4.67221 19.7338 0
-18.7425 2.34973 0
0 0 0

-0.540917 17.8546 0
-20.5156 0.767518 0
0 0 0

-0.731451 15.1584 0
-20.109 -0.483136 0
0 0 0

-2.17386 15.7445 0
-17.7754 0.805501 0
0 0 0

-1.51107 14.5925 0
-19.5869 -0.104145 0
0 0 0

-0.556599 15.9015 0
-17.9287 -0.569641 0
0 0 0

0.345038 16.8526 0
-16.3657 2.4275 0
0 0 0

-2.35885 20.5962 0
-19.7144 -0.987543 0
0 0 0

-2.80381 24.9116 0
-16.5254 -0.399911 0
0 0 0

SCALARS active double 1
LOOKUP_TABLE default
1
1
1
1
1
1
1
1
1
1
1
1
1
1
1
1
1
1
1
1
1
1
1
1
1
1
1
1
1
1
1
1
1
1
1
1
1
1
1
1
1
1
1
1
1
1
1
1
1
1
1
1
1
1
1
1
1
1
1
1
1
1
1
1
SCALARS extent double 1
LOOKUP_TABLE default
0.0125
0.0125
0.0125
0.0125
0.0125
0.0125
0.0125
0.0125
0.0125
0.0125
0.0125
0.0125
0.0125
0.0125
0.0125
0.0125
0.0125
0.0125
0.0125
0.0125
0.0125
0.0125
0.0125
0.0125
0.0125
0.0125
0.0125
0.0125
0.0125
0.0125
0.0125
0.0125
0.0125
0.0125
0.0125
0.0125
0.0125
0.0125
0.0125
0.0125
0.0125
0.0125
0.0125
0.0125
0.0125
0.0125
0.0125
0.0125
0.0125
0.0125
0.0125
0.0125
0.0125
0.0125
0.0125
0.0125
0.0125
0.0125
0.0125
0.0125
0.0125
0.0125
0.0125
0.0125
SCALARS pressure double 1
LOOKUP_TABLE default
-1571.35
-2642.08
-753.012
-1962.68
-4086.34
-4079.71
-467.819
-2657.27
-846.704
1365.08
-3008.55
140.792
-1565.54
-347.333
1533.32
-1888.87
-365.601
821.028
-3543.58
-1866.93
698.848
-2476.27
-5119.3
-4321.67
-506.059
-5853.75
-4094.11
-781.069
232.257
297.963
-2615.34
-3584.19
-406.465
-3395.74
619.058
-2584.29
-1664.06
-6050.59
298.567
-1821.45
-917.723
3270.84
-6183.91
-1392.84
-2253.7
-2155.01
-3232.09
-1709.13
374.254
858.991
-1747.42
1679.44
-929.66
-1256.02
-46.5914
646.062
-635.649
-1020.32
-1355.87
-1878.21
-212.308
-3025.45
-3200.38
-2249.02
SCALARS density double 1
LOOKUP_TABLE default
981.321
968.792
991.005
976.723
952.147
952.222
994.402
968.616
989.891
1016.52
964.541
1001.69
981.389
995.841
1018.57
977.588
995.622
1009.9
958.369
977.846
1008.42
970.722
940.417
949.462
993.946
932.165
952.058
990.671
1002.79
1003.58
969.103
957.901
995.134
960.07
1007.46
969.464
980.229
929.966
1003.59
978.38
989.048
1040.03
928.48
983.425
973.318
974.471
961.957
979.699
1004.5
1010.36
979.249
1020.36
988.906
985.041
999.441
1007.78
992.401
987.831
983.861
977.714
997.456
964.346
962.324
973.373
