# vtk DataFile Version 3.0
Frame: 14, Time: 0.234
ASCII
DATASET UNSTRUCTURED_GRID
POINTS 64 double
0.5125 0.340469 0 
0.5125 0.365469 0 
0.5375 0.340469 0 
0.5375 0.365469 0 
0.5125 0.390469 0 
0.5125 0.415469 0 
0.5375 0.390469 0 
0.5375 0.415469 0 
0.5125 0.440469 0 
0.5125 0.465469 0 
0.5375 0.440469 0 
0.5375 0.465469 0 
0.5125 0.490469 0 
0.5125 0.515469 0 
0.5375 0.490469 0 
0.5375 0.515469 0 
0.5625 0.340469 0 
0.5625 0.365469 0 
0.5875 0.340469 0 
0.5875 0.365469 0 
0.5625 0.390469 0 
0.5625 0.415469 0 
0.5875 0.390469 0 
0.5875 0.415469 0 
0.5625 0.440469 0 
0.5625 0.465469 0 
0.5875 0.440469 0 
0.5875 0.465469 0 
0.5625 0.490469 0 
0.5625 0.515469 0 
0.5875 0.490469 0 
0.5875 0.515469 0 
0.6125 0.340469 0 
0.6125 0.365469 0 
0.6375 0.340469 0 
0.6375 0.365469 0 
0.6125 0.390469 0 
0.6125 0.415469 0 
0.6375 0.390469 0 
0.6375 0.415469 0 
0.6125 0.440469 0 
0.6125 0.465469 0 
0.6375 0.440469 0 
0.6375 0.465469 0 
0.6125 0.490469 0 
0.6125 0.515469 0 
0.6375 0.490469 0 
0.6375 0.515469 0 
0.6625 0.340469 0 
0.6625 0.365469 0 
0.6875 0.340469 0 
0.6875 0.365469 0 
0.6625 0.390469 0 
0.6625 0.415469 0 
0.6875 0.390469 0 
0.6875 0.415469 0 
0.6625 0.440469 0 
0.6625 0.465469 0 
0.6875 0.440469 0 
0.6875 0.465469 0 
0.6625 0.490469 0 
0.6625 0.515469 0 
0.6875 0.490469 0 
0.6875 0.515469 0 
CELLS 64 128
1 0
1 1
1 2
1 3
1 4
1 5
1 6
1 7
1 8
1 9
1 10
1 11
1 12
1 13
1 14
1 15
1 16
1 17
1 18
1 19
1 20
1 21
1 22
1 23
1 24
1 25
1 26
1 27
1 28
1 29
1 30
1 31
1 32
1 33
1 34
1 35
1 36
1 37
1 38
1 39
1 40
1 41
1 42
1 43
1 44
1 45
1 46
1 47
1 48
1 49
1 50
1 51
1 52
1 53
1 54
1 55
1 56
1 57
1 58
1 59
1 60
1 61
1 62
1 63
CELL_TYPES 64
1
1
1
1
1
1
1
1
1
1
1
1
1
1
1
1
1
1
1
1
1
1
1
1
1
1
1
1
1
1
1
1
1
1
1
1
1
1
1
1
1
1
1
1
1
1
1
1
1
1
1
1
1
1
1
1
1
1
1
1
1
1
1
1
POINT_DATA 64
VECTORS displacement double
-1.0389e-16 -0.272031 0 
-5.83551e-17 -0.272031 0 
-9.902e-17 -0.272031 0 
-6.67655e-17 -0.272031 0 
-1.69762e-17 -0.272031 0 
3.02829e-17 -0.272031 0 
-2.53487e-17 -0.272031 0 
2.45676e-17 -0.272031 0 
9.44989e-17 -0.272031 0 
1.74923e-16 -0.272031 0 
9.30881e-17 -0.272031 0 
1.73841e-16 -0.272031 0 
2.54132e-16 -0.272031 0 
3.35292e-16 -0.272031 0 
2.51311e-16 -0.272031 0 
3.28589e-16 -0.272031 0 
-1.08481e-16 -0.272031 0 
-7.445e-17 -0.272031 0 
-1.32274e-16 -0.272031 0 
-8.14088e-17 -0.272031 0 
-2.77899e-17 -0.272031 0 
2.69911e-17 -0.272031 0 
-2.42999e-17 -0.272031 0 
3.75537e-17 -0.272031 0 
9.68024e-17 -0.272031 0 
1.74384e-16 -0.272031 0 
1.05642e-16 -0.272031 0 
1.76552e-16 -0.272031 0 
2.48509e-16 -0.272031 0 
3.22049e-16 -0.272031 0 
2.45726e-16 -0.272031 0 
3.15669e-16 -0.272031 0 
-1.58383e-16 -0.272031 0 
-8.95634e-17 -0.272031 0 
-1.86808e-16 -0.272031 0 
-9.89138e-17 -0.272031 0 
-2.24792e-17 -0.272031 0 
4.64155e-17 -0.272031 0 
-2.2328e-17 -0.272031 0 
5.35766e-17 -0.272031 0 
1.13203e-16 -0.272031 0 
1.78131e-16 -0.272031 0 
1.19486e-16 -0.272031 0 
1.7912e-16 -0.272031 0 
2.43694e-16 -0.272031 0 
3.10289e-16 -0.272031 0 
2.42414e-16 -0.272031 0 
3.05907e-16 -0.272031 0 
-1.99447e-16 -0.272031 0 
-1.06081e-16 -0.272031 0 
-1.96299e-16 -0.272031 0 
-1.11064e-16 -0.272031 0 
-2.64144e-17 -0.272031 0 
5.36551e-17 -0.272031 0 
-3.47384e-17 -0.272031 0 
4.66511e-17 -0.272031 0 
1.22251e-16 -0.272031 0 
1.78755e-16 -0.272031 0 
1.21498e-16 -0.272031 0 
1.77036e-16 -0.272031 0 
2.40057e-16 -0.272031 0 
2.99636e-16 -0.272031 0 
2.36622e-16 -0.272031 0 
2.91476e-16 -0.272031 0 
VECTORS velocity double
-1.11367e-14 -2.30535 0 
2.33856e-15 -2.30535 0 
-3.3757e-15 -2.30535 0 
5.60705e-16 -2.30535 0 
9.44195e-15 -2.30535 0 
7.65783e-15 -2.30535 0 
6.25037e-15 -2.30535 0 
4.34614e-15 -2.30535 0 
1.71924e-16 -2.30535 0 
1.99885e-15 -2.30535 0 
4.09396e-16 -2.30535 0 
1.92081e-15 -2.30535 0 
6.41911e-15 -2.30535 0 
1.06019e-14 -2.30535 0 
5.0745e-15 -2.30535 0 
6.63374e-15 -2.30535 0 
-5.94543e-17 -2.30535 0 
-3.34414e-16 -2.30535 0 
-1.18792e-15 -2.30535 0 
-3.46802e-16 -2.30535 0 
3.56725e-15 -2.30535 0 
2.04005e-15 -2.30535 0 
1.3926e-15 -2.30535 0 
7.3955e-16 -2.30535 0 
5.34241e-16 -2.30535 0 
1.7587e-15 -2.30535 0 
5.46459e-16 -2.30535 0 
1.51253e-15 -2.30535 0 
3.60357e-15 -2.30535 0 
4.41959e-15 -2.30535 0 
2.00632e-15 -2.30535 0 
3.95947e-15 -2.30535 0 
-2.67632e-15 -2.30535 0 
-7.20424e-16 -2.30535 0 
-4.52465e-15 -2.30535 0 
-1.45528e-15 -2.30535 0 
-1.44618e-15 -2.30535 0 
-7.85277e-16 -2.30535 0 
-4.94911e-15 -2.30535 0 
-2.53443e-15 -2.30535 0 
5.20886e-16 -2.30535 0 
1.19664e-15 -2.30535 0 
4.57521e-16 -2.30535 0 
8.11045e-16 -2.30535 0 
3.84352e-16 -2.30535 0 
3.54371e-15 -2.30535 0 
-1.26234e-15 -2.30535 0 
3.17231e-15 -2.30535 0 
-9.02394e-16 -2.30535 0 
-2.06089e-15 -2.30535 0 
8.19044e-15 -2.30535 0 
-2.53727e-15 -2.30535 0 
-8.56782e-15 -2.30535 0 
-4.83117e-15 -2.30535 0 
-1.23023e-14 -2.30535 0 
-7.6755e-15 -2.30535 0 
1.18272e-15 -2.30535 0 
6.30224e-16 -2.30535 0 
2.69647e-15 -2.30535 0 
6.54181e-16 -2.30535 0 
-2.85713e-15 -2.30535 0 
9.51225e-16 -2.30535 0 
-4.40001e-15 -2.30535 0 
-3.11954e-15 -2.30535 0 
SCALARS mass double 1
LOOKUP_TABLE default
0.625
0.625
0.625
0.625
0.625
0.625
0.625
0.625
0.625
0.625
0.625
0.625
0.625
0.625
0.625
0.625
0.625
0.625
0.625
0.625
0.625
0.625
0.625
0.625
0.625
0.625
0.625
0.625
0.625
0.625
0.625
0.625
0.625
0.625
0.625
0.625
0.625
0.625
0.625
0.625
0.625
0.625
0.625
0.625
0.625
0.625
0.625
0.625
0.625
0.625
0.625
0.625
0.625
0.625
0.625
0.625
0.625
0.625
0.625
0.625
0.625
0.625
0.625
0.625
SCALARS volume double 1
LOOKUP_TABLE default
0.000625
0.000625
0.000625
0.000625
0.000625
0.000625
0.000625
0.000625
0.000625
0.000625
0.000625
0.000625
0.000625
0.000625
0.000625
0.000625
0.000625
0.000625
0.000625
0.000625
0.000625
0.000625
0.000625
0.000625
0.000625
0.000625
0.000625
0.000625
0.000625
0.000625
0.000625
0.000625
0.000625
0.000625
0.000625
0.000625
0.000625
0.000625
0.000625
0.000625
0.000625
0.000625
0.000625
0.000625
0.000625
0.000625
0.000625
0.000625
0.000625
0.000625
0.000625
0.000625
0.000625
0.000625
0.000625
0.000625
0.000625
0.000625
0.000625
0.000625
0.000625
0.000625
0.000625
0.000625
VECTORS momentum double
-6.96041e-15 -1.44084 0 
1.4616e-15 -1.44084 0 
-2.10981e-15 -1.44084 0 
3.50441e-16 -1.44084 0 
5.90122e-15 -1.44084 0 
4.78614e-15 -1.44084 0 
3.90648e-15 -1.44084 0 
2.71634e-15 -1.44084 0 
1.07452e-16 -1.44084 0 
1.24928e-15 -1.44084 0 
2.55873e-16 -1.44084 0 
1.2005e-15 -1.44084 0 
4.01195e-15 -1.44084 0 
6.6262e-15 -1.44084 0 
3.17156e-15 -1.44084 0 
4.14609e-15 -1.44084 0 
-3.7159e-17 -1.44084 0 
-2.09009e-16 -1.44084 0 
-7.42449e-16 -1.44084 0 
-2.16751e-16 -1.44084 0 
2.22953e-15 -1.44084 0 
1.27503e-15 -1.44084 0 
8.70377e-16 -1.44084 0 
4.62219e-16 -1.44084 0 
3.33901e-16 -1.44084 0 
1.09919e-15 -1.44084 0 
3.41537e-16 -1.44084 0 
9.45331e-16 -1.44084 0 
2.25223e-15 -1.44084 0 
2.76224e-15 -1.44084 0 
1.25395e-15 -1.44084 0 
2.47467e-15 -1.44084 0 
-1.6727e-15 -1.44084 0 
-4.50265e-16 -1.44084 0 
-2.8279e-15 -1.44084 0 
-9.09549e-16 -1.44084 0 
-9.03864e-16 -1.44084 0 
-4.90798e-16 -1.44084 0 
-3.09319e-15 -1.44084 0 
-1.58402e-15 -1.44084 0 
3.25553e-16 -1.44084 0 
7.47902e-16 -1.44084 0 
2.85951e-16 -1.44084 0 
5.06903e-16 -1.44084 0 
2.4022e-16 -1.44084 0 
2.21482e-15 -1.44084 0 
-7.88963e-16 -1.44084 0 
1.98269e-15 -1.44084 0 
-5.63996e-16 -1.44084 0 
-1.28806e-15 -1.44084 0 
5.11903e-15 -1.44084 0 
-1.58579e-15 -1.44084 0 
-5.35489e-15 -1.44084 0 
-3.01948e-15 -1.44084 0 
-7.68896e-15 -1.44084 0 
-4.79719e-15 -1.44084 0 
7.39197e-16 -1.44084 0 
3.9389e-16 -1.44084 0 
1.68529e-15 -1.44084 0 
4.08863e-16 -1.44084 0 
-1.7857e-15 -1.44084 0 
5.94515e-16 -1.44084 0 
-2.75001e-15 -1.44084 0 
-1.94971e-15 -1.44084 0 
VECTORS body_force double
0 -9.81 0 
0 -9.81 0 
0 -9.81 0 
0 -9.81 0 
0 -9.81 0 
0 -9.81 0 
0 -9.81 0 
0 -9.81 0 
0 -9.81 0 
0 -9.81 0 
0 -9.81 0 
0 -9.81 0 
0 -9.81 0 
0 -9.81 0 
0 -9.81 0 
0 -9.81 0 
0 -9.81 0 
0 -9.81 0 
0 -9.81 0 
0 -9.81 0 
0 -9.81 0 
0 -9.81 0 
0 -9.81 0 
0 -9.81 0 
0 -9.81 0 
0 -9.81 0 
0 -9.81 0 
0 -9.81 0 
0 -9.81 0 
0 -9.81 0 
0 -9.81 0 
0 -9.81 0 
0 -9.81 0 
0 -9.81 0 
0 -9.81 0 
0 -9.81 0 
0 -9.81 0 
0 -9.81 0 
0 -9.81 0 
0 -9.81 0 
0 -9.81 0 
0 -9.81 0 
0 -9.81 0 
0 -9.81 0 
0 -9.81 0 
0 -9.81 0 
0 -9.81 0 
0 -9.81 0 
0 -9.81 0 
0 -9.81 0 
0 -9.81 0 
0 -9.81 0 
0 -9.81 0 
0 -9.81 0 
0 -9.81 0 
0 -9.81 0 
0 -9.81 0 
0 -9.81 0 
0 -9.81 0 
0 -9.81 0 
0 -9.81 0 
0 -9.81 0 
0 -9.81 0 
0 -9.81 0 
TENSORS cauchy_stress double
5.82547e-12 3.64762e-11 0
3.64762e-11 -3.63581e-11 0
0 0 -9.1598e-12

-2.3434e-11 2.13562e-11 0
2.13562e-11 3.15811e-11 0
0 0 2.44413e-12

2.64052e-12 7.39974e-12 0
7.39974e-12 -4.37897e-11 0
0 0 -1.23447e-11

-2.90977e-11 1.73236e-11 0
1.73236e-11 1.83657e-11 0
0 0 -3.21961e-12

1.46865e-11 4.08879e-12 0
4.08879e-12 1.2014e-10 0
0 0 4.0448e-11

6.1217e-12 2.07814e-11 0
2.07814e-11 7.29031e-11 0
0 0 2.37075e-11

-5.1366e-11 1.03453e-11 0
1.03453e-11 -3.39825e-11 0
0 0 -2.56046e-11

-1.12842e-11 -1.00737e-12 0
-1.00737e-12 3.22893e-11 0
0 0 6.30151e-12

-2.0577e-12 -8.94783e-12 0
-8.94783e-12 9.6683e-12 0
0 0 2.28318e-12

6.71788e-12 3.84227e-12 0
3.84227e-12 2.67733e-11 0
0 0 1.00474e-11

-1.16374e-11 6.49378e-12 0
6.49378e-12 -1.26843e-11 0
0 0 -7.2965e-12

-7.76123e-13 2.55183e-12 0
2.55183e-12 9.28728e-12 0
0 0 2.55335e-12

5.1942e-11 1.70092e-11 0
1.70092e-11 1.50131e-10 0
0 0 6.06219e-11

-3.11931e-11 -8.97641e-13 0
-8.97641e-13 -4.04139e-12 0
0 0 -1.05704e-11

3.82635e-11 1.26519e-11 0
1.26519e-11 1.18214e-10 0
0 0 4.69433e-11

-2.49673e-11 -5.98011e-12 0
-5.98011e-12 1.04855e-11 0
0 0 -4.34456e-12

-1.3946e-10 -4.53186e-11 0
-4.53186e-11 -8.13783e-11 0
0 0 -6.62515e-11

-3.67352e-11 -1.94244e-11 0
-1.94244e-11 -1.43437e-11 0
0 0 -1.53236e-11

-1.141e-10 -2.10386e-11 0
-2.10386e-11 -2.22042e-11 0
0 0 -4.08912e-11

-2.08937e-11 4.85777e-12 0
4.85777e-12 2.26198e-11 0
0 0 5.17849e-13

-2.82976e-11 1.36882e-11 0
1.36882e-11 -1.01823e-10 0
0 0 -3.90362e-11

3.57511e-11 2.11824e-11 0
2.11824e-11 -2.49145e-11 0
0 0 3.25096e-12

4.10237e-12 1.26247e-11 0
1.26247e-11 -2.62231e-11 0
0 0 -6.63622e-12

4.37799e-11 2.54002e-11 0
2.54002e-11 -6.18059e-12 0
0 0 1.12798e-11

4.70399e-12 2.14579e-11 0
2.14579e-11 -7.96853e-11 0
0 0 -2.24944e-11

2.57695e-11 7.06486e-12 0
7.06486e-12 3.78907e-11 0
0 0 1.90981e-11

3.04306e-12 9.70129e-12 0
9.70129e-12 -8.35608e-11 0
0 0 -2.41553e-11

-4.19368e-12 5.41016e-12 0
5.41016e-12 -3.20234e-11 0
0 0 -1.08651e-11

3.34857e-11 8.11242e-12 0
8.11242e-12 1.06679e-10 0
0 0 4.20496e-11

-4.13819e-11 8.75076e-13 0
8.75076e-13 -3.1131e-11 0
0 0 -2.17539e-11

3.54049e-11 9.2271e-12 0
9.2271e-12 1.11157e-10 0
0 0 4.39687e-11

-2.89784e-11 9.02899e-12 0
9.02899e-12 -2.1894e-12 0
0 0 -9.35034e-12

-1.20085e-10 -1.66793e-11 0
-1.66793e-11 1.13402e-11 0
0 0 -3.26236e-11

-5.16465e-13 -1.17308e-11 0
-1.17308e-11 9.46966e-11 0
0 0 2.8254e-11

-1.4921e-10 2.63951e-11 0
2.63951e-11 -5.6618e-11 0
0 0 -6.17485e-11

-2.62651e-11 7.04918e-12 0
7.04918e-12 3.46165e-11 0
0 0 2.50541e-12

9.88192e-12 -1.94319e-11 0
-1.94319e-11 2.15069e-11 0
0 0 9.41663e-12

-4.59646e-12 -1.84526e-11 0
-1.84526e-11 -8.41722e-11 0
0 0 -2.66306e-11

-2.12714e-11 -1.32473e-11 0
-1.32473e-11 -5.11843e-11 0
0 0 -2.17367e-11

2.85773e-11 -1.01879e-11 0
-1.01879e-11 -6.76667e-12 0
0 0 6.5432e-12

5.39284e-12 -2.30315e-11 0
-2.30315e-11 -5.18594e-11 0
0 0 -1.394e-11

-9.92198e-12 -8.98656e-14 0
-8.98656e-14 -3.3295e-11 0
0 0 -1.29651e-11

1.57716e-11 -1.54996e-11 0
-1.54996e-11 -2.76424e-11 0
0 0 -3.56126e-12

1.29091e-11 1.31907e-13 0
1.31907e-13 1.99776e-11 0
0 0 9.86601e-12

4.94644e-11 9.30019e-13 0
9.30019e-13 1.28544e-10 0
0 0 5.34027e-11

-1.68315e-11 3.82743e-12 0
3.82743e-12 5.66995e-12 0
0 0 -3.34848e-12

2.36165e-11 -7.39262e-12 0
-7.39262e-12 6.82327e-11 0
0 0 2.75548e-11

-3.46794e-11 1.3238e-12 0
1.3238e-12 -3.59752e-11 0
0 0 -2.11964e-11

1.48637e-11 -1.50903e-11 0
-1.50903e-11 2.4005e-12 0
0 0 5.17926e-12

-2.23295e-11 -2.2873e-11 0
-2.2873e-11 -9.89972e-13 0
0 0 -6.99585e-12

-3.5935e-12 -2.63682e-11 0
-2.63682e-11 -4.06663e-11 0
0 0 -1.32779e-11

-1.43215e-11 -1.2924e-11 0
-1.2924e-11 1.76954e-11 0
0 0 1.01217e-12

-4.81674e-11 -1.88307e-11 0
-1.88307e-11 -2.70163e-11 0
0 0 -2.25551e-11

-3.87052e-11 -1.00861e-11 0
-1.00861e-11 -1.84759e-11 0
0 0 -1.71543e-11

-7.60133e-12 -1.29933e-11 0
-1.29933e-11 6.7638e-11 0
0 0 1.8011e-11

-7.85172e-13 -1.35952e-11 0
-1.35952e-11 7.00041e-11 0
0 0 2.07657e-11

-1.46027e-11 7.17516e-12 0
7.17516e-12 -2.63483e-11 0
0 0 -1.22853e-11

5.57249e-12 8.38474e-12 0
8.38474e-12 3.06318e-11 0
0 0 1.08613e-11

-1.51788e-11 1.19928e-11 0
1.19928e-11 -2.76925e-11 0
0 0 -1.28614e-11

9.91517e-12 -1.27215e-12 0
-1.27215e-12 4.07647e-11 0
0 0 1.5204e-11

3.39365e-11 -1.48135e-11 0
-1.48135e-11 1.14415e-10 0
0 0 4.45054e-11

-2.97932e-11 4.74503e-12 0
4.74503e-12 1.41757e-11 0
0 0 -4.68524e-12

4.44757e-11 -8.86698e-12 0
-8.86698e-12 1.39006e-10 0
0 0 5.50446e-11

-2.50182e-11 -1.10704e-11 0
-1.10704e-11 2.53175e-11 0
0 0 8.97849e-14

TENSORS velocity_gradient double
3.52698e-14 1.69175e-14 0
-2.06057e-13 6.39488e-14 0
0 0 0

1.0777e-14 1.69249e-13 0
-1.35003e-13 -1.35003e-13 0
0 0 0

3.52698e-14 3.28528e-14 0
-2.13163e-13 7.10543e-14 0
0 0 0

1.0777e-14 1.28321e-13 0
-1.63425e-13 7.10543e-15 0
0 0 0

-3.01516e-14 1.69249e-13 0
-7.81597e-14 -1.20792e-13 0
0 0 0

-3.15784e-14 -6.40872e-14 0
-3.19744e-14 1.10134e-13 0
0 0 0

-3.01516e-14 1.28321e-13 0
-4.26326e-14 1.42109e-14 0
0 0 0

-3.15784e-14 -4.94548e-14 0
-2.13163e-14 1.20792e-13 0
0 0 0

-1.6946e-14 -6.40872e-14 0
-4.9738e-14 1.20792e-13 0
0 0 0

-2.86981e-14 8.16423e-14 0
-3.90799e-14 -9.59233e-14 0
0 0 0

-1.6946e-14 -4.94548e-14 0
-2.84217e-14 1.42109e-13 0
0 0 0

-2.86981e-14 5.91636e-14 0
-4.9738e-14 -1.06581e-13 0
0 0 0

-5.11768e-14 8.16423e-14 0
-6.39488e-14 -1.20792e-13 0
0 0 0

-5.6347e-14 3.46421e-14 0
-6.75016e-14 1.03029e-13 0
0 0 0

-5.11768e-14 5.91636e-14 0
-4.26326e-14 -9.9476e-14 0
0 0 0

-5.6347e-14 3.65086e-14 0
-7.10543e-14 5.68434e-14 0
0 0 0

1.42868e-14 2.34967e-14 0
-7.81597e-14 6.39488e-14 0
0 0 0

-2.59508e-14 8.66012e-14 0
-6.75016e-14 3.55271e-15 0
0 0 0

1.42868e-14 -1.1151e-14 0
-5.68434e-14 7.10543e-14 0
0 0 0

-2.59508e-14 4.4091e-14 0
-6.39488e-14 2.13163e-14 0
0 0 0

-6.8461e-14 8.66012e-14 0
-5.68434e-14 5.68434e-14 0
0 0 0

-5.93572e-14 -2.70949e-14 0
-3.55271e-14 1.35003e-13 0
0 0 0

-6.8461e-14 4.4091e-14 0
-5.68434e-14 2.84217e-14 0
0 0 0

-5.93572e-14 2.99235e-15 0
-5.68434e-14 9.9476e-14 0
0 0 0

-2.92699e-14 -2.70949e-14 0
-4.9738e-14 1.06581e-13 0
0 0 0

-2.723e-14 4.3243e-14 0
-2.84217e-14 -8.52651e-14 0
0 0 0

-2.92699e-14 2.99235e-15 0
-8.52651e-14 1.42109e-13 0
0 0 0

-2.723e-14 3.38803e-14 0
-2.13163e-14 -7.81597e-14 0
0 0 0

-3.65926e-14 4.3243e-14 0
-2.13163e-14 -1.06581e-13 0
0 0 0

-4.16876e-14 3.57619e-14 0
2.84217e-14 7.10543e-14 0
0 0 0

-3.65926e-14 3.38803e-14 0
1.42109e-14 -4.26326e-14 0
0 0 0

-4.16876e-14 3.24019e-14 0
-1.42109e-14 7.10543e-14 0
0 0 0

-4.24565e-15 -2.74411e-14 0
-2.84217e-14 5.68434e-14 0
0 0 0

-3.58148e-14 2.13918e-16 0
-3.55271e-15 2.4869e-14 0
0 0 0

-4.24565e-15 -2.53738e-14 0
-1.42109e-14 1.42109e-14 0
0 0 0

-3.58148e-14 -4.503e-14 0
-4.26326e-14 5.68434e-14 0
0 0 0

-8.10588e-14 2.13918e-16 0
-1.42109e-14 1.13687e-13 0
0 0 0

-6.73064e-14 3.69045e-14 0
-2.13163e-14 6.39488e-14 0
0 0 0

-8.10588e-14 -4.503e-14 0
-2.84217e-14 2.84217e-14 0
0 0 0

-6.73064e-14 7.46415e-14 0
-2.13163e-14 6.39488e-14 0
0 0 0

-2.95694e-14 3.69045e-14 0
-6.39488e-14 9.23706e-14 0
0 0 0

-2.8213e-14 2.24821e-14 0
-4.61853e-14 -1.03029e-13 0
0 0 0

-2.95694e-14 7.46415e-14 0
-1.42109e-14 1.27898e-13 0
0 0 0

-2.8213e-14 9.04811e-15 0
-7.10543e-14 -8.52651e-14 0
0 0 0

-4.1647e-14 2.24821e-14 0
-9.23706e-14 -7.81597e-14 0
0 0 0

-4.52175e-14 3.09416e-14 0
-7.10543e-14 9.9476e-14 0
0 0 0

-4.1647e-14 9.04811e-15 0
-7.10543e-14 -7.10543e-14 0
0 0 0

-4.52175e-14 3.1381e-14 0
-7.10543e-14 4.26326e-14 0
0 0 0

5.02126e-14 -1.72288e-14 0
2.91323e-13 6.39488e-14 0
0 0 0

2.12282e-14 -9.09271e-14 0
1.95399e-13 3.90799e-14 0
0 0 0

5.02126e-14 -3.00597e-15 0
2.98428e-13 5.68434e-14 0
0 0 0

2.12282e-14 -1.37477e-13 0
1.91847e-13 -1.63425e-13 0
0 0 0

-2.53219e-14 -9.09271e-14 0
4.9738e-14 -2.13163e-14 0
0 0 0

-2.47628e-14 1.03366e-13 0
2.13163e-14 6.39488e-14 0
0 0 0

-2.53219e-14 -1.37477e-13 0
2.84217e-14 -1.56319e-13 0
0 0 0

-2.47628e-14 1.23077e-13 0
-1.42109e-14 4.26326e-14 0
0 0 0

-5.05161e-15 1.03366e-13 0
-2.84217e-14 8.52651e-14 0
0 0 0

-2.03285e-14 -1.24194e-14 0
-1.42109e-14 -1.13687e-13 0
0 0 0

-5.05161e-15 1.23077e-13 0
0 9.9476e-14 0
0 0 0

-2.03285e-14 -4.19205e-14 0
-7.10543e-15 -6.39488e-14 0
0 0 0

-4.98296e-14 -1.24194e-14 0
-2.84217e-14 -8.52651e-14 0
0 0 0

-5.35939e-14 3.49501e-14 0
-2.84217e-14 4.26326e-14 0
0 0 0

-4.98296e-14 -4.19205e-14 0
-2.84217e-14 -5.68434e-14 0
0 0 0

-5.35939e-14 4.16489e-14 0
-3.55271e-14 6.39488e-14 0
0 0 0

SCALARS active double 1
LOOKUP_TABLE default
1
1
1
1
1
1
1
1
1
1
1
1
1
1
1
1
1
1
1
1
1
1
1
1
1
1
1
1
1
1
1
1
1
1
1
1
1
1
1
1
1
1
1
1
1
1
1
1
1
1
1
1
1
1
1
1
1
1
1
1
1
1
1
1
SCALARS extent double 1
LOOKUP_TABLE default
0.0125
0.0125
0.0125
0.0125
0.0125
0.0125
0.0125
0.0125
0.0125
0.0125
0.0125
0.0125
0.0125
0.0125
0.0125
0.0125
0.0125
0.0125
0.0125
0.0125
0.0125
0.0125
0.0125
0.0125
0.0125
0.0125
0.0125
0.0125
0.0125
0.0125
0.0125
0.0125
0.0125
0.0125
0.0125
0.0125
0.0125
0.0125
0.0125
0.0125
0.0125
0.0125
0.0125
0.0125
0.0125
0.0125
0.0125
0.0125
0.0125
0.0125
0.0125
0.0125
0.0125
0.0125
0.0125
0.0125
0.0125
0.0125
0.0125
0.0125
0.0125
0.0125
0.0125
0.0125
SCALARS pressure double 1
LOOKUP_TABLE default
1.32308e-11
-3.53041e-12
1.78313e-11
4.65055e-12
-5.84249e-11
-3.42441e-11
3.69844e-11
-9.10218e-12
-3.29793e-12
-1.45128e-11
1.05394e-11
-3.68817e-12
-8.7565e-11
1.52683e-11
-6.7807e-11
6.27548e-12
9.56966e-11
2.21342e-11
5.9065e-11
-7.48004e-13
5.63856e-11
-4.69584e-12
9.58566e-12
-1.6293e-11
3.24919e-11
-2.75861e-11
3.4891e-11
1.56941e-11
-6.07383e-11
3.14223e-11
-6.35104e-11
1.35061e-11
4.7123e-11
-4.08114e-11
8.91923e-11
-3.61893e-12
-1.36018e-11
3.84664e-11
3.13975e-11
-9.45129e-12
2.01355e-11
1.87274e-11
5.14404e-12
-1.42509e-11
-7.71372e-11
4.83669e-12
-3.98013e-11
3.0617e-11
-7.48115e-12
1.01051e-11
1.91792e-11
-1.46202e-12
3.25796e-11
2.47785e-11
-2.60159e-11
-2.99948e-11
1.77455e-11
-1.56885e-11
1.85775e-11
-2.19613e-11
-6.42855e-11
6.76757e-12
-7.95089e-11
-1.29689e-13
SCALARS density double 1
LOOKUP_TABLE default
1000
1000
1000
1000
1000
1000
1000
1000
1000
1000
1000
1000
1000
1000
1000
1000
1000
1000
1000
1000
1000
1000
1000
1000
1000
1000
1000
1000
1000
1000
1000
1000
1000
1000
1000
1000
1000
1000
1000
1000
1000
1000
1000
1000
1000
1000
1000
1000
1000
1000
1000
1000
1000
1000
1000
1000
1000
1000
1000
1000
1000
1000
1000
1000
