# vtk DataFile Version 3.0
Frame: 30, Time: 0.5
ASCII
DATASET UNSTRUCTURED_GRID
POINTS 64 double
0.967967 0.411016 0 
0.965258 0.384442 0 
0.946886 0.412004 0 
0.942333 0.384779 0 
0.962991 0.359748 0 
0.961278 0.334909 0 
0.939886 0.359088 0 
0.937084 0.333272 0 
0.957715 0.310658 0 
0.955145 0.28665 0 
0.932577 0.307644 0 
0.93148 0.282862 0 
0.956607 0.264516 0 
0.95947 0.244779 0 
0.933264 0.258029 0 
0.935591 0.232642 0 
0.922436 0.411727 0 
0.918927 0.386029 0 
0.897688 0.411493 0 
0.894585 0.385516 0 
0.916267 0.360077 0 
0.913648 0.334281 0 
0.891313 0.359866 0 
0.889716 0.332931 0 
0.908853 0.307495 0 
0.908499 0.281597 0 
0.885816 0.306276 0 
0.884906 0.28 0 
0.908855 0.254872 0 
0.908918 0.228359 0 
0.884624 0.253537 0 
0.883926 0.226597 0 
0.872716 0.410929 0 
0.868691 0.38573 0 
0.846915 0.410301 0 
0.843708 0.384495 0 
0.868072 0.35973 0 
0.865135 0.331641 0 
0.843725 0.35803 0 
0.840281 0.333178 0 
0.861197 0.304978 0 
0.860473 0.278914 0 
0.83718 0.306739 0 
0.835875 0.280896 0 
0.859253 0.252774 0 
0.857951 0.226986 0 
0.833362 0.254899 0 
0.830621 0.228314 0 
0.821534 0.409193 0 
0.81959 0.384046 0 
0.79471 0.410957 0 
0.79309 0.385961 0 
0.818303 0.358514 0 
0.814955 0.332599 0 
0.79217 0.360632 0 
0.789078 0.334973 0 
0.812237 0.306863 0 
0.810165 0.281525 0 
0.786208 0.31064 0 
0.783113 0.284824 0 
0.807094 0.256168 0 
0.805555 0.230263 0 
0.781022 0.258526 0 
0.781267 0.231799 0 
CELLS 64 128
1 0
1 1
1 2
1 3
1 4
1 5
1 6
1 7
1 8
1 9
1 10
1 11
1 12
1 13
1 14
1 15
1 16
1 17
1 18
1 19
1 20
1 21
1 22
1 23
1 24
1 25
1 26
1 27
1 28
1 29
1 30
1 31
1 32
1 33
1 34
1 35
1 36
1 37
1 38
1 39
1 40
1 41
1 42
1 43
1 44
1 45
1 46
1 47
1 48
1 49
1 50
1 51
1 52
1 53
1 54
1 55
1 56
1 57
1 58
1 59
1 60
1 61
1 62
1 63
CELL_TYPES 64
1
1
1
1
1
1
1
1
1
1
1
1
1
1
1
1
1
1
1
1
1
1
1
1
1
1
1
1
1
1
1
1
1
1
1
1
1
1
1
1
1
1
1
1
1
1
1
1
1
1
1
1
1
1
1
1
1
1
1
1
1
1
1
1
POINT_DATA 64
VECTORS displacement double
0.455467 -0.201484 0 
0.452758 -0.253058 0 
0.409386 -0.200496 0 
0.404833 -0.252721 0 
0.450491 -0.302752 0 
0.448778 -0.352591 0 
0.402386 -0.303412 0 
0.399584 -0.354228 0 
0.445215 -0.401842 0 
0.442645 -0.45085 0 
0.395077 -0.404856 0 
0.39398 -0.454638 0 
0.444107 -0.497984 0 
0.44697 -0.542721 0 
0.395764 -0.504471 0 
0.398091 -0.554858 0 
0.359936 -0.200773 0 
0.356427 -0.251471 0 
0.310188 -0.201007 0 
0.307085 -0.251984 0 
0.353767 -0.302423 0 
0.351148 -0.353219 0 
0.303813 -0.302634 0 
0.302216 -0.354569 0 
0.346353 -0.405005 0 
0.345999 -0.455903 0 
0.298316 -0.406224 0 
0.297406 -0.4575 0 
0.346355 -0.507628 0 
0.346418 -0.559141 0 
0.297124 -0.508963 0 
0.296426 -0.560903 0 
0.260216 -0.201571 0 
0.256191 -0.25177 0 
0.209415 -0.202199 0 
0.206208 -0.253005 0 
0.255572 -0.30277 0 
0.252635 -0.355859 0 
0.206225 -0.30447 0 
0.202781 -0.354322 0 
0.248697 -0.407522 0 
0.247973 -0.458586 0 
0.19968 -0.405761 0 
0.198375 -0.456604 0 
0.246753 -0.509726 0 
0.245451 -0.560514 0 
0.195862 -0.507601 0 
0.193121 -0.559186 0 
0.159034 -0.203307 0 
0.15709 -0.253454 0 
0.10721 -0.201543 0 
0.10559 -0.251539 0 
0.155803 -0.303986 0 
0.152455 -0.354901 0 
0.10467 -0.301868 0 
0.101578 -0.352527 0 
0.149737 -0.405637 0 
0.147665 -0.455975 0 
0.0987082 -0.40186 0 
0.0956132 -0.452676 0 
0.144594 -0.506332 0 
0.143055 -0.557237 0 
0.0935223 -0.503974 0 
0.0937675 -0.555701 0 
VECTORS velocity double
1.81652 -1.02374 0 
0.956495 -1.71826 0 
1.91635 0.241868 0 
0.453804 0.196104 0 
0.819131 -1.23165 0 
0.837644 -1.30746 0 
0.270515 0.318993 0 
0.436799 -0.356778 0 
0.972373 -1.01652 0 
0.358735 -0.850196 0 
0.428844 -0.149632 0 
-0.417324 -0.458809 0 
-0.0632511 -0.414967 0 
-0.142495 -0.891191 0 
-0.844269 -0.269214 0 
0.363443 -0.0872764 0 
2.60163 -0.243519 0 
1.27124 -0.413454 0 
2.77171 -0.0659234 0 
1.84931 -0.466569 0 
1.5081 0.0108943 0 
1.44196 -0.689087 0 
1.70037 -0.548529 0 
1.2262 -0.51802 0 
0.70751 -0.335842 0 
0.179995 -0.464854 0 
0.421583 -0.274875 0 
0.247372 -0.250114 0 
-0.0317907 -0.475092 0 
0.0148447 -0.304044 0 
0.544951 -0.146555 0 
-0.118381 0.037414 0 
3.09799 0.249816 0 
2.01497 -0.038952 0 
2.99676 0.518104 0 
1.68912 0.278329 0 
2.0503 -0.101279 0 
1.43014 0.485152 0 
1.86776 0.219763 0 
1.29869 0.663163 0 
0.876429 0.401667 0 
0.379697 0.0843563 0 
0.656041 0.0254016 0 
0.347658 0.0839768 0 
0.384718 0.27484 0 
-0.0722992 0.66634 0 
-0.0310497 0.54467 0 
-1.19733 0.729235 0 
3.50251 0.621561 0 
2.12113 0.0773668 0 
3.3201 1.79122 0 
1.88575 1.59472 0 
2.29598 0.42425 0 
1.55147 0.827906 0 
2.14528 1.8565 0 
1.29113 2.07974 0 
0.893078 0.687212 0 
0.833596 0.447485 0 
0.985562 2.01885 0 
0.93769 1.81763 0 
0.698897 0.546467 0 
-0.972461 0.390431 0 
-0.0954911 2.10761 0 
-0.908951 2.00572 0 
SCALARS mass double 1
LOOKUP_TABLE default
0.625
0.625
0.625
0.625
0.625
0.625
0.625
0.625
0.625
0.625
0.625
0.625
0.625
0.625
0.625
0.625
0.625
0.625
0.625
0.625
0.625
0.625
0.625
0.625
0.625
0.625
0.625
0.625
0.625
0.625
0.625
0.625
0.625
0.625
0.625
0.625
0.625
0.625
0.625
0.625
0.625
0.625
0.625
0.625
0.625
0.625
0.625
0.625
0.625
0.625
0.625
0.625
0.625
0.625
0.625
0.625
0.625
0.625
0.625
0.625
0.625
0.625
0.625
0.625
SCALARS volume double 1
LOOKUP_TABLE default
0.000428047
0.000448275
0.00060597
0.000613421
0.000468231
0.000474521
0.000588571
0.00060885
0.000509276
0.000512181
0.000598938
0.000549098
0.000510062
0.000482626
0.000563021
0.000643115
0.000598685
0.000583124
0.000631003
0.000614635
0.000585023
0.000594643
0.000619929
0.000618334
0.000572528
0.000578308
0.000615795
0.000645838
0.000609763
0.000641171
0.000636051
0.000610894
0.000622025
0.000619735
0.000631653
0.000619606
0.000611106
0.000640215
0.000621678
0.000627854
0.000603279
0.000597044
0.00060369
0.000598984
0.000641562
0.00063219
0.000663968
0.000636856
0.000629532
0.000615599
0.000634527
0.000616095
0.000624841
0.000608125
0.000626329
0.000621273
0.000635634
0.000641156
0.000633239
0.000630474
0.000632785
0.000630856
0.000648555
0.000626535
VECTORS momentum double
1.13533 -0.639841 0 
0.597809 -1.07391 0 
1.19772 0.151168 0 
0.283627 0.122565 0 
0.511957 -0.769784 0 
0.523528 -0.81716 0 
0.169072 0.19937 0 
0.272999 -0.222987 0 
0.607733 -0.635325 0 
0.22421 -0.531373 0 
0.268027 -0.0935201 0 
-0.260827 -0.286756 0 
-0.039532 -0.259354 0 
-0.0890592 -0.556994 0 
-0.527668 -0.168259 0 
0.227152 -0.0545478 0 
1.62602 -0.152199 0 
0.794526 -0.258409 0 
1.73232 -0.0412021 0 
1.15582 -0.291605 0 
0.942564 0.00680895 0 
0.901225 -0.430679 0 
1.06273 -0.342831 0 
0.766373 -0.323762 0 
0.442194 -0.209902 0 
0.112497 -0.290534 0 
0.263489 -0.171797 0 
0.154608 -0.156321 0 
-0.0198692 -0.296933 0 
0.00927795 -0.190027 0 
0.340595 -0.0915967 0 
-0.0739883 0.0233837 0 
1.93625 0.156135 0 
1.25936 -0.024345 0 
1.87297 0.323815 0 
1.0557 0.173956 0 
1.28144 -0.0632997 0 
0.893838 0.30322 0 
1.16735 0.137352 0 
0.811683 0.414477 0 
0.547768 0.251042 0 
0.23731 0.0527227 0 
0.410026 0.015876 0 
0.217286 0.0524855 0 
0.240449 0.171775 0 
-0.045187 0.416463 0 
-0.019406 0.340419 0 
-0.748329 0.455772 0 
2.18907 0.388476 0 
1.3257 0.0483542 0 
2.07506 1.11951 0 
1.17859 0.996703 0 
1.43499 0.265157 0 
0.96967 0.517441 0 
1.3408 1.16031 0 
0.806954 1.29983 0 
0.558174 0.429507 0 
0.520998 0.279678 0 
0.615976 1.26178 0 
0.586056 1.13602 0 
0.43681 0.341542 0 
-0.607788 0.244019 0 
-0.0596819 1.31726 0 
-0.568094 1.25358 0 
VECTORS body_force double
0 -9.81 0 
0 -9.81 0 
0 -9.81 0 
0 -9.81 0 
0 -9.81 0 
0 -9.81 0 
0 -9.81 0 
0 -9.81 0 
0 -9.81 0 
0 -9.81 0 
0 -9.81 0 
0 -9.81 0 
0 -9.81 0 
0 -9.81 0 
0 -9.81 0 
0 -9.81 0 
0 -9.81 0 
0 -9.81 0 
0 -9.81 0 
0 -9.81 0 
0 -9.81 0 
0 -9.81 0 
0 -9.81 0 
0 -9.81 0 
0 -9.81 0 
0 -9.81 0 
0 -9.81 0 
0 -9.81 0 
0 -9.81 0 
0 -9.81 0 
0 -9.81 0 
0 -9.81 0 
0 -9.81 0 
0 -9.81 0 
0 -9.81 0 
0 -9.81 0 
0 -9.81 0 
0 -9.81 0 
0 -9.81 0 
0 -9.81 0 
0 -9.81 0 
0 -9.81 0 
0 -9.81 0 
0 -9.81 0 
0 -9.81 0 
0 -9.81 0 
0 -9.81 0 
0 -9.81 0 
0 -9.81 0 
0 -9.81 0 
0 -9.81 0 
0 -9.81 0 
0 -9.81 0 
0 -9.81 0 
0 -9.81 0 
0 -9.81 0 
0 -9.81 0 
0 -9.81 0 
0 -9.81 0 
0 -9.81 0 
0 -9.81 0 
0 -9.81 0 
0 -9.81 0 
0 -9.81 0 
TENSORS cauchy_stress double
-54117.1 8291.5 0
8291.5 -18675.2 0
0 0 -21837.7

-44261.9 10762.9 0
10762.9 -19650.7 0
0 0 -19173.8

-8304.59 285.696 0
285.696 2358.22 0
0 0 -1783.91

-5697.84 6924.27 0
6924.27 2101.68 0
0 0 -1078.85

-37322.6 12897.7 0
12897.7 -18213.9 0
0 0 -16661

-32562.6 15325.4 0
15325.4 -20407.9 0
0 0 -15891.2

-8786.3 -1643.37 0
-1643.37 -2762.51 0
0 0 -3464.64

-3470.62 7014.48 0
7014.48 -1563.8 0
0 0 -1510.32

-25347.4 16304.7 0
16304.7 -14029.7 0
0 0 -11813.1

-22415.9 13436.2 0
13436.2 -15867.6 0
0 0 -11485

-3602 8116.8 0
8116.8 -4588.93 0
0 0 -2457.28

-16030.7 2821.67 0
2821.67 -8868.32 0
0 0 -7469.69

-26584.4 23344.1 0
23344.1 -12496.3 0
0 0 -11724.2

-45728.7 32089 0
32089 -3984.65 0
0 0 -14914

-12754.1 6173.69 0
6173.69 -7329.52 0
0 0 -6025.09

7618.64 -4250.69 0
-4250.69 -2124.01 0
0 0 1648.39

-4862.54 3265.71 0
3265.71 -3409.86 0
0 0 -2481.72

-10575.5 5851.27 0
5851.27 -2761.35 0
0 0 -4001.05

-232.425 2220.52 0
2220.52 2070.68 0
0 0 551.476

-284.242 4953.4 0
4953.4 -2931.62 0
0 0 -964.758

-7409.01 3013.98 0
3013.98 -5302.64 0
0 0 -3813.5

-8927.07 11056.4 0
11056.4 -647.939 0
0 0 -2872.5

-4227.75 4011.44 0
4011.44 2661.16 0
0 0 -469.979

-3752.41 5213.34 0
5213.34 1690.39 0
0 0 -618.607

-13624.4 9911.95 0
9911.95 -3238.99 0
0 0 -5059

-12566.8 -4355.44 0
-4355.44 -2365.1 0
0 0 -4479.56

-5640.13 6659.08 0
6659.08 2786.9 0
0 0 -855.967

995.035 564.522 0
564.522 5312.06 0
0 0 1892.13

-6772.69 6696.89 0
6696.89 2026.39 0
0 0 -1423.89

3503.82 960.429 0
960.429 1408.53 0
0 0 1473.71

-1230.59 4073.62 0
4073.62 4601.28 0
0 0 1011.2

-4597.81 -2807.19 0
-2807.19 207.783 0
0 0 -1317.01

-867.149 1120.9 0
1120.9 -50.2715 0
0 0 -275.226

-213.978 6073.34 0
6073.34 -1412.78 0
0 0 -488.028

-64.189 903.71 0
903.71 2100.31 0
0 0 610.836

-5041.5 3217.44 0
3217.44 3374.68 0
0 0 -500.044

-9903.26 -1419.24 0
-1419.24 5580.03 0
0 0 -1296.97

-1723.8 6605.42 0
6605.42 6349.11 0
0 0 1387.59

193.367 3551.2 0
3551.2 -1218.29 0
0 0 -307.476

3667.09 4913.63 0
4913.63 -2790.99 0
0 0 262.831

-6822.56 2902.97 0
2902.97 20.15 0
0 0 -2040.72

-7247.86 2741.76 0
2741.76 -1552.39 0
0 0 -2640.07

-7909.83 6797.24 0
6797.24 1238.6 0
0 0 -2001.37

-3778.61 -183.289 0
-183.289 -4397.53 0
0 0 -2452.84

2030.93 3386.18 0
3386.18 2998.58 0
0 0 1508.85

5250.02 -576.167 0
-576.167 -3050.35 0
0 0 659.902

4336.38 -1512.06 0
-1512.06 7294.86 0
0 0 3489.37

-450.017 -495.785 0
-495.785 4063.82 0
0 0 1084.14

2208.36 -2276.49 0
-2276.49 -819.034 0
0 0 416.798

-879.862 -1525.22 0
-1525.22 -2034.63 0
0 0 -874.348

1385.42 310.31 0
310.31 1523.79 0
0 0 872.763

314.392 2914.72 0
2914.72 -3074.24 0
0 0 -827.956

126.328 887.605 0
887.605 -175.313 0
0 0 -14.6954

-5885.47 362.339 0
362.339 621.916 0
0 0 -1579.07

2485.93 533.495 0
533.495 -2077.34 0
0 0 122.575

1486.86 2689.91 0
2689.91 -2637 0
0 0 -345.042

1103.89 -1776.94 0
-1776.94 2140.73 0
0 0 973.388

4470.11 1528.88 0
1528.88 437.918 0
0 0 1472.41

1550.63 2944.21 0
2944.21 967.802 0
0 0 755.53

2664.28 -81.6691 0
-81.6691 -987.174 0
0 0 503.132

3474.46 1165.15 0
1165.15 -1093.83 0
0 0 714.191

1410.58 3250.82 0
3250.82 382.831 0
0 0 538.023

2872.45 2146.52 0
2146.52 4241.86 0
0 0 2134.3

-995.786 -2048.29 0
-2048.29 1467.64 0
0 0 141.555

TENSORS velocity_gradient double
-28.4941 7.26411 0
6.88721 5.1344 0
0 0 0

-22.1497 9.03119 0
9.67865 2.43012 0
0 0 0

-17.8066 10.8299 0
-2.09795 6.95869 0
0 0 0

-15.4676 13.1363 0
-5.20399 3.30414 0
0 0 0

-15.8938 9.5594 0
11.362 2.57225 0
0 0 0

-11.9333 3.68441 0
12.1445 0.231954 0
0 0 0

-14.242 13.2387 0
-5.5366 3.27634 0
0 0 0

-9.98434 7.89916 0
-5.94619 0.0559831 0
0 0 0

-9.65796 4.01418 0
12.2877 0.252715 0
0 0 0

-5.048 11.3725 0
9.75154 -2.37368 0
0 0 0

-3.96938 8.91238 0
-6.39745 -0.0200319 0
0 0 0

-3.13792 11.6347 0
-5.99215 -2.07845 0
0 0 0

0.395733 11.1472 0
10.4647 -2.33938 0
0 0 0

2.40864 -9.52788 0
9.33163 -2.59738 0
0 0 0

-4.74555 11.7694 0
-5.17406 -2.14699 0
0 0 0

-0.398351 -10.7459 0
-5.13875 -3.48355 0
0 0 0

-16.1628 10.9858 0
-3.47056 3.98852 0
0 0 0

-15.5213 14.2743 0
-5.18941 2.99527 0
0 0 0

-9.25072 11.0911 0
-8.13488 1.46573 0
0 0 0

-7.36279 15.3859 0
-9.37275 2.48499 0
0 0 0

-14.2829 14.3855 0
-5.52551 2.9651 0
0 0 0

-10.1879 13.4521 0
-5.93091 -0.36062 0
0 0 0

-6.37359 15.4977 0
-10.367 2.3726 0
0 0 0

-5.47377 16.77 0
-10.6663 -0.522054 0
0 0 0

-3.89878 14.4957 0
-6.40275 -0.438915 0
0 0 0

-3.22868 10.1456 0
-5.94596 -1.32068 0
0 0 0

-4.66432 16.8752 0
-10.5225 -0.503376 0
0 0 0

-2.79656 10.9195 0
-10.9818 -1.43629 0
0 0 0

-4.7659 9.03062 0
-5.09159 -1.56155 0
0 0 0

0.878424 -3.06386 0
-5.20204 -3.86435 0
0 0 0

-0.392945 9.20001 0
-11.5905 -1.93861 0
0 0 0

4.79317 2.94774 0
-11.4418 -3.79385 0
0 0 0

-8.16651 11.6527 0
-8.84525 1.42278 0
0 0 0

-7.36161 16.3931 0
-9.37393 1.47252 0
0 0 0

-3.71887 12.6559 0
-15.9662 1.52792 0
0 0 0

-2.47437 17.1153 0
-16.8586 0.470175 0
0 0 0

-6.35902 16.4006 0
-10.3817 1.46498 0
0 0 0

-5.42669 17.5184 0
-10.6579 -0.389119 0
0 0 0

-2.21769 17.1107 0
-17.972 0.490017 0
0 0 0

-2.22323 17.8879 0
-17.7609 0.0288554 0
0 0 0

-4.57949 17.1019 0
-10.5352 -0.556257 0
0 0 0

-2.68239 12.9783 0
-11.0155 -2.04395 0
0 0 0

-2.34594 17.8757 0
-16.9412 0.110361 0
0 0 0

-0.700102 15.0714 0
-15.162 -1.111 0
0 0 0

-0.23411 11.6399 0
-11.5971 -2.48923 0
0 0 0

4.77302 8.52619 0
-11.443 -3.4773 0
0 0 0

1.60466 14.9209 0
-13.0928 -1.20554 0
0 0 0

5.64757 13.4801 0
-11.7728 -2.58113 0
0 0 0

-3.38931 14.9392 0
-16.2625 1.74751 0
0 0 0

-2.46605 17.3498 0
-16.8947 -0.547149 0
0 0 0

-0.217141 16.6112 0
-15.3276 0.744236 0
0 0 0

-0.211109 17.5428 0
-17.1973 -1.55694 0
0 0 0

-2.21795 17.358 0
-17.9709 -0.582713 0
0 0 0

-2.228 17.7704 0
-17.729 0.8139 0
0 0 0

-0.142265 17.5441 0
-17.968 -1.57136 0
0 0 0

-1.18217 16.9001 0
-18.36 1.15091 0
0 0 0

-2.33497 17.7461 0
-16.9251 0.883002 0
0 0 0

-0.7205 17.2698 0
-15.1813 0.969449 0
0 0 0

-2.76704 16.7397 0
-18.5216 1.13456 0
0 0 0

-1.67873 19.8818 0
-19.4173 0.868116 0
0 0 0

1.4874 17.4941 0
-13.1496 0.964129 0
0 0 0

5.29012 17.6484 0
-12.0341 -1.53463 0
0 0 0

1.01011 20.0419 0
-20.7426 0.789213 0
0 0 0

2.17579 19.0764 0
-19.6146 0.0985097 0
0 0 0

SCALARS active double 1
LOOKUP_TABLE default
1
1
1
1
1
1
1
1
1
1
1
1
1
1
1
1
1
1
1
1
1
1
1
1
1
1
1
1
1
1
1
1
1
1
1
1
1
1
1
1
1
1
1
1
1
1
1
1
1
1
1
1
1
1
1
1
1
1
1
1
1
1
1
1
SCALARS extent double 1
LOOKUP_TABLE default
0.0125
0.0125
0.0125
0.0125
0.0125
0.0125
0.0125
0.0125
0.0125
0.0125
0.0125
0.0125
0.0125
0.0125
0.0125
0.0125
0.0125
0.0125
0.0125
0.0125
0.0125
0.0125
0.0125
0.0125
0.0125
0.0125
0.0125
0.0125
0.0125
0.0125
0.0125
0.0125
0.0125
0.0125
0.0125
0.0125
0.0125
0.0125
0.0125
0.0125
0.0125
0.0125
0.0125
0.0125
0.0125
0.0125
0.0125
0.0125
0.0125
0.0125
0.0125
0.0125
0.0125
0.0125
0.0125
0.0125
0.0125
0.0125
0.0125
0.0125
0.0125
0.0125
0.0125
0.0125
SCALARS pressure double 1
LOOKUP_TABLE default
31543.3
27695.4
2576.76
1558.34
24065.8
22953.9
5004.49
2181.58
17063.4
16589.5
3549.41
10789.6
16935
21542.5
8702.91
-2381
3584.71
5779.29
-796.576
1393.54
5508.38
4149.17
678.859
893.544
7307.45
6470.47
1236.4
-2733.08
2056.73
-2128.69
-1460.63
1902.35
397.549
704.93
-882.319
722.286
1873.4
-2004.3
444.132
-379.645
2947.71
3813.44
2890.86
3543
-2179.45
-953.191
-5040.21
-1565.98
-602.041
1262.95
-1260.66
1195.94
21.2266
2280.87
-177.053
498.394
-1406
-2126.81
-1091.32
-726.747
-1031.61
-777.145
-3082.87
-204.469
SCALARS density double 1
LOOKUP_TABLE default
1460.12
1394.23
1031.4
1018.88
1334.81
1317.12
1061.89
1026.52
1227.23
1220.27
1043.51
1138.23
1225.34
1295
1110.08
971.832
1043.96
1071.81
990.487
1016.86
1068.33
1051.05
1008.18
1010.78
1091.65
1080.74
1014.95
967.735
1024.99
974.779
982.625
1023.09
1004.78
1008.5
989.468
1008.71
1022.74
976.235
1005.34
995.455
1036.01
1046.82
1035.3
1043.43
974.186
988.627
941.31
981.384
992.802
1015.27
984.986
1014.45
1000.25
1027.75
997.878
1006
983.269
974.801
986.99
991.317
987.697
990.718
963.681
997.549
