# vtk DataFile Version 3.0
Frame: 4, Time: 0.067
ASCII
DATASET UNSTRUCTURED_GRID
POINTS 64 double
0.4125 0.389486 0 
0.4125 0.414486 0 
0.4375 0.389486 0 
0.4375 0.414486 0 
0.4125 0.439486 0 
0.4125 0.464486 0 
0.4375 0.439486 0 
0.4375 0.464486 0 
0.4125 0.489486 0 
0.4125 0.514486 0 
0.4375 0.489486 0 
0.4375 0.514486 0 
0.4125 0.539486 0 
0.4125 0.564486 0 
0.4375 0.539486 0 
0.4375 0.564486 0 
0.4625 0.389486 0 
0.4625 0.414486 0 
0.4875 0.389486 0 
0.4875 0.414486 0 
0.4625 0.439486 0 
0.4625 0.464486 0 
0.4875 0.439486 0 
0.4875 0.464486 0 
0.4625 0.489486 0 
0.4625 0.514486 0 
0.4875 0.489486 0 
0.4875 0.514486 0 
0.4625 0.539486 0 
0.4625 0.564486 0 
0.4875 0.539486 0 
0.4875 0.564486 0 
0.5125 0.389486 0 
0.5125 0.414486 0 
0.5375 0.389486 0 
0.5375 0.414486 0 
0.5125 0.439486 0 
0.5125 0.464486 0 
0.5375 0.439486 0 
0.5375 0.464486 0 
0.5125 0.489486 0 
0.5125 0.514486 0 
0.5375 0.489486 0 
0.5375 0.514486 0 
0.5125 0.539486 0 
0.5125 0.564486 0 
0.5375 0.539486 0 
0.5375 0.564486 0 
0.5625 0.389486 0 
0.5625 0.414486 0 
0.5875 0.389486 0 
0.5875 0.414486 0 
0.5625 0.439486 0 
0.5625 0.464486 0 
0.5875 0.439486 0 
0.5875 0.464486 0 
0.5625 0.489486 0 
0.5625 0.514486 0 
0.5875 0.489486 0 
0.5875 0.514486 0 
0.5625 0.539486 0 
0.5625 0.564486 0 
0.5875 0.539486 0 
0.5875 0.564486 0 
CELLS 64 128
1 0
1 1
1 2
1 3
1 4
1 5
1 6
1 7
1 8
1 9
1 10
1 11
1 12
1 13
1 14
1 15
1 16
1 17
1 18
1 19
1 20
1 21
1 22
1 23
1 24
1 25
1 26
1 27
1 28
1 29
1 30
1 31
1 32
1 33
1 34
1 35
1 36
1 37
1 38
1 39
1 40
1 41
1 42
1 43
1 44
1 45
1 46
1 47
1 48
1 49
1 50
1 51
1 52
1 53
1 54
1 55
1 56
1 57
1 58
1 59
1 60
1 61
1 62
1 63
CELL_TYPES 64
1
1
1
1
1
1
1
1
1
1
1
1
1
1
1
1
1
1
1
1
1
1
1
1
1
1
1
1
1
1
1
1
1
1
1
1
1
1
1
1
1
1
1
1
1
1
1
1
1
1
1
1
1
1
1
1
1
1
1
1
1
1
1
1
POINT_DATA 64
VECTORS displacement double
6.70536e-20 -0.0230143 0 
-4.30381e-18 -0.0230143 0 
-5.5075e-19 -0.0230143 0 
-3.19993e-18 -0.0230143 0 
-9.18263e-18 -0.0230143 0 
-6.6702e-18 -0.0230143 0 
-6.09242e-18 -0.0230143 0 
-5.75519e-18 -0.0230143 0 
-2.40955e-18 -0.0230143 0 
-3.58766e-18 -0.0230143 0 
-4.55522e-18 -0.0230143 0 
-5.15371e-18 -0.0230143 0 
-5.27484e-18 -0.0230143 0 
-4.06842e-18 -0.0230143 0 
-5.66702e-18 -0.0230143 0 
-4.04599e-18 -0.0230143 0 
-5.45279e-19 -0.0230143 0 
-2.08363e-18 -0.0230143 0 
8.34661e-20 -0.0230143 0 
-9.54906e-19 -0.0230143 0 
-3.77994e-18 -0.0230143 0 
-4.9293e-18 -0.0230143 0 
-2.24519e-18 -0.0230143 0 
-4.19253e-18 -0.0230143 0 
-5.85427e-18 -0.0230143 0 
-6.38903e-18 -0.0230143 0 
-6.3067e-18 -0.0230143 0 
-7.29364e-18 -0.0230143 0 
-6.42056e-18 -0.0230143 0 
-4.28535e-18 -0.0230143 0 
-7.53547e-18 -0.0230143 0 
-4.78652e-18 -0.0230143 0 
8.57326e-19 -0.0230143 0 
3.07005e-19 -0.0230143 0 
1.7763e-18 -0.0230143 0 
1.7021e-18 -0.0230143 0 
-4.63307e-19 -0.0230143 0 
-2.81176e-18 -0.0230143 0 
1.5657e-18 -0.0230143 0 
-7.86971e-19 -0.0230143 0 
-5.59607e-18 -0.0230143 0 
-7.21301e-18 -0.0230143 0 
-3.72238e-18 -0.0230143 0 
-6.14714e-18 -0.0230143 0 
-8.22536e-18 -0.0230143 0 
-6.30566e-18 -0.0230143 0 
-8.49022e-18 -0.0230143 0 
-8.84278e-18 -0.0230143 0 
2.17848e-18 -0.0230143 0 
3.18419e-18 -0.0230143 0 
2.06388e-18 -0.0230143 0 
4.75326e-18 -0.0230143 0 
4.3681e-18 -0.0230143 0 
1.58858e-18 -0.0230143 0 
7.94388e-18 -0.0230143 0 
4.3149e-18 -0.0230143 0 
-2.18373e-18 -0.0230143 0 
-5.18822e-18 -0.0230143 0 
-9.80119e-19 -0.0230143 0 
-4.33625e-18 -0.0230143 0 
-8.49656e-18 -0.0230143 0 
-1.09325e-17 -0.0230143 0 
-8.24439e-18 -0.0230143 0 
-1.25748e-17 -0.0230143 0 
VECTORS velocity double
-1.92582e-16 -0.66708 0 
-1.20006e-15 -0.66708 0 
-6.12458e-16 -0.66708 0 
-9.29174e-16 -0.66708 0 
-2.61316e-15 -0.66708 0 
-1.84059e-15 -0.66708 0 
-1.35795e-15 -0.66708 0 
-1.17969e-15 -0.66708 0 
-7.46128e-16 -0.66708 0 
-5.00158e-16 -0.66708 0 
-8.98493e-16 -0.66708 0 
-6.65887e-16 -0.66708 0 
9.86329e-18 -0.66708 0 
4.58079e-16 -0.66708 0 
-2.59001e-16 -0.66708 0 
1.99349e-16 -0.66708 0 
-6.90724e-16 -0.66708 0 
-6.3935e-16 -0.66708 0 
-4.27378e-16 -0.66708 0 
-3.30581e-16 -0.66708 0 
-6.01193e-16 -0.66708 0 
-7.3608e-16 -0.66708 0 
-3.42882e-16 -0.66708 0 
-5.09772e-16 -0.66708 0 
-8.89326e-16 -0.66708 0 
-7.61991e-16 -0.66708 0 
-7.18628e-16 -0.66708 0 
-7.88469e-16 -0.66708 0 
-4.95501e-16 -0.66708 0 
1.6705e-16 -0.66708 0 
-6.99636e-16 -0.66708 0 
3.61181e-16 -0.66708 0 
-1.28743e-16 -0.66708 0 
-4.90025e-17 -0.66708 0 
2.05181e-16 -0.66708 0 
2.05385e-16 -0.66708 0 
-7.88754e-17 -0.66708 0 
-2.18784e-16 -0.66708 0 
1.90828e-16 -0.66708 0 
1.36884e-16 -0.66708 0 
-3.96125e-16 -0.66708 0 
-6.21839e-16 -0.66708 0 
7.81807e-17 -0.66708 0 
-2.621e-16 -0.66708 0 
-7.50937e-16 -0.66708 0 
1.73443e-16 -0.66708 0 
-6.49405e-16 -0.66708 0 
-3.96166e-16 -0.66708 0 
1.92605e-16 -0.66708 0 
4.74767e-16 -0.66708 0 
-1.6647e-16 -0.66708 0 
7.59144e-16 -0.66708 0 
9.122e-16 -0.66708 0 
7.82848e-16 -0.66708 0 
2.08524e-15 -0.66708 0 
1.71911e-15 -0.66708 0 
5.67505e-16 -0.66708 0 
9.51754e-17 -0.66708 0 
1.07185e-15 -0.66708 0 
4.49988e-16 -0.66708 0 
-5.86559e-16 -0.66708 0 
-9.69383e-16 -0.66708 0 
-5.62398e-16 -0.66708 0 
-1.54621e-15 -0.66708 0 
SCALARS mass double 1
LOOKUP_TABLE default
0.625
0.625
0.625
0.625
0.625
0.625
0.625
0.625
0.625
0.625
0.625
0.625
0.625
0.625
0.625
0.625
0.625
0.625
0.625
0.625
0.625
0.625
0.625
0.625
0.625
0.625
0.625
0.625
0.625
0.625
0.625
0.625
0.625
0.625
0.625
0.625
0.625
0.625
0.625
0.625
0.625
0.625
0.625
0.625
0.625
0.625
0.625
0.625
0.625
0.625
0.625
0.625
0.625
0.625
0.625
0.625
0.625
0.625
0.625
0.625
0.625
0.625
0.625
0.625
SCALARS volume double 1
LOOKUP_TABLE default
0.000625
0.000625
0.000625
0.000625
0.000625
0.000625
0.000625
0.000625
0.000625
0.000625
0.000625
0.000625
0.000625
0.000625
0.000625
0.000625
0.000625
0.000625
0.000625
0.000625
0.000625
0.000625
0.000625
0.000625
0.000625
0.000625
0.000625
0.000625
0.000625
0.000625
0.000625
0.000625
0.000625
0.000625
0.000625
0.000625
0.000625
0.000625
0.000625
0.000625
0.000625
0.000625
0.000625
0.000625
0.000625
0.000625
0.000625
0.000625
0.000625
0.000625
0.000625
0.000625
0.000625
0.000625
0.000625
0.000625
0.000625
0.000625
0.000625
0.000625
0.000625
0.000625
0.000625
0.000625
VECTORS momentum double
-1.20364e-16 -0.416925 0 
-7.50035e-16 -0.416925 0 
-3.82786e-16 -0.416925 0 
-5.80734e-16 -0.416925 0 
-1.63323e-15 -0.416925 0 
-1.15037e-15 -0.416925 0 
-8.48721e-16 -0.416925 0 
-7.37303e-16 -0.416925 0 
-4.6633e-16 -0.416925 0 
-3.12599e-16 -0.416925 0 
-5.61558e-16 -0.416925 0 
-4.16179e-16 -0.416925 0 
6.16456e-18 -0.416925 0 
2.863e-16 -0.416925 0 
-1.61876e-16 -0.416925 0 
1.24593e-16 -0.416925 0 
-4.31702e-16 -0.416925 0 
-3.99593e-16 -0.416925 0 
-2.67111e-16 -0.416925 0 
-2.06613e-16 -0.416925 0 
-3.75746e-16 -0.416925 0 
-4.6005e-16 -0.416925 0 
-2.14301e-16 -0.416925 0 
-3.18608e-16 -0.416925 0 
-5.55829e-16 -0.416925 0 
-4.76244e-16 -0.416925 0 
-4.49142e-16 -0.416925 0 
-4.92793e-16 -0.416925 0 
-3.09688e-16 -0.416925 0 
1.04406e-16 -0.416925 0 
-4.37272e-16 -0.416925 0 
2.25738e-16 -0.416925 0 
-8.04647e-17 -0.416925 0 
-3.06266e-17 -0.416925 0 
1.28238e-16 -0.416925 0 
1.28366e-16 -0.416925 0 
-4.92971e-17 -0.416925 0 
-1.3674e-16 -0.416925 0 
1.19268e-16 -0.416925 0 
8.55523e-17 -0.416925 0 
-2.47578e-16 -0.416925 0 
-3.88649e-16 -0.416925 0 
4.8863e-17 -0.416925 0 
-1.63813e-16 -0.416925 0 
-4.69336e-16 -0.416925 0 
1.08402e-16 -0.416925 0 
-4.05878e-16 -0.416925 0 
-2.47604e-16 -0.416925 0 
1.20378e-16 -0.416925 0 
2.9673e-16 -0.416925 0 
-1.04044e-16 -0.416925 0 
4.74465e-16 -0.416925 0 
5.70125e-16 -0.416925 0 
4.8928e-16 -0.416925 0 
1.30328e-15 -0.416925 0 
1.07444e-15 -0.416925 0 
3.54691e-16 -0.416925 0 
5.94846e-17 -0.416925 0 
6.69905e-16 -0.416925 0 
2.81242e-16 -0.416925 0 
-3.66599e-16 -0.416925 0 
-6.05864e-16 -0.416925 0 
-3.51498e-16 -0.416925 0 
-9.66381e-16 -0.416925 0 
VECTORS body_force double
0 -9.81 0 
0 -9.81 0 
0 -9.81 0 
0 -9.81 0 
0 -9.81 0 
0 -9.81 0 
0 -9.81 0 
0 -9.81 0 
0 -9.81 0 
0 -9.81 0 
0 -9.81 0 
0 -9.81 0 
0 -9.81 0 
0 -9.81 0 
0 -9.81 0 
0 -9.81 0 
0 -9.81 0 
0 -9.81 0 
0 -9.81 0 
0 -9.81 0 
0 -9.81 0 
0 -9.81 0 
0 -9.81 0 
0 -9.81 0 
0 -9.81 0 
0 -9.81 0 
0 -9.81 0 
0 -9.81 0 
0 -9.81 0 
0 -9.81 0 
0 -9.81 0 
0 -9.81 0 
0 -9.81 0 
0 -9.81 0 
0 -9.81 0 
0 -9.81 0 
0 -9.81 0 
0 -9.81 0 
0 -9.81 0 
0 -9.81 0 
0 -9.81 0 
0 -9.81 0 
0 -9.81 0 
0 -9.81 0 
0 -9.81 0 
0 -9.81 0 
0 -9.81 0 
0 -9.81 0 
0 -9.81 0 
0 -9.81 0 
0 -9.81 0 
0 -9.81 0 
0 -9.81 0 
0 -9.81 0 
0 -9.81 0 
0 -9.81 0 
0 -9.81 0 
0 -9.81 0 
0 -9.81 0 
0 -9.81 0 
0 -9.81 0 
0 -9.81 0 
0 -9.81 0 
0 -9.81 0 
TENSORS cauchy_stress double
-2.06082e-12 -2.06036e-12 0
-2.06036e-12 1.52787e-12 0
0 0 -1.59887e-13

8.82148e-12 -7.41659e-12 0
-7.41659e-12 9.2616e-12 0
0 0 5.42492e-12

-1.00958e-12 -2.07763e-12 0
-2.07763e-12 3.98076e-12 0
0 0 8.91356e-13

2.88232e-12 -4.64054e-12 0
-4.64054e-12 -4.59644e-12 0
0 0 -5.14236e-13

6.97465e-12 -7.15399e-12 0
-7.15399e-12 -1.54203e-11 0
0 0 -2.53369e-12

-3.67528e-11 6.60879e-12 0
6.60879e-12 -9.51413e-11 0
0 0 -3.95682e-11

3.59635e-12 -4.8813e-12 0
-4.8813e-12 -2.3303e-11 0
0 0 -5.912e-12

-4.021e-11 1.56543e-12 0
1.56543e-12 -1.03208e-10 0
0 0 -4.30254e-11

1.05437e-11 2.11546e-12 0
2.11546e-12 4.66088e-11 0
0 0 1.71458e-11

-6.53981e-12 -4.93548e-12 0
-4.93548e-12 8.02399e-13 0
0 0 -1.72122e-12

1.1661e-11 2.52859e-13 0
2.52859e-13 4.92159e-11 0
0 0 1.82631e-11

-6.51419e-12 -2.15383e-12 0
-2.15383e-12 8.6218e-13 0
0 0 -1.6956e-12

6.4091e-12 6.57034e-13 0
6.57034e-13 1.89769e-11 0
0 0 7.6158e-12

1.84377e-12 2.84185e-12 0
2.84185e-12 4.07206e-12 0
0 0 1.77475e-12

8.28621e-12 1.72445e-12 0
1.72445e-12 2.33568e-11 0
0 0 9.49291e-12

-1.90323e-12 2.38498e-12 0
2.38498e-12 -4.67095e-12 0
0 0 -1.97226e-12

3.05849e-12 -1.45468e-12 0
-1.45468e-12 6.87806e-13 0
0 0 1.12389e-12

4.45564e-12 -4.9459e-12 0
-4.9459e-12 -1.18016e-12 0
0 0 9.82645e-13

4.92198e-12 -2.55633e-12 0
-2.55633e-12 5.03596e-12 0
0 0 2.98738e-12

4.50528e-12 -2.3524e-12 0
-2.3524e-12 -1.06433e-12 0
0 0 1.03228e-12

-2.66951e-12 -4.40559e-12 0
-4.40559e-12 -2.19699e-11 0
0 0 -7.39183e-12

-4.50161e-11 -5.56967e-12 0
-5.56967e-12 -1.12594e-10 0
0 0 -4.7283e-11

-5.0274e-12 -2.12212e-12 0
-2.12212e-12 -2.74716e-11 0
0 0 -9.74971e-12

-4.12402e-11 -4.83761e-12 0
-4.83761e-12 -1.03784e-10 0
0 0 -4.35072e-11

1.79138e-11 -5.43855e-12 0
-5.43855e-12 4.64391e-11 0
0 0 1.93058e-11

-4.05113e-12 -7.242e-12 0
-7.242e-12 -1.74566e-13 0
0 0 -1.26771e-12

1.65927e-11 -8.5379e-12 0
-8.5379e-12 4.33566e-11 0
0 0 1.79848e-11

-9.70686e-12 -8.76894e-12 0
-8.76894e-12 -1.33713e-11 0
0 0 -6.92344e-12

7.33228e-13 -8.6541e-12 0
-8.6541e-12 1.31459e-11 0
0 0 4.16373e-12

-2.13173e-12 -4.32734e-12 0
-4.32734e-12 1.66123e-13 0
0 0 -5.89683e-13

3.20898e-13 -7.85596e-12 0
-7.85596e-12 1.21838e-11 0
0 0 3.7514e-12

-8.15477e-13 -2.17259e-12 0
-2.17259e-12 3.23738e-12 0
0 0 7.26572e-13

2.84824e-12 9.23765e-13 0
9.23765e-13 -2.77949e-12 0
0 0 2.0625e-14

5.16619e-12 -1.47162e-12 0
-1.47162e-12 -2.25426e-12 0
0 0 8.73577e-13

5.58483e-12 7.00312e-13 0
7.00312e-13 3.6059e-12 0
0 0 2.75722e-12

2.47763e-12 9.95086e-13 0
9.95086e-13 -8.52756e-12 0
0 0 -1.81498e-12

-2.67106e-12 -2.46412e-12 0
-2.46412e-12 -2.70428e-11 0
0 0 -8.91416e-12

-3.52943e-11 -4.46785e-12 0
-4.46785e-12 -1.0312e-10 0
0 0 -4.15244e-11

-2.54215e-12 -5.13512e-13 0
-5.13512e-13 -2.67421e-11 0
0 0 -8.78526e-12

-3.63576e-11 -4.24476e-12 0
-4.24476e-12 -1.05601e-10 0
0 0 -4.25877e-11

2.18309e-11 -4.1625e-12 0
-4.1625e-12 3.17215e-11 0
0 0 1.60657e-11

-4.89962e-12 -4.59738e-12 0
-4.59738e-12 -2.23645e-11 0
0 0 -8.17922e-12

2.29987e-11 -5.27019e-12 0
-5.27019e-12 3.44462e-11 0
0 0 1.72335e-11

-7.2535e-12 -7.23654e-12 0
-7.23654e-12 -2.78569e-11 0
0 0 -1.05331e-11

1.08344e-12 -5.91712e-12 0
-5.91712e-12 5.24454e-12 0
0 0 1.89839e-12

-1.1876e-11 -2.03857e-12 0
-2.03857e-12 -1.68889e-12 0
0 0 -4.06946e-12

-1.18518e-12 -8.41192e-12 0
-8.41192e-12 -4.89004e-14 0
0 0 -3.70225e-13

-8.91842e-12 -3.91567e-12 0
-3.91567e-12 5.21211e-12 0
0 0 -1.11189e-12

-4.35364e-13 1.23826e-12 0
1.23826e-12 1.59598e-13 0
0 0 -8.27299e-14

5.45606e-12 2.403e-12 0
2.403e-12 -3.36226e-12 0
0 0 6.28141e-13

-9.50176e-13 1.17919e-12 0
1.17919e-12 -1.04163e-12 0
0 0 -5.97542e-13

4.70826e-12 6.42654e-12 0
6.42654e-12 -5.10712e-12 0
0 0 -1.19658e-13

9.16373e-12 3.39483e-12 0
3.39483e-12 -1.52927e-11 0
0 0 -1.83868e-12

-3.47594e-11 -3.85322e-12 0
-3.85322e-12 -1.09068e-10 0
0 0 -4.31481e-11

8.67214e-12 5.11624e-12 0
5.11624e-12 -1.64397e-11 0
0 0 -2.33027e-12

-3.42038e-11 -6.78296e-12 0
-6.78296e-12 -1.07771e-10 0
0 0 -4.25925e-11

1.77544e-11 -1.60763e-12 0
-1.60763e-12 2.90822e-11 0
0 0 1.4051e-11

-7.60462e-12 4.17001e-13 0
4.17001e-13 -2.64823e-11 0
0 0 -1.02261e-11

2.50903e-11 -3.5191e-12 0
-3.5191e-12 4.61993e-11 0
0 0 2.13869e-11

-1.86562e-12 -1.54003e-13 0
-1.54003e-13 -1.30913e-11 0
0 0 -4.48708e-12

4.38991e-12 2.98773e-12 0
2.98773e-12 7.65668e-12 0
0 0 3.61398e-12

-6.68138e-12 5.84108e-12 0
5.84108e-12 1.25414e-12 0
0 0 -1.62817e-12

5.85909e-12 1.63729e-12 0
1.63729e-12 1.10848e-11 0
0 0 5.08316e-12

-9.23062e-12 1.78089e-12 0
1.78089e-12 -4.69409e-12 0
0 0 -4.17741e-12

TENSORS velocity_gradient double
1.26439e-15 -5.2039e-15 0
1.06581e-14 0 0
0 0 0

6.49231e-15 -1.65003e-14 0
8.88178e-16 -2.04281e-14 0
0 0 0

1.26439e-15 -3.64772e-15 0
3.55271e-15 1.77636e-14 0
0 0 0

6.49231e-15 -8.88624e-15 0
7.10543e-15 -2.4869e-14 0
0 0 0

1.41064e-14 -1.65003e-14 0
1.06581e-14 -2.13163e-14 0
0 0 0

1.25823e-14 1.52939e-14 0
-8.88178e-16 -1.15463e-14 0
0 0 0

1.41064e-14 -8.88624e-15 0
1.06581e-14 -1.77636e-14 0
0 0 0

1.25823e-14 7.83139e-15 0
3.55271e-15 -1.06581e-14 0
0 0 0

5.11982e-15 1.52939e-14 0
1.42109e-14 -1.42109e-14 0
0 0 0

-8.23155e-16 1.89955e-14 0
1.15463e-14 -2.66454e-15 0
0 0 0

5.11982e-15 7.83139e-15 0
3.55271e-15 -3.55271e-15 0
0 0 0

-8.23155e-16 1.404e-14 0
-7.10543e-15 -3.55271e-15 0
0 0 0

-5.77865e-15 1.89955e-14 0
1.77636e-15 -1.24345e-14 0
0 0 0

-4.98242e-15 1.85357e-15 0
3.55271e-15 1.06581e-14 0
0 0 0

-5.77865e-15 1.404e-14 0
3.55271e-15 -7.10543e-15 0
0 0 0

-4.98242e-15 6.38761e-15 0
-1.06581e-14 -3.55271e-15 0
0 0 0

8.92103e-15 -1.84256e-15 0
-5.32907e-15 8.88178e-15 0
0 0 0

1.10695e-14 -3.97431e-15 0
-2.66454e-15 -1.68754e-14 0
0 0 0

8.92103e-15 2.11602e-16 0
-3.55271e-15 1.06581e-14 0
0 0 0

1.10695e-14 -1.76448e-15 0
-5.32907e-15 -2.30926e-14 0
0 0 0

1.32794e-14 -3.97431e-15 0
-5.32907e-15 -1.24345e-14 0
0 0 0

1.11861e-14 1.65529e-15 0
-7.99361e-15 -1.86517e-14 0
0 0 0

1.32794e-14 -1.76448e-15 0
0 -2.13163e-14 0
0 0 0

1.11861e-14 -3.23443e-15 0
-1.06581e-14 -1.06581e-14 0
0 0 0

6.29635e-15 1.65529e-15 0
-7.10543e-15 -3.55271e-15 0
0 0 0

2.23897e-15 9.80406e-15 0
3.55271e-15 -7.10543e-15 0
0 0 0

6.29635e-15 -3.23443e-15 0
-3.55271e-15 3.55271e-15 0
0 0 0

2.23897e-15 6.28759e-15 0
-3.55271e-15 3.55271e-15 0
0 0 0

-1.2775e-15 9.80406e-15 0
5.32907e-15 -1.95399e-14 0
0 0 0

-2.13489e-15 9.08994e-15 0
1.15463e-14 8.88178e-16 0
0 0 0

-1.2775e-15 6.28759e-15 0
7.10543e-15 -3.55271e-15 0
0 0 0

-2.13489e-15 9.96057e-15 0
1.06581e-14 -1.06581e-14 0
0 0 0

1.02191e-14 1.64503e-15 0
3.55271e-15 7.10543e-15 0
0 0 0

1.21242e-14 6.47939e-16 0
-3.55271e-15 -3.19744e-14 0
0 0 0

1.02191e-14 2.45771e-15 0
-3.55271e-15 7.10543e-15 0
0 0 0

1.21242e-14 3.26296e-15 0
-1.77636e-15 -3.73035e-14 0
0 0 0

1.47392e-14 6.47939e-16 0
0 -2.4869e-14 0
0 0 0

1.52016e-14 -6.14756e-15 0
-5.32907e-15 -5.32907e-15 0
0 0 0

1.47392e-14 3.26296e-15 0
3.55271e-15 -2.4869e-14 0
0 0 0

1.52016e-14 -7.08412e-15 0
-1.06581e-14 -1.06581e-14 0
0 0 0

1.4265e-14 -6.14756e-15 0
1.77636e-15 -1.24345e-14 0
0 0 0

8.36499e-15 -3.34278e-17 0
-8.88178e-16 -8.88178e-16 0
0 0 0

1.4265e-14 -7.08412e-15 0
0 -7.10543e-15 0
0 0 0

8.36499e-15 -9.15899e-15 0
-1.77636e-15 5.32907e-15 0
0 0 0

-7.60573e-16 -3.34278e-17 0
-3.55271e-15 -3.55271e-15 0
0 0 0

-8.20982e-15 7.21595e-15 0
3.55271e-15 -1.77636e-14 0
0 0 0

-7.60573e-16 -9.15899e-15 0
-7.10543e-15 1.42109e-14 0
0 0 0

-8.20982e-15 8.56071e-16 0
-3.55271e-15 -7.10543e-15 0
0 0 0

1.77569e-15 3.72528e-15 0
-1.24345e-14 5.32907e-15 0
0 0 0

7.52944e-15 8.75723e-15 0
-1.77636e-14 -3.19744e-14 0
0 0 0

1.77569e-15 5.44772e-15 0
-1.77636e-14 -7.10543e-15 0
0 0 0

7.52944e-15 1.71308e-14 0
-2.4869e-14 -2.84217e-14 0
0 0 0

1.5903e-14 8.75723e-15 0
-1.77636e-15 -3.01981e-14 0
0 0 0

1.69409e-14 -9.41696e-15 0
-1.15463e-14 -4.44089e-15 0
0 0 0

1.5903e-14 1.71308e-14 0
-7.10543e-15 -2.13163e-14 0
0 0 0

1.69409e-14 -1.31461e-14 0
-1.42109e-14 -7.10543e-15 0
0 0 0

1.32118e-14 -9.41696e-15 0
5.32907e-15 -5.32907e-15 0
0 0 0

6.11903e-15 -1.83611e-14 0
1.77636e-15 1.77636e-15 0
0 0 0

1.32118e-14 -1.31461e-14 0
-1.06581e-14 -3.55271e-15 0
0 0 0

6.11903e-15 -2.76397e-14 0
1.77636e-15 1.77636e-15 0
0 0 0

-3.15955e-15 -1.83611e-14 0
0 7.10543e-15 0
0 0 0

-8.14001e-15 -3.41751e-15 0
1.24345e-14 -1.77636e-15 0
0 0 0

-3.15955e-15 -2.76397e-14 0
7.10543e-15 1.42109e-14 0
0 0 0

-8.14001e-15 -5.6048e-15 0
8.88178e-15 -5.32907e-15 0
0 0 0

SCALARS active double 1
LOOKUP_TABLE default
1
1
1
1
1
1
1
1
1
1
1
1
1
1
1
1
1
1
1
1
1
1
1
1
1
1
1
1
1
1
1
1
1
1
1
1
1
1
1
1
1
1
1
1
1
1
1
1
1
1
1
1
1
1
1
1
1
1
1
1
1
1
1
1
SCALARS extent double 1
LOOKUP_TABLE default
0.0125
0.0125
0.0125
0.0125
0.0125
0.0125
0.0125
0.0125
0.0125
0.0125
0.0125
0.0125
0.0125
0.0125
0.0125
0.0125
0.0125
0.0125
0.0125
0.0125
0.0125
0.0125
0.0125
0.0125
0.0125
0.0125
0.0125
0.0125
0.0125
0.0125
0.0125
0.0125
0.0125
0.0125
0.0125
0.0125
0.0125
0.0125
0.0125
0.0125
0.0125
0.0125
0.0125
0.0125
0.0125
0.0125
0.0125
0.0125
0.0125
0.0125
0.0125
0.0125
0.0125
0.0125
0.0125
0.0125
0.0125
0.0125
0.0125
0.0125
0.0125
0.0125
0.0125
0.0125
SCALARS pressure double 1
LOOKUP_TABLE default
2.30948e-13
-7.836e-12
-1.28751e-12
7.42786e-13
3.65977e-12
5.71541e-11
8.53955e-12
6.21478e-11
-2.47661e-11
2.48621e-12
-2.638e-11
2.4492e-12
-1.10006e-11
-2.56352e-12
-1.3712e-11
2.84881e-12
-1.6234e-12
-1.41938e-12
-4.31511e-12
-1.49108e-12
1.06771e-11
6.82977e-11
1.40829e-11
6.28437e-11
-2.78862e-11
1.83113e-12
-2.5978e-11
1.00005e-11
-6.01427e-12
8.51764e-13
-5.41868e-12
-1.04949e-12
-2.97917e-14
-1.26183e-12
-3.98265e-12
2.62163e-12
1.2876e-11
5.99797e-11
1.26898e-11
6.15155e-11
-2.3206e-11
1.18144e-11
-2.48928e-11
1.52145e-11
-2.74212e-12
5.87811e-12
5.34769e-13
1.60607e-12
1.19499e-13
-9.07315e-13
8.63117e-13
1.7284e-13
2.65587e-12
6.2325e-11
3.36595e-12
6.15224e-11
-2.02959e-11
1.4771e-11
-3.08921e-11
6.48134e-12
-5.22019e-12
2.3518e-12
-7.34234e-12
6.03404e-12
SCALARS density double 1
LOOKUP_TABLE default
1000
1000
1000
1000
1000
1000
1000
1000
1000
1000
1000
1000
1000
1000
1000
1000
1000
1000
1000
1000
1000
1000
1000
1000
1000
1000
1000
1000
1000
1000
1000
1000
1000
1000
1000
1000
1000
1000
1000
1000
1000
1000
1000
1000
1000
1000
1000
1000
1000
1000
1000
1000
1000
1000
1000
1000
1000
1000
1000
1000
1000
1000
1000
1000
