# vtk DataFile Version 3.0
Frame: 37, Time: 0.617
ASCII
DATASET UNSTRUCTURED_GRID
POINTS 64 double
0.830862 0.499209 0 
0.836552 0.473286 0 
0.804873 0.495136 0 
0.809803 0.46848 0 
0.841047 0.448035 0 
0.846322 0.42182 0 
0.815496 0.4429 0 
0.820742 0.41666 0 
0.852398 0.396657 0 
0.856143 0.371513 0 
0.825788 0.392063 0 
0.830177 0.367528 0 
0.863547 0.346591 0 
0.872471 0.324123 0 
0.838131 0.342564 0 
0.845204 0.318195 0 
0.780176 0.489853 0 
0.784668 0.464536 0 
0.756161 0.484537 0 
0.760897 0.457473 0 
0.791325 0.438931 0 
0.796842 0.413379 0 
0.767 0.432202 0 
0.772631 0.407453 0 
0.800513 0.386899 0 
0.805062 0.361079 0 
0.776488 0.380399 0 
0.780717 0.353827 0 
0.812987 0.335809 0 
0.821157 0.310215 0 
0.787872 0.32957 0 
0.796071 0.303401 0 
0.731759 0.479703 0 
0.734652 0.453374 0 
0.707851 0.473131 0 
0.710609 0.44696 0 
0.743162 0.428381 0 
0.746872 0.402018 0 
0.719726 0.422065 0 
0.721984 0.397649 0 
0.751325 0.37509 0 
0.757038 0.349129 0 
0.726884 0.372186 0 
0.733674 0.347525 0 
0.762264 0.323735 0 
0.769322 0.297542 0 
0.736814 0.321079 0 
0.744102 0.294115 0 
0.684941 0.466184 0 
0.688165 0.440642 0 
0.65898 0.463567 0 
0.661979 0.437787 0 
0.695232 0.415942 0 
0.697471 0.389315 0 
0.668393 0.411554 0 
0.671387 0.384267 0 
0.702412 0.364771 0 
0.709142 0.339941 0 
0.676574 0.359913 0 
0.683513 0.333821 0 
0.712655 0.313578 0 
0.719763 0.288445 0 
0.688713 0.307987 0 
0.696563 0.28308 0 
CELLS 64 128
1 0
1 1
1 2
1 3
1 4
1 5
1 6
1 7
1 8
1 9
1 10
1 11
1 12
1 13
1 14
1 15
1 16
1 17
1 18
1 19
1 20
1 21
1 22
1 23
1 24
1 25
1 26
1 27
1 28
1 29
1 30
1 31
1 32
1 33
1 34
1 35
1 36
1 37
1 38
1 39
1 40
1 41
1 42
1 43
1 44
1 45
1 46
1 47
1 48
1 49
1 50
1 51
1 52
1 53
1 54
1 55
1 56
1 57
1 58
1 59
1 60
1 61
1 62
1 63
CELL_TYPES 64
1
1
1
1
1
1
1
1
1
1
1
1
1
1
1
1
1
1
1
1
1
1
1
1
1
1
1
1
1
1
1
1
1
1
1
1
1
1
1
1
1
1
1
1
1
1
1
1
1
1
1
1
1
1
1
1
1
1
1
1
1
1
1
1
POINT_DATA 64
VECTORS displacement double
0.318362 -0.113291 0 
0.324052 -0.164214 0 
0.267373 -0.117364 0 
0.272303 -0.16902 0 
0.328547 -0.214465 0 
0.333822 -0.26568 0 
0.277996 -0.2196 0 
0.283242 -0.27084 0 
0.339898 -0.315843 0 
0.343643 -0.365987 0 
0.288288 -0.320437 0 
0.292677 -0.369972 0 
0.351047 -0.415909 0 
0.359971 -0.463377 0 
0.300631 -0.419936 0 
0.307704 -0.469305 0 
0.217676 -0.122647 0 
0.222168 -0.172964 0 
0.168661 -0.127963 0 
0.173397 -0.180027 0 
0.228825 -0.223569 0 
0.234342 -0.274121 0 
0.1795 -0.230298 0 
0.185131 -0.280047 0 
0.238013 -0.325601 0 
0.242562 -0.376421 0 
0.188988 -0.332101 0 
0.193217 -0.383673 0 
0.250487 -0.426691 0 
0.258657 -0.477285 0 
0.200372 -0.43293 0 
0.208571 -0.484099 0 
0.119259 -0.132797 0 
0.122152 -0.184126 0 
0.0703509 -0.139369 0 
0.0731092 -0.19054 0 
0.130662 -0.234119 0 
0.134372 -0.285482 0 
0.0822261 -0.240435 0 
0.0844839 -0.289851 0 
0.138825 -0.33741 0 
0.144538 -0.388371 0 
0.0893844 -0.340314 0 
0.0961742 -0.389975 0 
0.149764 -0.438765 0 
0.156822 -0.489958 0 
0.0993143 -0.441421 0 
0.106602 -0.493385 0 
0.0224406 -0.146316 0 
0.0256652 -0.196858 0 
-0.02852 -0.148933 0 
-0.0255208 -0.199713 0 
0.0327324 -0.246558 0 
0.0349713 -0.298185 0 
-0.0191067 -0.250946 0 
-0.0161133 -0.303233 0 
0.0399115 -0.347729 0 
0.0466421 -0.397559 0 
-0.0109261 -0.352587 0 
-0.00398716 -0.403679 0 
0.0501548 -0.448922 0 
0.0572628 -0.499055 0 
0.0012133 -0.454513 0 
0.00906286 -0.50442 0 
VECTORS velocity double
-1.77782 0.468253 0 
-1.35146 0.634424 0 
-1.93133 0.727897 0 
-1.3774 1.0998 0 
-1.98423 0.472536 0 
-1.59498 -0.0936362 0 
-1.93546 1.15684 0 
-1.60646 0.729453 0 
-1.23678 0.393484 0 
-2.08182 0.289332 0 
-1.50264 0.997246 0 
-1.81829 0.431268 0 
-1.65407 0.263356 0 
-1.17548 -0.0466429 0 
-0.670212 0.333993 0 
-1.58442 1.07198 0 
-1.49462 0.483239 0 
-1.44633 0.0099304 0 
-1.97393 1.34316 0 
-2.0395 0.969486 0 
-1.43211 0.613115 0 
-1.0284 0.293107 0 
-2.24995 1.33755 0 
-1.64111 1.12795 0 
-1.18025 0.412805 0 
-1.58307 0.119067 0 
-1.18134 0.620138 0 
-1.76004 0.643652 0 
-1.00393 -0.362215 0 
-0.656132 -0.852488 0 
-1.42499 0.471621 0 
-1.26561 0.194212 0 
-1.69837 0.577409 0 
-1.41888 0.382914 0 
-1.78073 -0.00809432 0 
-1.32233 0.0389678 0 
-1.6708 0.368382 0 
-1.17449 0.358897 0 
-1.61381 -0.690345 0 
-1.27338 -0.592491 0 
-0.144423 0.453085 0 
-1.41002 0.522631 0 
-0.633758 -0.582093 0 
-1.46017 -0.00406945 0 
-1.14161 0.27607 0 
-1.14906 0.597584 0 
-0.537087 -0.28105 0 
-0.626268 -0.108729 0 
-1.40182 0.452576 0 
-1.14516 0.153651 0 
-1.4188 -0.466711 0 
-0.956363 -0.662371 0 
-1.06898 0.130034 0 
-0.928818 0.223541 0 
-1.01444 -0.152736 0 
-0.889855 -0.457614 0 
-1.04791 0.119293 0 
-1.40687 0.0324073 0 
-0.584181 -0.619108 0 
-0.62216 -0.800757 0 
0.0353876 -0.442799 0 
-0.217639 -0.695731 0 
-0.716893 -0.637283 0 
-0.305611 -0.651525 0 
SCALARS mass double 1
LOOKUP_TABLE default
0.625
0.625
0.625
0.625
0.625
0.625
0.625
0.625
0.625
0.625
0.625
0.625
0.625
0.625
0.625
0.625
0.625
0.625
0.625
0.625
0.625
0.625
0.625
0.625
0.625
0.625
0.625
0.625
0.625
0.625
0.625
0.625
0.625
0.625
0.625
0.625
0.625
0.625
0.625
0.625
0.625
0.625
0.625
0.625
0.625
0.625
0.625
0.625
0.625
0.625
0.625
0.625
0.625
0.625
0.625
0.625
0.625
0.625
0.625
0.625
0.625
0.625
0.625
0.625
SCALARS volume double 1
LOOKUP_TABLE default
0.000644948
0.000625208
0.000633858
0.000631333
0.000645933
0.000639087
0.00064718
0.000615378
0.000616473
0.000639336
0.000634437
0.000633566
0.000646257
0.000613929
0.000617081
0.000614754
0.000601192
0.00062406
0.000650389
0.000644927
0.000648689
0.000619049
0.000619275
0.00063841
0.000660328
0.00066763
0.000664258
0.000625857
0.000633102
0.000630831
0.000649083
0.000661845
0.000588217
0.000621771
0.000609303
0.000615983
0.000608295
0.000656761
0.000617918
0.00060406
0.00063865
0.000551427
0.000617169
0.000588341
0.000642772
0.000607416
0.000670044
0.00062338
0.000614073
0.000603588
0.000610922
0.000604719
0.000648295
0.000604771
0.000646824
0.000623712
0.000652202
0.00065019
0.000629022
0.000624915
0.000588455
0.000611203
0.000630135
0.000616815
VECTORS momentum double
-1.11114 0.292658 0 
-0.844664 0.396515 0 
-1.20708 0.454936 0 
-0.860875 0.687374 0 
-1.24014 0.295335 0 
-0.996862 -0.0585226 0 
-1.20966 0.723022 0 
-1.00404 0.455908 0 
-0.772988 0.245927 0 
-1.30114 0.180833 0 
-0.93915 0.623279 0 
-1.13643 0.269543 0 
-1.03379 0.164597 0 
-0.734672 -0.0291518 0 
-0.418883 0.208746 0 
-0.99026 0.669989 0 
-0.93414 0.302025 0 
-0.903958 0.0062065 0 
-1.23371 0.839475 0 
-1.27469 0.605929 0 
-0.895069 0.383197 0 
-0.642747 0.183192 0 
-1.40622 0.835972 0 
-1.0257 0.704969 0 
-0.737653 0.258003 0 
-0.989419 0.0744168 0 
-0.738338 0.387586 0 
-1.10003 0.402282 0 
-0.627459 -0.226384 0 
-0.410083 -0.532805 0 
-0.890622 0.294763 0 
-0.791006 0.121382 0 
-1.06148 0.36088 0 
-0.886798 0.239321 0 
-1.11296 -0.00505895 0 
-0.826457 0.0243549 0 
-1.04425 0.230239 0 
-0.734054 0.22431 0 
-1.00863 -0.431466 0 
-0.795863 -0.370307 0 
-0.0902643 0.283178 0 
-0.881262 0.326644 0 
-0.396099 -0.363808 0 
-0.912609 -0.00254341 0 
-0.713507 0.172544 0 
-0.718162 0.37349 0 
-0.335679 -0.175656 0 
-0.391417 -0.0679557 0 
-0.876139 0.28286 0 
-0.715726 0.0960317 0 
-0.88675 -0.291694 0 
-0.597727 -0.413982 0 
-0.668112 0.0812711 0 
-0.580511 0.139713 0 
-0.634026 -0.09546 0 
-0.55616 -0.286009 0 
-0.654941 0.0745583 0 
-0.879291 0.0202546 0 
-0.365113 -0.386942 0 
-0.38885 -0.500473 0 
0.0221172 -0.27675 0 
-0.136025 -0.434832 0 
-0.448058 -0.398302 0 
-0.191007 -0.407203 0 
VECTORS body_force double
0 -9.81 0 
0 -9.81 0 
0 -9.81 0 
0 -9.81 0 
0 -9.81 0 
0 -9.81 0 
0 -9.81 0 
0 -9.81 0 
0 -9.81 0 
0 -9.81 0 
0 -9.81 0 
0 -9.81 0 
0 -9.81 0 
0 -9.81 0 
0 -9.81 0 
0 -9.81 0 
0 -9.81 0 
0 -9.81 0 
0 -9.81 0 
0 -9.81 0 
0 -9.81 0 
0 -9.81 0 
0 -9.81 0 
0 -9.81 0 
0 -9.81 0 
0 -9.81 0 
0 -9.81 0 
0 -9.81 0 
0 -9.81 0 
0 -9.81 0 
0 -9.81 0 
0 -9.81 0 
0 -9.81 0 
0 -9.81 0 
0 -9.81 0 
0 -9.81 0 
0 -9.81 0 
0 -9.81 0 
0 -9.81 0 
0 -9.81 0 
0 -9.81 0 
0 -9.81 0 
0 -9.81 0 
0 -9.81 0 
0 -9.81 0 
0 -9.81 0 
0 -9.81 0 
0 -9.81 0 
0 -9.81 0 
0 -9.81 0 
0 -9.81 0 
0 -9.81 0 
0 -9.81 0 
0 -9.81 0 
0 -9.81 0 
0 -9.81 0 
0 -9.81 0 
0 -9.81 0 
0 -9.81 0 
0 -9.81 0 
0 -9.81 0 
0 -9.81 0 
0 -9.81 0 
0 -9.81 0 
TENSORS cauchy_stress double
3488.11 -165.387 0
-165.387 2553.91 0
0 0 1812.61

1147.08 -4796.1 0
-4796.1 -1083.11 0
0 0 19.19

-657.291 994.116 0
994.116 3363.69 0
0 0 811.918

-416.235 -822.092 0
-822.092 2354.92 0
0 0 581.607

637.781 810.271 0
810.271 5697.53 0
0 0 1900.59

1047.78 2356.91 0
2356.91 3238.47 0
0 0 1285.88

111.498 -3422.91 0
-3422.91 6594.77 0
0 0 2011.88

-3232.96 1821.45 0
1821.45 249.411 0
0 0 -895.064

-1330.91 -3568.86 0
-3568.86 -1310.97 0
0 0 -792.562

1916.76 -118.891 0
-118.891 2444.38 0
0 0 1308.34

4617.71 1095.53 0
1095.53 -1735.61 0
0 0 864.631

940.78 1070.16 0
1070.16 1677.05 0
0 0 785.348

3131.61 -0.21952 0
-0.21952 3300.26 0
0 0 1929.56

-2690.38 -1543.72 0
-1543.72 -746.639 0
0 0 -1031.11

-786.518 -677.941 0
-677.941 -1665.56 0
0 0 -735.623

1707.37 -1885.76 0
-1885.76 -4886.21 0
0 0 -953.65

-2781.21 855.119 0
855.119 -4687.54 0
0 0 -2240.63

688.75 -2978.46 0
-2978.46 -978.195 0
0 0 -86.8334

1278.68 1549.52 0
1549.52 6378.87 0
0 0 2297.27

5334.17 -1406.96 0
-1406.96 701.375 0
0 0 1810.66

1951.47 -87.395 0
-87.395 5202.66 0
0 0 2146.24

-3608.19 925.118 0
925.118 1768.26 0
0 0 -551.978

-3723.87 665.359 0
665.359 1954.28 0
0 0 -530.875

1701.78 -1350.07 0
-1350.07 2380.74 0
0 0 1224.76

1454.73 3884.3 0
3884.3 9119.42 0
0 0 3172.24

5988.87 -471.396 0
-471.396 6700.07 0
0 0 3806.68

942.699 -205.95 0
-205.95 10772.6 0
0 0 3514.58

-860.17 92.4365 0
92.4365 1123.76 0
0 0 79.0778

-651.271 146.97 0
146.97 3128.09 0
0 0 743.045

-5266.73 3029.69 0
3029.69 7052.67 0
0 0 535.782

6508.77 -3525.92 0
-3525.92 762.24 0
0 0 2181.3

7873.34 -3364.76 0
-3364.76 3141.88 0
0 0 3304.57

-8595.28 254.906 0
254.906 -3069.32 0
0 0 -3499.38

-408.925 -1997.28 0
-1997.28 -587.216 0
0 0 -298.842

-5088.1 1659.62 0
1659.62 196.546 0
0 0 -1467.46

-4064.67 -3728.6 0
-3728.6 1270.03 0
0 0 -838.394

-7034.62 -5626.9 0
-5626.9 1824.71 0
0 0 -1562.97

1240.7 2012.09 0
2012.09 8291.85 0
0 0 2859.76

-1368.3 2657.82 0
2657.82 -823.352 0
0 0 -657.494

615.485 6280.23 0
6280.23 -7168.96 0
0 0 -1966.04

-110.793 -6743.23 0
-6743.23 4265.7 0
0 0 1246.47

-16669.2 406.725 0
406.725 -7415.69 0
0 0 -7225.46

-4572.72 -2674.78 0
-2674.78 2147.96 0
0 0 -727.429

-7680.41 908.646 0
908.646 -3943.53 0
0 0 -3487.18

1185 -2385.69 0
-2385.69 4207.13 0
0 0 1617.64

-1501.31 4013.59 0
4013.59 -3986.64 0
0 0 -1646.39

6436.68 -5553.94 0
-5553.94 6946.48 0
0 0 4014.95

-2329.13 -2491.75 0
-2491.75 1829.99 0
0 0 -149.742

-2467.49 105.879 0
105.879 -924.292 0
0 0 -1017.53

-2594.54 -2006.27 0
-2006.27 -4109.37 0
0 0 -2011.17

-5631.9 -1479.23 0
-1479.23 1250.63 0
0 0 -1314.38

-4935.07 -3482.55 0
-3482.55 -1408.64 0
0 0 -1903.11

1198.91 2739.51 0
2739.51 5838.38 0
0 0 2111.19

-4684.23 2477.73 0
2477.73 -1642.92 0
0 0 -1898.15

4290.01 -2710.61 0
-2710.61 2310.58 0
0 0 1980.18

-2426.77 749.004 0
749.004 2030.18 0
0 0 -118.974

6682.5 -2341.82 0
-2341.82 1510.26 0
0 0 2457.83

291.3 6658.51 0
6658.51 7307.32 0
0 0 2279.59

-1874.99 -1673.7 0
-1673.7 3108.68 0
0 0 370.109

1262.31 626.952 0
626.952 -1288.49 0
0 0 -7.85352

-7078.46 -942.832 0
-942.832 -4508.41 0
0 0 -3476.06

-5993.71 5862.83 0
5862.83 1700.93 0
0 0 -1287.83

1991.57 -1282.14 0
-1282.14 -418.025 0
0 0 472.063

-1175.77 1136.46 0
1136.46 -1359.32 0
0 0 -760.529

TENSORS velocity_gradient double
-0.0324368 -0.726043 0
-0.7445 -4.62536 0
0 0 0

-0.844701 1.42351 0
-1.81053 0.567686 0
0 0 0

0.042424 -0.0345142 0
-0.818692 -1.56978 0
0 0 0

-1.0523 0.279395 0
-2.03606 -0.675291 0
0 0 0

-1.84335 -2.12911 0
-2.86993 1.9855 0
0 0 0

-1.63932 -3.60008 0
-5.10142 1.70449 0
0 0 0

-2.00551 -4.34461 0
-3.02665 1.95551 0
0 0 0

-2.65346 -4.21719 0
-3.57851 2.06403 0
0 0 0

-0.997537 -2.72697 0
-0.984657 2.56469 0
0 0 0

-2.15266 -2.37842 0
-1.1556 3.1282 0
0 0 0

-3.00307 -2.75518 0
-3.38689 4.15708 0
0 0 0

-2.86187 -2.78024 0
-1.84712 3.88385 0
0 0 0

-3.23286 -5.08102 0
-2.09311 2.55783 0
0 0 0

-2.28808 -6.34509 0
-1.67003 2.10181 0
0 0 0

-2.14806 -4.34459 0
-0.510446 3.00446 0
0 0 0

-0.59915 -4.85829 0
-0.101576 2.78694 0
0 0 0

1.12609 -0.522303 0
-1.92576 0.840367 0
0 0 0

0.691663 -0.445441 0
0.929603 0.335174 0
0 0 0

1.03433 -0.934286 0
-1.32264 3.5482 0
0 0 0

0.571119 -0.853444 0
1.72191 3.01685 0
0 0 0

-0.501497 -5.34588 0
3.47839 2.18866 0
0 0 0

-2.63555 -5.03581 0
2.23841 1.9753 0
0 0 0

-1.04012 -7.33127 0
4.03358 4.23511 0
0 0 0

-3.04926 -6.88625 0
6.10451 3.77641 0
0 0 0

-3.17774 -2.61203 0
-0.0170252 5.45496 0
0 0 0

-2.82452 -2.63453 0
-1.43988 5.47267 0
0 0 0

-3.5336 -2.50475 0
5.187 4.20437 0
0 0 0

-3.60027 -2.73002 0
3.28856 4.44214 0
0 0 0

-1.61086 -2.33575 0
-0.28722 3.83921 0
0 0 0

0.420823 -2.98164 0
0.557024 3.57082 0
0 0 0

-6.01392 -2.57922 0
2.76809 4.22503 0
0 0 0

-6.79655 -1.89856 0
2.34834 2.90252 0
0 0 0

-2.84663 -3.00457 0
10.595 4.58703 0
0 0 0

-5.60875 -4.07964 0
10.7364 4.70402 0
0 0 0

-3.58024 -5.80649 0
10.6525 4.80666 0
0 0 0

-5.77103 -6.19554 0
10.6106 4.10261 0
0 0 0

-4.60557 -8.43396 0
9.3831 5.46166 0
0 0 0

-3.33672 -6.26172 0
7.74778 4.29832 0
0 0 0

-4.46103 -6.99336 0
9.45169 4.33475 0
0 0 0

-3.27687 -4.23058 0
8.51955 3.14097 0
0 0 0

-3.53505 -2.44611 0
5.98991 2.47751 0
0 0 0

-3.8813 -4.79998 0
3.09723 3.46259 0
0 0 0

-3.64506 -2.8481 0
8.81607 2.48523 0
0 0 0

-4.12855 -6.22038 0
9.28401 3.77017 0
0 0 0

-6.73847 -5.8353 0
2.72259 4.02053 0
0 0 0

-9.882 -5.50311 0
3.04214 2.8005 0
0 0 0

-4.50777 -7.68121 0
10.0389 4.2802 0
0 0 0

-5.12554 -7.42258 0
9.75575 4.16488 0
0 0 0

-3.88893 -6.14736 0
8.57173 4.25703 0
0 0 0

-2.82504 -5.46444 0
7.1267 2.49394 0
0 0 0

-3.75669 -4.70222 0
8.46057 3.04222 0
0 0 0

-2.77715 -4.99247 0
6.92842 0.539898 0
0 0 0

-2.74197 -5.64976 0
6.10829 2.979 0
0 0 0

-2.91651 -3.6009 0
6.00494 3.04327 0
0 0 0

-2.30561 -5.1056 0
4.97614 1.00827 0
0 0 0

-2.9685 -4.99946 0
4.62032 3.88687 0
0 0 0

-3.86015 -3.41209 0
8.09708 2.92034 0
0 0 0

-4.24327 -8.06518 0
9.47627 5.09692 0
0 0 0

-4.34497 -4.71111 0
5.44058 3.71503 0
0 0 0

-3.18078 -6.45488 0
5.21123 4.81528 0
0 0 0

-4.60807 -8.01911 0
10.2522 4.99895 0
0 0 0

-4.5646 -6.95825 0
10.0699 2.95409 0
0 0 0

-0.325018 -7.0138 0
4.26871 4.99975 0
0 0 0

0.5111 -6.10626 0
4.16916 1.47144 0
0 0 0

SCALARS active double 1
LOOKUP_TABLE default
1
1
1
1
1
1
1
1
1
1
1
1
1
1
1
1
1
1
1
1
1
1
1
1
1
1
1
1
1
1
1
1
1
1
1
1
1
1
1
1
1
1
1
1
1
1
1
1
1
1
1
1
1
1
1
1
1
1
1
1
1
1
1
1
SCALARS extent double 1
LOOKUP_TABLE default
0.0125
0.0125
0.0125
0.0125
0.0125
0.0125
0.0125
0.0125
0.0125
0.0125
0.0125
0.0125
0.0125
0.0125
0.0125
0.0125
0.0125
0.0125
0.0125
0.0125
0.0125
0.0125
0.0125
0.0125
0.0125
0.0125
0.0125
0.0125
0.0125
0.0125
0.0125
0.0125
0.0125
0.0125
0.0125
0.0125
0.0125
0.0125
0.0125
0.0125
0.0125
0.0125
0.0125
0.0125
0.0125
0.0125
0.0125
0.0125
0.0125
0.0125
0.0125
0.0125
0.0125
0.0125
0.0125
0.0125
0.0125
0.0125
0.0125
0.0125
0.0125
0.0125
0.0125
0.0125
SCALARS pressure double 1
LOOKUP_TABLE default
-2618.21
-27.7188
-1172.77
-840.099
-2745.3
-1857.38
-2906.05
1292.87
1144.81
-1889.83
-1248.91
-1134.39
-2787.14
1489.38
1062.57
1377.49
3236.46
125.426
-3318.27
-2615.4
-3100.12
797.302
766.819
-1769.09
-4582.13
-5498.54
-5076.61
-114.223
-1073.29
-773.907
-3150.77
-4773.26
5054.66
431.661
2119.67
1211.01
2257.62
-4130.77
949.714
2839.84
-1800.46
10436.8
1050.73
5037.04
-2336.59
2378.11
-5799.37
216.294
1469.77
2905.03
1898.55
2748.94
-3049.49
2741.77
-2860.25
171.852
-3550.2
-3292.74
-534.603
11.344
5020.97
1860.2
-681.868
1098.54
SCALARS density double 1
LOOKUP_TABLE default
969.07
999.667
986.025
989.969
967.593
977.958
965.728
1015.64
1013.83
977.577
985.125
986.48
967.107
1018.03
1012.83
1016.67
1039.6
1001.51
960.963
969.103
963.482
1009.61
1009.24
978.995
946.499
936.147
940.899
998.63
987.203
990.756
962.897
944.33
1062.53
1005.19
1025.76
1014.64
1027.46
951.639
1011.46
1034.67
978.626
1133.42
1012.69
1062.31
972.35
1028.95
932.774
1002.6
1017.79
1035.48
1023.04
1033.54
964.068
1033.45
966.259
1002.06
958.292
961.258
993.605
1000.14
1062.1
1022.57
991.851
1013.27
