# vtk DataFile Version 3.0
Frame: 6, Time: 0.1
ASCII
DATASET UNSTRUCTURED_GRID
POINTS 64 double
0.4125 0.361969 0 
0.4125 0.386969 0 
0.4375 0.361969 0 
0.4375 0.386969 0 
0.4125 0.411969 0 
0.4125 0.436969 0 
0.4375 0.411969 0 
0.4375 0.436969 0 
0.4125 0.461969 0 
0.4125 0.486969 0 
0.4375 0.461969 0 
0.4375 0.486969 0 
0.4125 0.511969 0 
0.4125 0.536969 0 
0.4375 0.511969 0 
0.4375 0.536969 0 
0.4625 0.361969 0 
0.4625 0.386969 0 
0.4875 0.361969 0 
0.4875 0.386969 0 
0.4625 0.411969 0 
0.4625 0.436969 0 
0.4875 0.411969 0 
0.4875 0.436969 0 
0.4625 0.461969 0 
0.4625 0.486969 0 
0.4875 0.461969 0 
0.4875 0.486969 0 
0.4625 0.511969 0 
0.4625 0.536969 0 
0.4875 0.511969 0 
0.4875 0.536969 0 
0.5125 0.361969 0 
0.5125 0.386969 0 
0.5375 0.361969 0 
0.5375 0.386969 0 
0.5125 0.411969 0 
0.5125 0.436969 0 
0.5375 0.411969 0 
0.5375 0.436969 0 
0.5125 0.461969 0 
0.5125 0.486969 0 
0.5375 0.461969 0 
0.5375 0.486969 0 
0.5125 0.511969 0 
0.5125 0.536969 0 
0.5375 0.511969 0 
0.5375 0.536969 0 
0.5625 0.361969 0 
0.5625 0.386969 0 
0.5875 0.361969 0 
0.5875 0.386969 0 
0.5625 0.411969 0 
0.5625 0.436969 0 
0.5875 0.411969 0 
0.5875 0.436969 0 
0.5625 0.461969 0 
0.5625 0.486969 0 
0.5875 0.461969 0 
0.5875 0.486969 0 
0.5625 0.511969 0 
0.5625 0.536969 0 
0.5875 0.511969 0 
0.5875 0.536969 0 
CELLS 64 128
1 0
1 1
1 2
1 3
1 4
1 5
1 6
1 7
1 8
1 9
1 10
1 11
1 12
1 13
1 14
1 15
1 16
1 17
1 18
1 19
1 20
1 21
1 22
1 23
1 24
1 25
1 26
1 27
1 28
1 29
1 30
1 31
1 32
1 33
1 34
1 35
1 36
1 37
1 38
1 39
1 40
1 41
1 42
1 43
1 44
1 45
1 46
1 47
1 48
1 49
1 50
1 51
1 52
1 53
1 54
1 55
1 56
1 57
1 58
1 59
1 60
1 61
1 62
1 63
CELL_TYPES 64
1
1
1
1
1
1
1
1
1
1
1
1
1
1
1
1
1
1
1
1
1
1
1
1
1
1
1
1
1
1
1
1
1
1
1
1
1
1
1
1
1
1
1
1
1
1
1
1
1
1
1
1
1
1
1
1
1
1
1
1
1
1
1
1
POINT_DATA 64
VECTORS displacement double
-6.97566e-18 -0.0505313 0 
-5.09486e-18 -0.0505313 0 
-9.9614e-18 -0.0505313 0 
-1.00052e-17 -0.0505313 0 
-1.17179e-17 -0.0505313 0 
-1.32852e-17 -0.0505313 0 
-1.26976e-17 -0.0505313 0 
-1.29647e-17 -0.0505313 0 
-8.77753e-18 -0.0505313 0 
-6.93219e-18 -0.0505313 0 
-1.06757e-17 -0.0505313 0 
-8.69564e-18 -0.0505313 0 
-8.04308e-18 -0.0505313 0 
-8.0791e-18 -0.0505313 0 
-9.0559e-18 -0.0505313 0 
-8.87271e-18 -0.0505313 0 
-1.40988e-17 -0.0505313 0 
-1.46478e-17 -0.0505313 0 
-1.93877e-17 -0.0505313 0 
-1.90225e-17 -0.0505313 0 
-1.46566e-17 -0.0505313 0 
-1.40973e-17 -0.0505313 0 
-1.75949e-17 -0.0505313 0 
-1.66828e-17 -0.0505313 0 
-1.32484e-17 -0.0505313 0 
-1.13941e-17 -0.0505313 0 
-1.64955e-17 -0.0505313 0 
-1.50276e-17 -0.0505313 0 
-1.14405e-17 -0.0505313 0 
-1.06911e-17 -0.0505313 0 
-1.51969e-17 -0.0505313 0 
-1.35341e-17 -0.0505313 0 
-2.42681e-17 -0.0505313 0 
-2.31607e-17 -0.0505313 0 
-2.87398e-17 -0.0505313 0 
-2.70623e-17 -0.0505313 0 
-2.09189e-17 -0.0505313 0 
-1.98859e-17 -0.0505313 0 
-2.46285e-17 -0.0505313 0 
-2.37066e-17 -0.0505313 0 
-1.93685e-17 -0.0505313 0 
-1.78968e-17 -0.0505313 0 
-2.18672e-17 -0.0505313 0 
-2.00017e-17 -0.0505313 0 
-1.79919e-17 -0.0505313 0 
-1.5997e-17 -0.0505313 0 
-1.98257e-17 -0.0505313 0 
-1.80797e-17 -0.0505313 0 
-3.21879e-17 -0.0505313 0 
-3.15264e-17 -0.0505313 0 
-3.46123e-17 -0.0505313 0 
-3.6553e-17 -0.0505313 0 
-2.76012e-17 -0.0505313 0 
-2.59571e-17 -0.0505313 0 
-2.9837e-17 -0.0505313 0 
-2.66375e-17 -0.0505313 0 
-2.36146e-17 -0.0505313 0 
-2.14024e-17 -0.0505313 0 
-2.46108e-17 -0.0505313 0 
-2.2099e-17 -0.0505313 0 
-2.03577e-17 -0.0505313 0 
-1.86935e-17 -0.0505313 0 
-1.95879e-17 -0.0505313 0 
-1.78384e-17 -0.0505313 0 
VECTORS velocity double
-1.63947e-15 -0.99081 0 
1.80931e-15 -0.99081 0 
-5.86695e-16 -0.99081 0 
3.45827e-16 -0.99081 0 
-1.12716e-16 -0.99081 0 
-2.4166e-15 -0.99081 0 
-2.45462e-16 -0.99081 0 
-1.17209e-15 -0.99081 0 
-2.65829e-15 -0.99081 0 
-2.15495e-15 -0.99081 0 
-1.21622e-15 -0.99081 0 
-8.29043e-16 -0.99081 0 
-1.72349e-15 -0.99081 0 
-1.44202e-15 -0.99081 0 
-9.02558e-16 -0.99081 0 
-1.03194e-15 -0.99081 0 
-2.00298e-16 -0.99081 0 
-4.8968e-16 -0.99081 0 
-4.8028e-16 -0.99081 0 
-6.97208e-16 -0.99081 0 
-4.0419e-16 -0.99081 0 
-5.21492e-16 -0.99081 0 
-5.88902e-16 -0.99081 0 
-4.64803e-16 -0.99081 0 
-3.84396e-16 -0.99081 0 
-1.16928e-16 -0.99081 0 
-1.62829e-16 -0.99081 0 
-1.86061e-17 -0.99081 0 
-5.10605e-16 -0.99081 0 
-8.111e-16 -0.99081 0 
-5.47634e-16 -0.99081 0 
-7.79509e-16 -0.99081 0 
-7.7866e-16 -0.99081 0 
-8.04817e-16 -0.99081 0 
-1.09544e-15 -0.99081 0 
-8.12506e-16 -0.99081 0 
-7.89396e-16 -0.99081 0 
-5.58784e-16 -0.99081 0 
-1.00567e-15 -0.99081 0 
-8.03433e-16 -0.99081 0 
-1.29343e-16 -0.99081 0 
-5.8295e-17 -0.99081 0 
-2.8394e-16 -0.99081 0 
-2.35995e-16 -0.99081 0 
-4.22398e-16 -0.99081 0 
-5.39836e-16 -0.99081 0 
-1.34897e-16 -0.99081 0 
-9.20835e-17 -0.99081 0 
-6.67278e-16 -0.99081 0 
-1.46154e-15 -0.99081 0 
5.05814e-16 -0.99081 0 
-2.75192e-15 -0.99081 0 
-1.17538e-15 -0.99081 0 
-2.84282e-16 -0.99081 0 
-1.29853e-15 -0.99081 0 
9.98669e-16 -0.99081 0 
2.8739e-16 -0.99081 0 
2.18057e-16 -0.99081 0 
1.58464e-15 -0.99081 0 
1.30386e-15 -0.99081 0 
5.47672e-16 -0.99081 0 
4.48051e-16 -0.99081 0 
1.62531e-15 -0.99081 0 
1.08057e-15 -0.99081 0 
SCALARS mass double 1
LOOKUP_TABLE default
0.625
0.625
0.625
0.625
0.625
0.625
0.625
0.625
0.625
0.625
0.625
0.625
0.625
0.625
0.625
0.625
0.625
0.625
0.625
0.625
0.625
0.625
0.625
0.625
0.625
0.625
0.625
0.625
0.625
0.625
0.625
0.625
0.625
0.625
0.625
0.625
0.625
0.625
0.625
0.625
0.625
0.625
0.625
0.625
0.625
0.625
0.625
0.625
0.625
0.625
0.625
0.625
0.625
0.625
0.625
0.625
0.625
0.625
0.625
0.625
0.625
0.625
0.625
0.625
SCALARS volume double 1
LOOKUP_TABLE default
0.000625
0.000625
0.000625
0.000625
0.000625
0.000625
0.000625
0.000625
0.000625
0.000625
0.000625
0.000625
0.000625
0.000625
0.000625
0.000625
0.000625
0.000625
0.000625
0.000625
0.000625
0.000625
0.000625
0.000625
0.000625
0.000625
0.000625
0.000625
0.000625
0.000625
0.000625
0.000625
0.000625
0.000625
0.000625
0.000625
0.000625
0.000625
0.000625
0.000625
0.000625
0.000625
0.000625
0.000625
0.000625
0.000625
0.000625
0.000625
0.000625
0.000625
0.000625
0.000625
0.000625
0.000625
0.000625
0.000625
0.000625
0.000625
0.000625
0.000625
0.000625
0.000625
0.000625
0.000625
VECTORS momentum double
-1.02467e-15 -0.619256 0 
1.13082e-15 -0.619256 0 
-3.66685e-16 -0.619256 0 
2.16142e-16 -0.619256 0 
-7.04474e-17 -0.619256 0 
-1.51038e-15 -0.619256 0 
-1.53414e-16 -0.619256 0 
-7.32557e-16 -0.619256 0 
-1.66143e-15 -0.619256 0 
-1.34684e-15 -0.619256 0 
-7.60136e-16 -0.619256 0 
-5.18152e-16 -0.619256 0 
-1.07718e-15 -0.619256 0 
-9.01263e-16 -0.619256 0 
-5.64099e-16 -0.619256 0 
-6.44961e-16 -0.619256 0 
-1.25186e-16 -0.619256 0 
-3.0605e-16 -0.619256 0 
-3.00175e-16 -0.619256 0 
-4.35755e-16 -0.619256 0 
-2.52619e-16 -0.619256 0 
-3.25932e-16 -0.619256 0 
-3.68064e-16 -0.619256 0 
-2.90502e-16 -0.619256 0 
-2.40248e-16 -0.619256 0 
-7.30802e-17 -0.619256 0 
-1.01768e-16 -0.619256 0 
-1.16288e-17 -0.619256 0 
-3.19128e-16 -0.619256 0 
-5.06938e-16 -0.619256 0 
-3.42271e-16 -0.619256 0 
-4.87193e-16 -0.619256 0 
-4.86662e-16 -0.619256 0 
-5.0301e-16 -0.619256 0 
-6.84647e-16 -0.619256 0 
-5.07816e-16 -0.619256 0 
-4.93372e-16 -0.619256 0 
-3.4924e-16 -0.619256 0 
-6.28544e-16 -0.619256 0 
-5.02146e-16 -0.619256 0 
-8.08395e-17 -0.619256 0 
-3.64344e-17 -0.619256 0 
-1.77462e-16 -0.619256 0 
-1.47497e-16 -0.619256 0 
-2.63999e-16 -0.619256 0 
-3.37398e-16 -0.619256 0 
-8.43108e-17 -0.619256 0 
-5.75522e-17 -0.619256 0 
-4.17049e-16 -0.619256 0 
-9.13463e-16 -0.619256 0 
3.16134e-16 -0.619256 0 
-1.71995e-15 -0.619256 0 
-7.34614e-16 -0.619256 0 
-1.77677e-16 -0.619256 0 
-8.11583e-16 -0.619256 0 
6.24168e-16 -0.619256 0 
1.79618e-16 -0.619256 0 
1.36286e-16 -0.619256 0 
9.90403e-16 -0.619256 0 
8.14913e-16 -0.619256 0 
3.42295e-16 -0.619256 0 
2.80032e-16 -0.619256 0 
1.01582e-15 -0.619256 0 
6.75354e-16 -0.619256 0 
VECTORS body_force double
0 -9.81 0 
0 -9.81 0 
0 -9.81 0 
0 -9.81 0 
0 -9.81 0 
0 -9.81 0 
0 -9.81 0 
0 -9.81 0 
0 -9.81 0 
0 -9.81 0 
0 -9.81 0 
0 -9.81 0 
0 -9.81 0 
0 -9.81 0 
0 -9.81 0 
0 -9.81 0 
0 -9.81 0 
0 -9.81 0 
0 -9.81 0 
0 -9.81 0 
0 -9.81 0 
0 -9.81 0 
0 -9.81 0 
0 -9.81 0 
0 -9.81 0 
0 -9.81 0 
0 -9.81 0 
0 -9.81 0 
0 -9.81 0 
0 -9.81 0 
0 -9.81 0 
0 -9.81 0 
0 -9.81 0 
0 -9.81 0 
0 -9.81 0 
0 -9.81 0 
0 -9.81 0 
0 -9.81 0 
0 -9.81 0 
0 -9.81 0 
0 -9.81 0 
0 -9.81 0 
0 -9.81 0 
0 -9.81 0 
0 -9.81 0 
0 -9.81 0 
0 -9.81 0 
0 -9.81 0 
0 -9.81 0 
0 -9.81 0 
0 -9.81 0 
0 -9.81 0 
0 -9.81 0 
0 -9.81 0 
0 -9.81 0 
0 -9.81 0 
0 -9.81 0 
0 -9.81 0 
0 -9.81 0 
0 -9.81 0 
0 -9.81 0 
0 -9.81 0 
0 -9.81 0 
0 -9.81 0 
TENSORS cauchy_stress double
-2.21387e-11 5.56775e-12 0
5.56775e-12 -2.1034e-11 0
0 0 -1.29518e-11

-8.39555e-12 1.38713e-13 0
1.38713e-13 3.07731e-11 0
0 0 6.71325e-12

-1.61171e-11 1.38992e-12 0
1.38992e-12 -6.98358e-12 0
0 0 -6.93021e-12

-1.41233e-11 -1.00792e-12 0
-1.00792e-12 1.74082e-11 0
0 0 9.85465e-13

2.85632e-11 -1.45891e-11 0
-1.45891e-11 7.66961e-11 0
0 0 3.15778e-11

-7.28468e-12 6.88621e-13 0
6.88621e-13 -2.02847e-11 0
0 0 -8.27082e-12

2.29815e-11 -7.39687e-12 0
-7.39687e-12 6.36722e-11 0
0 0 2.59961e-11

-1.28139e-11 2.18643e-12 0
2.18643e-12 -3.31863e-11 0
0 0 -1.38e-11

-4.27979e-11 5.77185e-12 0
5.77185e-12 -8.03932e-11 0
0 0 -3.69573e-11

-1.24034e-11 -1.84527e-12 0
-1.84527e-12 -1.08547e-11 0
0 0 -6.97742e-12

-4.21418e-11 4.1064e-12 0
4.1064e-12 -7.88622e-11 0
0 0 -3.63012e-11

-1.13754e-11 -4.12083e-13 0
-4.12083e-13 -8.45594e-12 0
0 0 -5.9494e-12

-5.79752e-12 -1.02511e-12 0
-1.02511e-12 -3.13965e-12 0
0 0 -2.68115e-12

-3.99947e-12 1.17128e-12 0
1.17128e-12 -1.1925e-12 0
0 0 -1.55759e-12

-3.66422e-12 2.53289e-12 0
2.53289e-12 1.83807e-12 0
0 0 -5.47844e-13

-3.07553e-12 1.0524e-12 0
1.0524e-12 9.63364e-13 0
0 0 -6.33649e-13

-2.66027e-11 -4.49123e-13 0
-4.49123e-13 -7.82726e-12 0
0 0 -1.0329e-11

-7.34021e-12 -1.16148e-12 0
-1.16148e-12 2.77422e-11 0
0 0 6.12059e-12

-3.18617e-11 1.4537e-13 0
1.4537e-13 -2.00983e-11 0
0 0 -1.5588e-11

-2.53155e-12 9.09953e-13 0
9.09953e-13 3.89624e-11 0
0 0 1.09292e-11

1.78245e-11 2.81623e-12 0
2.81623e-12 7.1727e-11 0
0 0 2.68654e-11

-3.68766e-11 -2.99749e-12 0
-2.99749e-12 -5.95269e-11 0
0 0 -2.89211e-11

1.75162e-11 5.6149e-12 0
5.6149e-12 7.10077e-11 0
0 0 2.65572e-11

-3.10816e-11 5.66105e-12 0
5.66105e-12 -4.60052e-11 0
0 0 -2.3126e-11

-4.88882e-11 3.56336e-12 0
3.56336e-12 -8.07684e-11 0
0 0 -3.8897e-11

-1.97586e-11 5.90105e-12 0
5.90105e-12 -8.83702e-12 0
0 0 -8.57868e-12

-5.19515e-11 2.12935e-13 0
2.12935e-13 -8.7916e-11 0
0 0 -4.19602e-11

-1.60868e-11 4.37035e-12 0
4.37035e-12 -2.69618e-13 0
0 0 -4.90693e-12

-2.16373e-11 -2.13461e-13 0
-2.13461e-13 -1.19602e-11 0
0 0 -1.00793e-11

-1.20006e-11 1.56721e-12 0
1.56721e-12 1.15831e-12 0
0 0 -3.25269e-12

-2.1076e-11 2.08547e-12 0
2.08547e-12 -1.06506e-11 0
0 0 -9.51801e-12

-1.20487e-11 1.82646e-12 0
1.82646e-12 1.04622e-12 0
0 0 -3.30073e-12

-2.92532e-11 4.06866e-12 0
4.06866e-12 -2.23934e-11 0
0 0 -1.5494e-11

-4.15197e-12 1.53043e-12 0
1.53043e-12 3.03286e-11 0
0 0 7.85299e-12

-2.50819e-11 5.39252e-12 0
5.39252e-12 -1.26602e-11 0
0 0 -1.13226e-11

-6.89817e-12 3.8705e-12 0
3.8705e-12 2.39208e-11 0
0 0 5.10679e-12

1.11623e-11 5.46377e-12 0
5.46377e-12 6.40923e-11 0
0 0 2.25764e-11

-3.62941e-11 1.27198e-12 0
1.27198e-12 -4.55001e-11 0
0 0 -2.45383e-11

1.20598e-11 6.90515e-12 0
6.90515e-12 6.61865e-11 0
0 0 2.34739e-11

-3.84142e-11 -5.07356e-13 0
-5.07356e-13 -5.0447e-11 0
0 0 -2.66584e-11

-4.29106e-11 2.32077e-12 0
2.32077e-12 -7.44969e-11 0
0 0 -3.52223e-11

-1.73439e-11 3.92677e-12 0
3.92677e-12 -1.888e-11 0
0 0 -1.08672e-11

-4.26652e-11 4.85432e-12 0
4.85432e-12 -7.39244e-11 0
0 0 -3.49769e-11

-1.56161e-11 2.49719e-12 0
2.49719e-12 -1.48485e-11 0
0 0 -9.13939e-12

-1.77666e-11 1.46206e-12 0
1.46206e-12 -2.26472e-11 0
0 0 -1.21241e-11

-8.78683e-12 -2.64608e-13 0
-2.64608e-13 8.58112e-13 0
0 0 -2.37862e-12

-1.52698e-11 3.35588e-13 0
3.35588e-13 -1.68214e-11 0
0 0 -9.62734e-12

-6.59948e-12 2.78586e-12 0
2.78586e-12 5.96194e-12 0
0 0 -1.91263e-13

-1.34364e-11 2.42823e-12 0
2.42823e-12 -6.48589e-12 0
0 0 -5.97668e-12

-8.62239e-12 1.79751e-12 0
1.79751e-12 3.14353e-11 0
0 0 6.84388e-12

-2.37382e-11 -4.85037e-12 0
-4.85037e-12 -3.05236e-11 0
0 0 -1.62785e-11

-6.2749e-12 -1.63437e-12 0
-1.63437e-12 3.69128e-11 0
0 0 9.19136e-12

2.2604e-11 6.72345e-12 0
6.72345e-12 7.5674e-11 0
0 0 2.94834e-11

-2.03397e-11 2.49825e-12 0
2.49825e-12 -4.04804e-11 0
0 0 -1.8246e-11

1.67321e-11 1.52582e-11 0
1.52582e-11 6.19729e-11 0
0 0 2.36115e-11

-2.11691e-11 1.53086e-12 0
1.53086e-12 -4.24158e-11 0
0 0 -1.90755e-11

-3.62106e-11 4.22677e-12 0
4.22677e-12 -7.42745e-11 0
0 0 -3.31455e-11

-1.25176e-11 -2.49209e-12 0
-2.49209e-12 -2.20638e-11 0
0 0 -1.03744e-11

-3.0002e-11 3.42055e-13 0
3.42055e-13 -5.97878e-11 0
0 0 -2.69369e-11

-3.67691e-12 1.68165e-12 0
1.68165e-12 -1.43552e-12 0
0 0 -1.53373e-12

-2.01446e-13 -7.09372e-13 0
-7.09372e-13 -8.36573e-12 0
0 0 -2.57015e-12

5.28956e-12 -6.85617e-13 0
-6.85617e-13 3.57238e-12 0
0 0 2.65858e-12

2.49752e-12 8.2171e-13 0
8.2171e-13 -2.06815e-12 0
0 0 1.2881e-13

7.86763e-12 -3.41563e-12 0
-3.41563e-12 9.58787e-12 0
0 0 5.23665e-12

TENSORS velocity_gradient double
6.51217e-15 1.91043e-14 0
-2.4869e-14 -1.06581e-14 0
0 0 0

-4.92827e-15 1.91043e-14 0
-7.10543e-15 -7.10543e-15 0
0 0 0

6.51217e-15 7.66384e-15 0
-3.55271e-15 -3.55271e-15 0
0 0 0

-4.92827e-15 7.66384e-15 0
-7.10543e-15 0 0
0 0 0

-8.9473e-16 -3.82731e-14 0
-4.44089e-15 -6.12843e-14 0
0 0 0

1.75155e-14 -3.82731e-14 0
3.37508e-14 -3.73035e-14 0
0 0 0

-8.9473e-16 -1.98629e-14 0
1.95399e-14 -3.73035e-14 0
0 0 0

1.75155e-14 -1.98629e-14 0
4.61853e-14 -1.06581e-14 0
0 0 0

2.53224e-14 3.89306e-15 0
3.81917e-14 -1.15463e-14 0
0 0 0

2.32778e-14 3.89306e-15 0
4.08562e-14 -2.30926e-14 0
0 0 0

2.53224e-14 1.84852e-15 0
4.26326e-14 -2.84217e-14 0
0 0 0

2.32778e-14 1.84852e-15 0
2.13163e-14 -3.55271e-14 0
0 0 0

1.80511e-14 8.36709e-15 0
2.4869e-14 -1.06581e-14 0
0 0 0

9.86774e-15 8.36709e-15 0
2.30926e-14 -1.24345e-14 0
0 0 0

1.80511e-14 1.83775e-16 0
2.4869e-14 1.06581e-14 0
0 0 0

9.86774e-15 1.83775e-16 0
2.13163e-14 -7.10543e-15 0
0 0 0

-5.48152e-15 1.03352e-15 0
8.88178e-16 1.5099e-14 0
0 0 0

-7.30172e-15 1.03352e-15 0
7.10543e-15 1.42109e-14 0
0 0 0

-5.48152e-15 -7.86679e-16 0
3.55271e-15 1.06581e-14 0
0 0 0

-7.30172e-15 -7.86679e-16 0
1.06581e-14 2.4869e-14 0
0 0 0

-3.76983e-15 -6.40553e-15 0
1.95399e-14 -3.73035e-14 0
0 0 0

4.73462e-15 -6.40553e-15 0
3.55271e-15 -3.19744e-14 0
0 0 0

-3.76983e-15 2.09891e-15 0
8.88178e-15 -3.37508e-14 0
0 0 0

4.73462e-15 2.09891e-15 0
7.10543e-15 -1.42109e-14 0
0 0 0

9.1178e-15 1.10333e-15 0
9.76996e-15 -4.70735e-14 0
0 0 0

9.67196e-15 1.10333e-15 0
1.59872e-14 -1.95399e-14 0
0 0 0

9.1178e-15 1.65749e-15 0
-3.55271e-15 -1.77636e-14 0
0 0 0

9.67196e-15 1.65749e-15 0
2.13163e-14 -3.55271e-14 0
0 0 0

9.55773e-15 -4.2755e-15 0
2.13163e-14 0 0
0 0 0

8.82248e-15 -4.2755e-15 0
2.30926e-14 8.88178e-15 0
0 0 0

9.55773e-15 -5.01074e-15 0
2.84217e-14 2.84217e-14 0
0 0 0

8.82248e-15 -5.01074e-15 0
3.19744e-14 3.19744e-14 0
0 0 0

-5.20672e-15 -2.34109e-15 0
1.68754e-14 1.68754e-14 0
0 0 0

-6.49535e-15 -2.34109e-15 0
1.77636e-15 1.59872e-14 0
0 0 0

-5.20672e-15 -3.62972e-15 0
8.88178e-15 -5.32907e-15 0
0 0 0

-6.49535e-15 -3.62972e-15 0
1.42109e-14 -1.42109e-14 0
0 0 0

-4.49556e-15 8.87864e-15 0
-6.21725e-15 -4.17444e-14 0
0 0 0

5.59453e-16 8.87864e-15 0
-1.77636e-14 -3.19744e-14 0
0 0 0

-4.49556e-15 1.39337e-14 0
-1.06581e-14 -3.19744e-14 0
0 0 0

5.59453e-16 1.39337e-14 0
-2.84217e-14 -5.68434e-14 0
0 0 0

4.89404e-15 3.76721e-15 0
-1.95399e-14 -5.32907e-15 0
0 0 0

8.5593e-15 3.76721e-15 0
1.77636e-15 -1.24345e-14 0
0 0 0

4.89404e-15 7.43246e-15 0
-1.24345e-14 -5.32907e-15 0
0 0 0

8.5593e-15 7.43246e-15 0
3.55271e-15 -1.06581e-14 0
0 0 0

1.22101e-14 -3.55965e-15 0
-4.44089e-15 2.39808e-14 0
0 0 0

1.58476e-14 -3.55965e-15 0
-5.32907e-15 3.01981e-14 0
0 0 0

1.22101e-14 7.77748e-17 0
-7.10543e-15 7.10543e-15 0
0 0 0

1.58476e-14 7.77748e-17 0
-2.84217e-14 -7.10543e-15 0
0 0 0

7.9946e-15 -9.42727e-15 0
-3.55271e-15 -1.06581e-14 0
0 0 0

-2.31189e-15 -9.42727e-15 0
-8.88178e-15 5.32907e-15 0
0 0 0

7.9946e-15 -1.97338e-14 0
7.10543e-15 -7.10543e-15 0
0 0 0

-2.31189e-15 -1.97338e-14 0
-3.55271e-15 -1.06581e-14 0
0 0 0

9.08833e-16 2.43555e-14 0
-2.4869e-14 -5.32907e-14 0
0 0 0

1.66975e-14 2.43555e-14 0
-3.01981e-14 -3.01981e-14 0
0 0 0

9.08833e-16 4.01442e-14 0
-2.4869e-14 -6.75016e-14 0
0 0 0

1.66975e-14 4.01442e-14 0
-2.13163e-14 -4.9738e-14 0
0 0 0

2.30661e-14 8.07335e-15 0
-3.19744e-14 1.06581e-14 0
0 0 0

2.06826e-14 8.07335e-15 0
-5.15143e-14 -2.30926e-14 0
0 0 0

2.30661e-14 5.68986e-15 0
-3.01981e-14 -1.77636e-15 0
0 0 0

2.06826e-14 5.68986e-15 0
-4.26326e-14 -1.42109e-14 0
0 0 0

1.67523e-14 -7.87196e-16 0
-3.9968e-14 -4.44089e-15 0
0 0 0

1.1385e-14 -7.87196e-16 0
-4.44089e-14 -1.77636e-15 0
0 0 0

1.67523e-14 -6.15456e-15 0
-5.68434e-14 1.42109e-14 0
0 0 0

1.1385e-14 -6.15456e-15 0
-3.19744e-14 3.55271e-15 0
0 0 0

SCALARS active double 1
LOOKUP_TABLE default
1
1
1
1
1
1
1
1
1
1
1
1
1
1
1
1
1
1
1
1
1
1
1
1
1
1
1
1
1
1
1
1
1
1
1
1
1
1
1
1
1
1
1
1
1
1
1
1
1
1
1
1
1
1
1
1
1
1
1
1
1
1
1
1
SCALARS extent double 1
LOOKUP_TABLE default
0.0125
0.0125
0.0125
0.0125
0.0125
0.0125
0.0125
0.0125
0.0125
0.0125
0.0125
0.0125
0.0125
0.0125
0.0125
0.0125
0.0125
0.0125
0.0125
0.0125
0.0125
0.0125
0.0125
0.0125
0.0125
0.0125
0.0125
0.0125
0.0125
0.0125
0.0125
0.0125
0.0125
0.0125
0.0125
0.0125
0.0125
0.0125
0.0125
0.0125
0.0125
0.0125
0.0125
0.0125
0.0125
0.0125
0.0125
0.0125
0.0125
0.0125
0.0125
0.0125
0.0125
0.0125
0.0125
0.0125
0.0125
0.0125
0.0125
0.0125
0.0125
0.0125
0.0125
0.0125
SCALARS pressure double 1
LOOKUP_TABLE default
1.87082e-11
-9.69692e-12
1.00103e-11
-1.42345e-12
-4.56124e-11
1.19467e-11
-3.75499e-11
1.99334e-11
5.33828e-11
1.00785e-11
5.24351e-11
8.59358e-12
3.87278e-12
2.24985e-12
7.91331e-13
9.15271e-13
1.49197e-11
-8.84086e-12
2.2516e-11
-1.57867e-11
-3.88056e-11
4.17749e-11
-3.83604e-11
3.34043e-11
5.61845e-11
1.23914e-11
6.06092e-11
7.08779e-12
1.45589e-11
4.69833e-12
1.37482e-11
4.76772e-12
2.23802e-11
-1.13432e-11
1.63549e-11
-7.37647e-12
-3.26104e-11
3.54442e-11
-3.39068e-11
3.85065e-11
5.08766e-11
1.5697e-11
5.05222e-11
1.32013e-11
1.75127e-11
3.43578e-12
1.39062e-11
2.76268e-13
8.63298e-12
-9.88561e-12
2.35134e-11
-1.32764e-11
-4.25871e-11
2.63553e-11
-3.41055e-11
2.75535e-11
4.78769e-11
1.49853e-11
3.89089e-11
2.21538e-12
3.71244e-12
-3.84018e-12
-1.86059e-13
-7.56405e-12
SCALARS density double 1
LOOKUP_TABLE default
1000
1000
1000
1000
1000
1000
1000
1000
1000
1000
1000
1000
1000
1000
1000
1000
1000
1000
1000
1000
1000
1000
1000
1000
1000
1000
1000
1000
1000
1000
1000
1000
1000
1000
1000
1000
1000
1000
1000
1000
1000
1000
1000
1000
1000
1000
1000
1000
1000
1000
1000
1000
1000
1000
1000
1000
1000
1000
1000
1000
1000
1000
1000
1000
