# vtk DataFile Version 3.0
Frame: 47, Time: 0.784
ASCII
DATASET UNSTRUCTURED_GRID
POINTS 64 double
0.548146 0.416076 0 
0.566867 0.398324 0 
0.529554 0.397251 0 
0.547611 0.378113 0 
0.58315 0.379457 0 
0.601739 0.36175 0 
0.564662 0.360248 0 
0.584007 0.343131 0 
0.621104 0.345347 0 
0.638383 0.326097 0 
0.602949 0.326318 0 
0.620002 0.308291 0 
0.658715 0.310407 0 
0.678559 0.296288 0 
0.640468 0.292389 0 
0.659442 0.275687 0 
0.511637 0.379416 0 
0.528763 0.360154 0 
0.494137 0.361704 0 
0.512599 0.341744 0 
0.547387 0.34247 0 
0.566581 0.325687 0 
0.531069 0.323218 0 
0.549184 0.306651 0 
0.584915 0.307742 0 
0.602508 0.289927 0 
0.567661 0.28901 0 
0.585892 0.271255 0 
0.622397 0.273286 0 
0.642956 0.256667 0 
0.604893 0.254552 0 
0.624655 0.237603 0 
0.476809 0.342839 0 
0.494021 0.322659 0 
0.460358 0.323666 0 
0.476424 0.303601 0 
0.513236 0.305815 0 
0.531604 0.286635 0 
0.496276 0.286861 0 
0.513296 0.268972 0 
0.550105 0.269282 0 
0.56919 0.252186 0 
0.531907 0.2507 0 
0.550573 0.234278 0 
0.587893 0.233718 0 
0.608175 0.217021 0 
0.569278 0.215493 0 
0.591189 0.198383 0 
0.443782 0.30619 0 
0.459627 0.286192 0 
0.423296 0.2875 0 
0.440426 0.26758 0 
0.478299 0.269373 0 
0.497231 0.249545 0 
0.460049 0.24954 0 
0.479429 0.229811 0 
0.515486 0.231584 0 
0.534075 0.213758 0 
0.496945 0.213488 0 
0.516508 0.195174 0 
0.554482 0.196176 0 
0.575125 0.179742 0 
0.537554 0.177503 0 
0.557775 0.162275 0 
CELLS 64 128
1 0
1 1
1 2
1 3
1 4
1 5
1 6
1 7
1 8
1 9
1 10
1 11
1 12
1 13
1 14
1 15
1 16
1 17
1 18
1 19
1 20
1 21
1 22
1 23
1 24
1 25
1 26
1 27
1 28
1 29
1 30
1 31
1 32
1 33
1 34
1 35
1 36
1 37
1 38
1 39
1 40
1 41
1 42
1 43
1 44
1 45
1 46
1 47
1 48
1 49
1 50
1 51
1 52
1 53
1 54
1 55
1 56
1 57
1 58
1 59
1 60
1 61
1 62
1 63
CELL_TYPES 64
1
1
1
1
1
1
1
1
1
1
1
1
1
1
1
1
1
1
1
1
1
1
1
1
1
1
1
1
1
1
1
1
1
1
1
1
1
1
1
1
1
1
1
1
1
1
1
1
1
1
1
1
1
1
1
1
1
1
1
1
1
1
1
1
POINT_DATA 64
VECTORS displacement double
0.0356457 -0.196424 0 
0.0543667 -0.239176 0 
-0.00794627 -0.215249 0 
0.0101108 -0.259387 0 
0.0706504 -0.283043 0 
0.0892389 -0.32575 0 
0.0271616 -0.302252 0 
0.0465072 -0.344369 0 
0.108604 -0.367153 0 
0.125883 -0.411403 0 
0.0654487 -0.386182 0 
0.0825016 -0.429209 0 
0.146215 -0.452093 0 
0.166059 -0.491212 0 
0.102968 -0.470111 0 
0.121942 -0.511813 0 
-0.0508632 -0.233084 0 
-0.0337372 -0.277346 0 
-0.0933627 -0.250796 0 
-0.0749014 -0.295756 0 
-0.0151131 -0.32003 0 
0.00408102 -0.361813 0 
-0.0564305 -0.339282 0 
-0.0383164 -0.380849 0 
0.0224152 -0.404758 0 
0.0400084 -0.447573 0 
-0.0198386 -0.42349 0 
-0.0016084 -0.466245 0 
0.0598965 -0.489214 0 
0.0804561 -0.530833 0 
0.0173929 -0.507948 0 
0.0371545 -0.549897 0 
-0.135691 -0.269661 0 
-0.118479 -0.314841 0 
-0.177142 -0.288834 0 
-0.161076 -0.333899 0 
-0.0992641 -0.356685 0 
-0.0808958 -0.400865 0 
-0.141224 -0.375639 0 
-0.124204 -0.418528 0 
-0.0623954 -0.443218 0 
-0.0433099 -0.485314 0 
-0.105593 -0.4618 0 
-0.0869269 -0.503222 0 
-0.0246072 -0.528782 0 
-0.00432459 -0.570479 0 
-0.0682222 -0.547007 0 
-0.0463115 -0.589117 0 
-0.218718 -0.30631 0 
-0.202873 -0.351308 0 
-0.264204 -0.325 0 
-0.247074 -0.36992 0 
-0.184201 -0.393127 0 
-0.165269 -0.437955 0 
-0.227451 -0.41296 0 
-0.208071 -0.457689 0 
-0.147014 -0.480916 0 
-0.128425 -0.523742 0 
-0.190555 -0.499012 0 
-0.170992 -0.542326 0 
-0.108018 -0.566324 0 
-0.0873751 -0.607758 0 
-0.149946 -0.584997 0 
-0.129725 -0.625225 0 
VECTORS velocity double
-1.49637 -1.34427 0 
-1.52091 -0.953378 0 
-1.67211 -1.75457 0 
-1.14589 -1.2447 0 
-1.30953 -1.13452 0 
-1.48974 -1.04907 0 
-1.50372 -1.23129 0 
-1.36425 -1.14959 0 
-1.45789 -0.755278 0 
-1.47926 -1.05011 0 
-1.23432 -1.05939 0 
-1.49183 -1.37435 0 
-1.46531 -0.655765 0 
-1.21875 -0.693794 0 
-0.755501 -0.985584 0 
-1.22314 -0.62724 0 
-1.36303 -1.48857 0 
-1.28768 -1.67979 0 
-1.54169 -2.06426 0 
-1.30911 -1.2693 0 
-1.32855 -1.4014 0 
-1.07642 -1.34409 0 
-1.50165 -1.34467 0 
-1.54858 -1.32471 0 
-1.0126 -1.05904 0 
-1.27436 -1.12139 0 
-1.23534 -1.50112 0 
-1.13932 -1.29083 0 
-1.41751 -1.00426 0 
-1.04982 -0.987812 0 
-1.19354 -1.02702 0 
-1.30237 -0.799629 0 
-1.55164 -2.12601 0 
-0.790354 -1.7475 0 
-1.60792 -1.83584 0 
-1.17895 -1.73061 0 
-0.902879 -1.9935 0 
-1.1644 -1.63648 0 
-1.54699 -2.06772 0 
-1.30052 -1.45758 0 
-0.769047 -1.38775 0 
-1.24402 -1.44861 0 
-1.14803 -1.71243 0 
-1.71221 -1.20463 0 
-0.909083 -1.63861 0 
-0.852087 -1.36113 0 
-1.04036 -1.24699 0 
-1.65175 -1.21813 0 
-1.10257 -1.96038 0 
-1.17927 -1.93273 0 
-1.35028 -2.22357 0 
-0.907678 -1.792 0 
-1.5097 -1.86755 0 
-1.05616 -1.55397 0 
-1.10946 -1.97999 0 
-1.3192 -1.98634 0 
-0.944661 -1.83399 0 
-1.43324 -1.63233 0 
-1.14516 -1.53451 0 
-1.10471 -1.54621 0 
-0.696881 -1.01889 0 
-1.2489 -1.25173 0 
-1.22389 -1.73541 0 
-1.16974 -1.2368 0 
SCALARS mass double 1
LOOKUP_TABLE default
0.625
0.625
0.625
0.625
0.625
0.625
0.625
0.625
0.625
0.625
0.625
0.625
0.625
0.625
0.625
0.625
0.625
0.625
0.625
0.625
0.625
0.625
0.625
0.625
0.625
0.625
0.625
0.625
0.625
0.625
0.625
0.625
0.625
0.625
0.625
0.625
0.625
0.625
0.625
0.625
0.625
0.625
0.625
0.625
0.625
0.625
0.625
0.625
0.625
0.625
0.625
0.625
0.625
0.625
0.625
0.625
0.625
0.625
0.625
0.625
0.625
0.625
0.625
0.625
SCALARS volume double 1
LOOKUP_TABLE default
0.000625106
0.000629063
0.000625911
0.000629085
0.000621604
0.000617336
0.000615182
0.000611511
0.000626787
0.000626237
0.00062823
0.00060686
0.000626737
0.000623326
0.00061914
0.0006183
0.000625636
0.000618829
0.000633984
0.000627355
0.000625608
0.000628877
0.000622175
0.000616066
0.000636603
0.0006291
0.000620927
0.000620056
0.000633063
0.00062047
0.000632903
0.000609922
0.000626282
0.000630986
0.000633867
0.000611318
0.000637562
0.000640449
0.000632632
0.000602998
0.000631272
0.000631549
0.00062466
0.000634498
0.000623525
0.000637226
0.000641298
0.000639811
0.000627133
0.000618016
0.000620823
0.000598938
0.000624194
0.000633555
0.000636611
0.000628651
0.000616679
0.000641337
0.000625803
0.000636057
0.000613393
0.000610597
0.000627542
0.000606529
VECTORS momentum double
-0.935228 -0.840168 0 
-0.950567 -0.595861 0 
-1.04507 -1.0966 0 
-0.71618 -0.777935 0 
-0.818458 -0.709077 0 
-0.931084 -0.655671 0 
-0.939827 -0.769559 0 
-0.852654 -0.718494 0 
-0.911181 -0.472049 0 
-0.924536 -0.656322 0 
-0.77145 -0.662117 0 
-0.932393 -0.858968 0 
-0.915822 -0.409853 0 
-0.761719 -0.433622 0 
-0.472188 -0.61599 0 
-0.764462 -0.392025 0 
-0.851891 -0.930359 0 
-0.8048 -1.04987 0 
-0.963554 -1.29016 0 
-0.818192 -0.793309 0 
-0.830342 -0.875875 0 
-0.67276 -0.840054 0 
-0.938528 -0.84042 0 
-0.96786 -0.827944 0 
-0.632875 -0.661899 0 
-0.796477 -0.700868 0 
-0.77209 -0.938198 0 
-0.712073 -0.806768 0 
-0.885944 -0.627663 0 
-0.65614 -0.617383 0 
-0.745965 -0.641889 0 
-0.813978 -0.499768 0 
-0.969776 -1.32876 0 
-0.493971 -1.09219 0 
-1.00495 -1.1474 0 
-0.736844 -1.08163 0 
-0.564299 -1.24594 0 
-0.727751 -1.0228 0 
-0.966869 -1.29233 0 
-0.812823 -0.910986 0 
-0.480654 -0.867341 0 
-0.777513 -0.90538 0 
-0.717522 -1.07027 0 
-1.07013 -0.752892 0 
-0.568177 -1.02413 0 
-0.532554 -0.850707 0 
-0.650223 -0.77937 0 
-1.03234 -0.761329 0 
-0.689106 -1.22524 0 
-0.737042 -1.20796 0 
-0.843923 -1.38973 0 
-0.567299 -1.12 0 
-0.943563 -1.16722 0 
-0.660102 -0.97123 0 
-0.693413 -1.23749 0 
-0.824498 -1.24146 0 
-0.590413 -1.14624 0 
-0.895775 -1.02021 0 
-0.715724 -0.959069 0 
-0.690444 -0.966383 0 
-0.43555 -0.636807 0 
-0.780561 -0.782332 0 
-0.764934 -1.08463 0 
-0.731088 -0.773003 0 
VECTORS body_force double
0 -9.81 0 
0 -9.81 0 
0 -9.81 0 
0 -9.81 0 
0 -9.81 0 
0 -9.81 0 
0 -9.81 0 
0 -9.81 0 
0 -9.81 0 
0 -9.81 0 
0 -9.81 0 
0 -9.81 0 
0 -9.81 0 
0 -9.81 0 
0 -9.81 0 
0 -9.81 0 
0 -9.81 0 
0 -9.81 0 
0 -9.81 0 
0 -9.81 0 
0 -9.81 0 
0 -9.81 0 
0 -9.81 0 
0 -9.81 0 
0 -9.81 0 
0 -9.81 0 
0 -9.81 0 
0 -9.81 0 
0 -9.81 0 
0 -9.81 0 
0 -9.81 0 
0 -9.81 0 
0 -9.81 0 
0 -9.81 0 
0 -9.81 0 
0 -9.81 0 
0 -9.81 0 
0 -9.81 0 
0 -9.81 0 
0 -9.81 0 
0 -9.81 0 
0 -9.81 0 
0 -9.81 0 
0 -9.81 0 
0 -9.81 0 
0 -9.81 0 
0 -9.81 0 
0 -9.81 0 
0 -9.81 0 
0 -9.81 0 
0 -9.81 0 
0 -9.81 0 
0 -9.81 0 
0 -9.81 0 
0 -9.81 0 
0 -9.81 0 
0 -9.81 0 
0 -9.81 0 
0 -9.81 0 
0 -9.81 0 
0 -9.81 0 
0 -9.81 0 
0 -9.81 0 
0 -9.81 0 
TENSORS cauchy_stress double
-621.743 26.496 0
26.496 654.47 0
0 0 9.81832

1681.1 1466.96 0
1466.96 -435.034 0
0 0 373.818

-75.8775 144.171 0
144.171 355.843 0
0 0 83.9896

-2223.76 1049.71 0
1049.71 3476.69 0
0 0 375.88

-1561.32 278.563 0
278.563 513.672 0
0 0 -314.295

-1314.93 1018.53 0
1018.53 -1057.94 0
0 0 -711.862

-890.092 -414.008 0
-414.008 -2154.71 0
0 0 -913.44

-3728.6 -1134.55 0
-1134.55 -467.34 0
0 0 -1258.78

338.873 -420.761 0
-420.761 210.244 0
0 0 164.735

-303.487 -1387.3 0
-1387.3 683.858 0
0 0 114.111

-152.203 1992.45 0
1992.45 1143.59 0
0 0 297.416

-4537.9 -30.1219 0
-30.1219 -1126.19 0
0 0 -1699.23

1515.11 49.1357 0
49.1357 -981.437 0
0 0 160.101

-1065.66 436.698 0
436.698 549.743 0
0 0 -154.776

-980.585 975.843 0
975.843 -831.011 0
0 0 -543.479

-1006.15 1081.16 0
1081.16 -1066.44 0
0 0 -621.776

925.056 671.451 0
671.451 -729.598 0
0 0 58.6374

-37.2444 878.359 0
878.359 -1871.03 0
0 0 -572.484

-294.243 -627.646 0
-627.646 3038.81 0
0 0 823.371

610.576 -501.358 0
-501.358 112.705 0
0 0 216.984

-1194.45 -481.774 0
-481.774 1381.52 0
0 0 56.1229

90.0174 922.879 0
922.879 1099.37 0
0 0 356.817

-2037.84 -2081.35 0
-2081.35 1166.79 0
0 0 -261.316

1197.88 1479.29 0
1479.29 -3966.7 0
0 0 -830.648

-333.024 854.54 0
854.54 3870.41 0
0 0 1061.21

2079.9 -880.973 0
-880.973 -822.487 0
0 0 377.223

1322.66 -324.054 0
-324.054 -2580.1 0
0 0 -377.231

82.4605 532.99 0
532.99 -1609.82 0
0 0 -458.208

2525.48 -593.085 0
-593.085 -60.352 0
0 0 739.538

-2328.12 -1363.08 0
-1363.08 929.102 0
0 0 -419.706

2398.18 1215.19 0
1215.19 18.2219 0
0 0 724.921

-2202 709.063 0
709.063 -2494.24 0
0 0 -1408.87

443.067 -798.697 0
-798.697 -48.9933 0
0 0 118.222

-826.02 1691.64 0
1691.64 2659.23 0
0 0 549.963

2812.12 -2195.69 0
-2195.69 -102.991 0
0 0 812.739

-2326.09 -271.308 0
-271.308 -1930.63 0
0 0 -1277.02

1899.44 -2612.82 0
-2612.82 1927.46 0
0 0 1148.07

-77.7605 -852.192 0
-852.192 4773.61 0
0 0 1408.75

1173.54 524.11 0
524.11 1160.66 0
0 0 700.259

-1140.67 4136.21 0
4136.21 -5751.25 0
0 0 -2067.57

3622.24 1005.66 0
1005.66 -1701.88 0
0 0 576.106

-3688.14 -827.055 0
-827.055 5692.77 0
0 0 601.39

-1433.89 -1890.99 0
-1890.99 1329.4 0
0 0 -31.3476

-1930.95 1364.57 0
1364.57 4831.32 0
0 0 870.112

-3597.22 -478.204 0
-478.204 3142.92 0
0 0 -136.288

539.02 -452.746 0
-452.746 3186.51 0
0 0 1117.66

10388.4 -2766.76 0
-2766.76 -5437.93 0
0 0 1485.14

2040.22 -3218.18 0
-3218.18 2463.93 0
0 0 1351.24

-9.43335 338.775 0
338.775 664.658 0
0 0 196.568

-1267.75 1393.17 0
1393.17 -893.296 0
0 0 -648.315

602.831 -830.246 0
-830.246 -1892.5 0
0 0 -386.902

-5619.34 -3196.09 0
-3196.09 -2571.7 0
0 0 -2457.31

-1157.89 -768.292 0
-768.292 909.679 0
0 0 -74.4645

1438.54 -2607.26 0
-2607.26 1175.93 0
0 0 784.343

1168.05 -994.752 0
-994.752 2371.68 0
0 0 1061.92

196.15 572.43 0
572.43 923.96 0
0 0 336.033

1082.37 -1640.71 0
-1640.71 -3659.88 0
0 0 -773.252

445.374 -1711.94 0
-1711.94 4516.81 0
0 0 1488.65

-1792.86 980.517 0
980.517 2039.66 0
0 0 74.0398

1730.29 -105.551 0
-105.551 1642.17 0
0 0 1011.74

1012.07 -1398.37 0
-1398.37 -4617.05 0
0 0 -1081.49

-7327.88 -1687.72 0
-1687.72 2844.21 0
0 0 -1345.1

1443.04 767.254 0
767.254 -662.435 0
0 0 234.182

-2187.16 1994.04 0
1994.04 -3581.75 0
0 0 -1730.67

TENSORS velocity_gradient double
0.439924 -1.6192 0
5.45584 -0.573471 0
0 0 0

0.0483991 -2.02278 0
4.94982 -0.237101 0
0 0 0

0.786432 -2.2578 0
7.01842 0.521783 0
0 0 0

0.228359 -2.17228 0
6.32698 0.521161 0
0 0 0

-0.0392388 -1.70068 0
5.03347 0.440747 0
0 0 0

-0.823227 -1.32413 0
3.65537 0.229083 0
0 0 0

-0.284999 -1.93897 0
5.06783 0.474055 0
0 0 0

-0.419098 -2.2399 0
5.11526 1.41598 0
0 0 0

-1.32807 -2.5316 0
3.81788 0.374926 0
0 0 0

-0.771279 -3.64083 0
4.50543 -0.00638806 0
0 0 0

-0.721975 -2.46792 0
4.60355 1.21415 0
0 0 0

-0.169396 -3.01387 0
5.13034 0.64456 0
0 0 0

-1.08591 -4.1733 0
4.25753 -0.0876709 0
0 0 0

-0.693045 -3.14002 0
3.95784 0.246924 0
0 0 0

0.0217466 -1.38414 0
5.66861 0.235508 0
0 0 0

0.229235 -1.73039 0
3.79026 0.0436598 0
0 0 0

0.459831 -2.7678 0
7.2553 0.73784 0
0 0 0

0.133289 -2.48009 0
7.37852 0.629274 0
0 0 0

1.64943 -2.90679 0
7.45893 -0.0948871 0
0 0 0

-0.0431665 -2.09645 0
7.43216 1.51194 0
0 0 0

-0.193594 -2.19724 0
6.51429 1.59193 0
0 0 0

-0.393123 -2.23538 0
5.19357 1.54158 0
0 0 0

0.0125686 -2.15158 0
7.37473 1.56874 0
0 0 0

-0.163384 -2.20146 0
6.23183 1.59893 0
0 0 0

-0.361865 -2.26714 0
5.27578 1.45806 0
0 0 0

-0.0309768 -2.03905 0
5.63794 1.37375 0
0 0 0

-0.0492944 -1.21397 0
5.23158 1.2665 0
0 0 0

0.499535 -1.77433 0
5.07427 1.42711 0
0 0 0

-0.337075 -1.7263 0
6.26313 0.802422 0
0 0 0

-0.598934 -1.35073 0
6.6917 0.166349 0
0 0 0

-0.630912 -1.90828 0
6.77984 1.31035 0
0 0 0

0.347896 -0.466846 0
5.84192 2.48644 0
0 0 0

1.80951 -2.95935 0
4.91657 -0.093529 0
0 0 0

0.858187 -2.28873 0
4.09091 1.13577 0
0 0 0

1.02612 -3.67648 0
3.69411 -0.881491 0
0 0 0

0.182209 -2.87417 0
2.50108 0.0641433 0
0 0 0

0.0641478 -2.09813 0
7.32159 1.51367 0
0 0 0

0.111276 -0.596683 0
6.7178 0.254914 0
0 0 0

-0.192274 -0.634393 0
3.83451 -1.08833 0
0 0 0

0.148014 -0.558344 0
5.85444 -0.64604 0
0 0 0

0.393783 -0.74383 0
5.37503 1.01169 0
0 0 0

0.958597 -0.924009 0
4.85424 0.652762 0
0 0 0

0.183602 -0.710712 0
5.08652 -0.548404 0
0 0 0

0.267457 -0.713566 0
4.52161 -2.38151 0
0 0 0

0.260413 1.46568 0
4.15482 -0.739902 0
0 0 0

2.42084 1.19887 0
3.69936 0.764788 0
0 0 0

-0.87018 0.3085 0
3.28138 -1.63388 0
0 0 0

-1.50873 0.0788657 0
2.78099 -0.616643 0
0 0 0

-0.0900842 -3.37361 0
3.96676 -1.10882 0
0 0 0

-0.33504 -1.44513 0
2.61415 0.243706 0
0 0 0

0.974162 -1.71917 0
4.00276 -1.18321 0
0 0 0

0.958251 -1.70557 0
2.53498 0.0710704 0
0 0 0

-0.730262 -1.00811 0
3.30507 -0.520299 0
0 0 0

-0.508185 -0.612202 0
4.3273 -1.41643 0
0 0 0

-0.92727 0.059482 0
3.88304 -1.32558 0
0 0 0

0.372972 0.750459 0
3.15884 -2.72536 0
0 0 0

0.202064 -0.942345 0
5.16079 -1.97835 0
0 0 0

0.213651 -0.954322 0
5.5049 -2.33404 0
0 0 0

1.24381 -0.580214 0
3.39241 -1.92455 0
0 0 0

-0.108372 -0.757746 0
5.43539 -1.06221 0
0 0 0

-1.43361 0.601525 0
2.91312 0.111139 0
0 0 0

-0.626794 -0.245023 0
3.42883 0.161146 0
0 0 0

-1.2385 0.761728 0
4.32572 0.699619 0
0 0 0

0.556068 0.934799 0
4.30544 1.0355 0
0 0 0

SCALARS active double 1
LOOKUP_TABLE default
1
1
1
1
1
1
1
1
1
1
1
1
1
1
1
1
1
1
1
1
1
1
1
1
1
1
1
1
1
1
1
1
1
1
1
1
1
1
1
1
1
1
1
1
1
1
1
1
1
1
1
1
1
1
1
1
1
1
1
1
1
1
1
1
SCALARS extent double 1
LOOKUP_TABLE default
0.0125
0.0125
0.0125
0.0125
0.0125
0.0125
0.0125
0.0125
0.0125
0.0125
0.0125
0.0125
0.0125
0.0125
0.0125
0.0125
0.0125
0.0125
0.0125
0.0125
0.0125
0.0125
0.0125
0.0125
0.0125
0.0125
0.0125
0.0125
0.0125
0.0125
0.0125
0.0125
0.0125
0.0125
0.0125
0.0125
0.0125
0.0125
0.0125
0.0125
0.0125
0.0125
0.0125
0.0125
0.0125
0.0125
0.0125
0.0125
0.0125
0.0125
0.0125
0.0125
0.0125
0.0125
0.0125
0.0125
0.0125
0.0125
0.0125
0.0125
0.0125
0.0125
0.0125
0.0125
SCALARS pressure double 1
LOOKUP_TABLE default
-14.182
-539.96
-121.318
-542.937
453.982
1028.25
1319.41
1818.24
-237.951
-164.827
-429.601
2454.44
-231.257
223.566
785.025
898.121
-84.6985
826.921
-1189.31
-313.422
-81.0665
-515.402
377.456
1199.82
-1532.87
-544.878
544.89
661.856
-1068.22
606.242
-1047.11
2035.04
-170.765
-794.391
-1173.96
1844.58
-1658.32
-2034.87
-1011.49
2986.5
-832.153
-868.675
45.2799
-1256.83
196.86
-1614.39
-2145.2
-1951.8
-283.931
936.455
558.858
3549.45
107.56
-1132.94
-1533.88
-485.381
1116.92
-2150.28
-106.946
-1461.4
1562.16
1942.93
-338.264
2499.86
SCALARS density double 1
LOOKUP_TABLE default
999.83
993.541
998.545
993.506
1005.46
1012.42
1015.96
1022.06
997.149
998.024
994.858
1029.89
997.229
1002.69
1009.46
1010.84
998.984
1009.97
985.83
996.246
999.028
993.834
1004.54
1014.5
981.774
993.483
1006.56
1007.97
987.263
1007.3
987.513
1024.72
997.953
990.513
986.011
1022.38
980.297
975.877
987.936
1036.49
990.064
989.63
1000.54
985.031
1002.37
980.814
974.586
976.851
996.599
1011.3
1006.73
1043.51
1001.29
986.497
981.762
994.192
1013.49
974.527
998.717
982.616
1018.92
1023.59
995.949
1030.45
