# vtk DataFile Version 3.0
Frame: 10, Time: 0.167
ASCII
DATASET UNSTRUCTURED_GRID
POINTS 64 double
0.5125 0.473237 0 
0.5125 0.498237 0 
0.5375 0.473237 0 
0.5375 0.498237 0 
0.5125 0.523237 0 
0.5125 0.548237 0 
0.5375 0.523237 0 
0.5375 0.548237 0 
0.5125 0.573237 0 
0.5125 0.598237 0 
0.5375 0.573237 0 
0.5375 0.598237 0 
0.5125 0.623237 0 
0.5125 0.648237 0 
0.5375 0.623237 0 
0.5375 0.648237 0 
0.5625 0.473237 0 
0.5625 0.498237 0 
0.5875 0.473237 0 
0.5875 0.498237 0 
0.5625 0.523237 0 
0.5625 0.548237 0 
0.5875 0.523237 0 
0.5875 0.548237 0 
0.5625 0.573237 0 
0.5625 0.598237 0 
0.5875 0.573237 0 
0.5875 0.598237 0 
0.5625 0.623237 0 
0.5625 0.648237 0 
0.5875 0.623237 0 
0.5875 0.648237 0 
0.6125 0.473237 0 
0.6125 0.498237 0 
0.6375 0.473237 0 
0.6375 0.498237 0 
0.6125 0.523237 0 
0.6125 0.548237 0 
0.6375 0.523237 0 
0.6375 0.548237 0 
0.6125 0.573237 0 
0.6125 0.598237 0 
0.6375 0.573237 0 
0.6375 0.598237 0 
0.6125 0.623237 0 
0.6125 0.648237 0 
0.6375 0.623237 0 
0.6375 0.648237 0 
0.6625 0.473237 0 
0.6625 0.498237 0 
0.6875 0.473237 0 
0.6875 0.498237 0 
0.6625 0.523237 0 
0.6625 0.548237 0 
0.6875 0.523237 0 
0.6875 0.548237 0 
0.6625 0.573237 0 
0.6625 0.598237 0 
0.6875 0.573237 0 
0.6875 0.598237 0 
0.6625 0.623237 0 
0.6625 0.648237 0 
0.6875 0.623237 0 
0.6875 0.648237 0 
CELLS 64 128
1 0
1 1
1 2
1 3
1 4
1 5
1 6
1 7
1 8
1 9
1 10
1 11
1 12
1 13
1 14
1 15
1 16
1 17
1 18
1 19
1 20
1 21
1 22
1 23
1 24
1 25
1 26
1 27
1 28
1 29
1 30
1 31
1 32
1 33
1 34
1 35
1 36
1 37
1 38
1 39
1 40
1 41
1 42
1 43
1 44
1 45
1 46
1 47
1 48
1 49
1 50
1 51
1 52
1 53
1 54
1 55
1 56
1 57
1 58
1 59
1 60
1 61
1 62
1 63
CELL_TYPES 64
1
1
1
1
1
1
1
1
1
1
1
1
1
1
1
1
1
1
1
1
1
1
1
1
1
1
1
1
1
1
1
1
1
1
1
1
1
1
1
1
1
1
1
1
1
1
1
1
1
1
1
1
1
1
1
1
1
1
1
1
1
1
1
1
POINT_DATA 64
VECTORS displacement double
-1.11002e-16 -0.139263 0 
-2.61074e-17 -0.139263 0 
-8.52522e-17 -0.139263 0 
-2.59346e-17 -0.139263 0 
2.1969e-17 -0.139263 0 
2.4691e-17 -0.139263 0 
1.35711e-17 -0.139263 0 
2.76002e-17 -0.139263 0 
2.36746e-17 -0.139263 0 
8.15928e-17 -0.139263 0 
4.45137e-17 -0.139263 0 
9.17841e-17 -0.139263 0 
1.38692e-16 -0.139263 0 
1.63304e-16 -0.139263 0 
1.35498e-16 -0.139263 0 
1.6359e-16 -0.139263 0 
-6.59906e-17 -0.139263 0 
-2.50696e-17 -0.139263 0 
-5.32174e-17 -0.139263 0 
-2.35122e-17 -0.139263 0 
7.66103e-18 -0.139263 0 
2.98123e-17 -0.139263 0 
4.23883e-18 -0.139263 0 
3.13272e-17 -0.139263 0 
5.68711e-17 -0.139263 0 
9.61571e-17 -0.139263 0 
6.07469e-17 -0.139263 0 
9.47116e-17 -0.139263 0 
1.31561e-16 -0.139263 0 
1.61208e-16 -0.139263 0 
1.26882e-16 -0.139263 0 
1.56158e-16 -0.139263 0 
-4.10753e-17 -0.139263 0 
-2.24998e-17 -0.139263 0 
-2.95643e-17 -0.139263 0 
-2.20324e-17 -0.139263 0 
4.8456e-19 -0.139263 0 
3.27491e-17 -0.139263 0 
-3.60179e-18 -0.139263 0 
3.40779e-17 -0.139263 0 
6.44068e-17 -0.139263 0 
9.26517e-17 -0.139263 0 
6.78508e-17 -0.139263 0 
8.99772e-17 -0.139263 0 
1.21938e-16 -0.139263 0 
1.51686e-16 -0.139263 0 
1.16729e-16 -0.139263 0 
1.47791e-16 -0.139263 0 
-1.14487e-17 -0.139263 0 
-2.04037e-17 -0.139263 0 
1.32716e-17 -0.139263 0 
-1.76136e-17 -0.139263 0 
-9.1723e-18 -0.139263 0 
3.63733e-17 -0.139263 0 
-1.6227e-17 -0.139263 0 
3.96353e-17 -0.139263 0 
7.99424e-17 -0.139263 0 
9.30048e-17 -0.139263 0 
1.00682e-16 -0.139263 0 
1.01735e-16 -0.139263 0 
1.12281e-16 -0.139263 0 
1.46253e-16 -0.139263 0 
1.08593e-16 -0.139263 0 
1.47072e-16 -0.139263 0 
VECTORS velocity double
-1.70316e-14 -1.64808 0 
9.7312e-15 -1.64808 0 
-8.61457e-15 -1.64808 0 
1.98867e-15 -1.64808 0 
1.19939e-14 -1.64808 0 
4.43819e-16 -1.64808 0 
3.94421e-15 -1.64808 0 
4.66486e-16 -1.64808 0 
-5.99972e-15 -1.64808 0 
7.22099e-17 -1.64808 0 
-8.05325e-16 -1.64808 0 
2.29226e-16 -1.64808 0 
-3.47053e-15 -1.64808 0 
-2.64726e-15 -1.64808 0 
-2.55108e-15 -1.64808 0 
-9.88664e-17 -1.64808 0 
-3.81144e-15 -1.64808 0 
-1.39618e-15 -1.64808 0 
-2.62227e-15 -1.64808 0 
-4.23343e-16 -1.64808 0 
3.67049e-17 -1.64808 0 
5.55843e-16 -1.64808 0 
2.71404e-16 -1.64808 0 
7.11888e-16 -1.64808 0 
1.74125e-15 -1.64808 0 
7.58281e-16 -1.64808 0 
1.64e-15 -1.64808 0 
1.65938e-15 -1.64808 0 
-1.33068e-15 -1.64808 0 
1.20055e-15 -1.64808 0 
1.9067e-16 -1.64808 0 
1.25097e-15 -1.64808 0 
-8.90708e-16 -1.64808 0 
3.31048e-16 -1.64808 0 
1.38324e-15 -1.64808 0 
8.67e-16 -1.64808 0 
3.46682e-16 -1.64808 0 
8.33417e-16 -1.64808 0 
2.62541e-16 -1.64808 0 
9.2043e-16 -1.64808 0 
1.21679e-15 -1.64808 0 
2.06407e-15 -1.64808 0 
4.71629e-16 -1.64808 0 
1.97235e-15 -1.64808 0 
1.60569e-15 -1.64808 0 
1.54302e-15 -1.64808 0 
2.91439e-15 -1.64808 0 
2.07669e-15 -1.64808 0 
6.77586e-15 -1.64808 0 
-2.43189e-15 -1.64808 0 
1.52872e-14 -1.64808 0 
-9.56563e-15 -1.64808 0 
-3.75801e-15 -1.64808 0 
1.10229e-15 -1.64808 0 
-1.1715e-14 -1.64808 0 
1.37899e-15 -1.64808 0 
2.42946e-15 -1.64808 0 
1.46003e-15 -1.64808 0 
7.09029e-15 -1.64808 0 
5.27109e-16 -1.64808 0 
3.9571e-15 -1.64808 0 
3.60589e-15 -1.64808 0 
4.73383e-15 -1.64808 0 
6.13064e-15 -1.64808 0 
SCALARS mass double 1
LOOKUP_TABLE default
0.625
0.625
0.625
0.625
0.625
0.625
0.625
0.625
0.625
0.625
0.625
0.625
0.625
0.625
0.625
0.625
0.625
0.625
0.625
0.625
0.625
0.625
0.625
0.625
0.625
0.625
0.625
0.625
0.625
0.625
0.625
0.625
0.625
0.625
0.625
0.625
0.625
0.625
0.625
0.625
0.625
0.625
0.625
0.625
0.625
0.625
0.625
0.625
0.625
0.625
0.625
0.625
0.625
0.625
0.625
0.625
0.625
0.625
0.625
0.625
0.625
0.625
0.625
0.625
SCALARS volume double 1
LOOKUP_TABLE default
0.000625
0.000625
0.000625
0.000625
0.000625
0.000625
0.000625
0.000625
0.000625
0.000625
0.000625
0.000625
0.000625
0.000625
0.000625
0.000625
0.000625
0.000625
0.000625
0.000625
0.000625
0.000625
0.000625
0.000625
0.000625
0.000625
0.000625
0.000625
0.000625
0.000625
0.000625
0.000625
0.000625
0.000625
0.000625
0.000625
0.000625
0.000625
0.000625
0.000625
0.000625
0.000625
0.000625
0.000625
0.000625
0.000625
0.000625
0.000625
0.000625
0.000625
0.000625
0.000625
0.000625
0.000625
0.000625
0.000625
0.000625
0.000625
0.000625
0.000625
0.000625
0.000625
0.000625
0.000625
VECTORS momentum double
-1.06448e-14 -1.03005 0 
6.082e-15 -1.03005 0 
-5.3841e-15 -1.03005 0 
1.24292e-15 -1.03005 0 
7.49621e-15 -1.03005 0 
2.77387e-16 -1.03005 0 
2.46513e-15 -1.03005 0 
2.91554e-16 -1.03005 0 
-3.74983e-15 -1.03005 0 
4.51312e-17 -1.03005 0 
-5.03328e-16 -1.03005 0 
1.43266e-16 -1.03005 0 
-2.16908e-15 -1.03005 0 
-1.65454e-15 -1.03005 0 
-1.59443e-15 -1.03005 0 
-6.17915e-17 -1.03005 0 
-2.38215e-15 -1.03005 0 
-8.7261e-16 -1.03005 0 
-1.63892e-15 -1.03005 0 
-2.6459e-16 -1.03005 0 
2.29406e-17 -1.03005 0 
3.47402e-16 -1.03005 0 
1.69627e-16 -1.03005 0 
4.4493e-16 -1.03005 0 
1.08828e-15 -1.03005 0 
4.73926e-16 -1.03005 0 
1.025e-15 -1.03005 0 
1.03711e-15 -1.03005 0 
-8.31676e-16 -1.03005 0 
7.50341e-16 -1.03005 0 
1.19169e-16 -1.03005 0 
7.81858e-16 -1.03005 0 
-5.56693e-16 -1.03005 0 
2.06905e-16 -1.03005 0 
8.64524e-16 -1.03005 0 
5.41875e-16 -1.03005 0 
2.16676e-16 -1.03005 0 
5.20886e-16 -1.03005 0 
1.64088e-16 -1.03005 0 
5.75269e-16 -1.03005 0 
7.60494e-16 -1.03005 0 
1.29004e-15 -1.03005 0 
2.94768e-16 -1.03005 0 
1.23272e-15 -1.03005 0 
1.00356e-15 -1.03005 0 
9.64388e-16 -1.03005 0 
1.82149e-15 -1.03005 0 
1.29793e-15 -1.03005 0 
4.23491e-15 -1.03005 0 
-1.51993e-15 -1.03005 0 
9.55448e-15 -1.03005 0 
-5.97852e-15 -1.03005 0 
-2.34876e-15 -1.03005 0 
6.8893e-16 -1.03005 0 
-7.32186e-15 -1.03005 0 
8.6187e-16 -1.03005 0 
1.51841e-15 -1.03005 0 
9.12519e-16 -1.03005 0 
4.43143e-15 -1.03005 0 
3.29443e-16 -1.03005 0 
2.47319e-15 -1.03005 0 
2.25368e-15 -1.03005 0 
2.95864e-15 -1.03005 0 
3.83165e-15 -1.03005 0 
VECTORS body_force double
0 -9.81 0 
0 -9.81 0 
0 -9.81 0 
0 -9.81 0 
0 -9.81 0 
0 -9.81 0 
0 -9.81 0 
0 -9.81 0 
0 -9.81 0 
0 -9.81 0 
0 -9.81 0 
0 -9.81 0 
0 -9.81 0 
0 -9.81 0 
0 -9.81 0 
0 -9.81 0 
0 -9.81 0 
0 -9.81 0 
0 -9.81 0 
0 -9.81 0 
0 -9.81 0 
0 -9.81 0 
0 -9.81 0 
0 -9.81 0 
0 -9.81 0 
0 -9.81 0 
0 -9.81 0 
0 -9.81 0 
0 -9.81 0 
0 -9.81 0 
0 -9.81 0 
0 -9.81 0 
0 -9.81 0 
0 -9.81 0 
0 -9.81 0 
0 -9.81 0 
0 -9.81 0 
0 -9.81 0 
0 -9.81 0 
0 -9.81 0 
0 -9.81 0 
0 -9.81 0 
0 -9.81 0 
0 -9.81 0 
0 -9.81 0 
0 -9.81 0 
0 -9.81 0 
0 -9.81 0 
0 -9.81 0 
0 -9.81 0 
0 -9.81 0 
0 -9.81 0 
0 -9.81 0 
0 -9.81 0 
0 -9.81 0 
0 -9.81 0 
0 -9.81 0 
0 -9.81 0 
0 -9.81 0 
0 -9.81 0 
0 -9.81 0 
0 -9.81 0 
0 -9.81 0 
0 -9.81 0 
TENSORS cauchy_stress double
2.93328e-11 5.67537e-11 0
5.67537e-11 -1.9566e-10 0
0 0 -4.98981e-11

2.65395e-11 5.72263e-12 0
5.72263e-12 6.01537e-11 0
0 0 2.60079e-11

7.65883e-11 3.16879e-12 0
3.16879e-12 -8.53969e-11 0
0 0 -2.64259e-12

5.94762e-11 -7.79121e-12 0
-7.79121e-12 1.37006e-10 0
0 0 5.89447e-11

-2.3516e-11 -1.42696e-11 0
-1.42696e-11 3.12615e-11 0
0 0 2.32364e-12

1.02499e-10 -3.85033e-11 0
-3.85033e-11 2.09327e-10 0
0 0 9.35479e-11

2.19777e-12 -1.05192e-11 0
-1.05192e-11 9.12604e-11 0
0 0 2.80374e-11

9.375e-11 -2.88243e-11 0
-2.88243e-11 1.88912e-10 0
0 0 8.47985e-11

2.91023e-11 -2.34641e-11 0
-2.34641e-11 -1.45829e-10 0
0 0 -3.5018e-11

-1.59145e-10 5.5193e-11 0
5.5193e-11 -4.75864e-10 0
0 0 -1.90503e-10

2.50566e-11 -1.03883e-11 0
-1.03883e-11 -1.55269e-10 0
0 0 -3.90636e-11

-1.48848e-10 2.38091e-11 0
2.38091e-11 -4.5184e-10 0
0 0 -1.80206e-10

-1.24506e-12 1.2898e-11 0
1.2898e-11 2.98565e-11 0
0 0 8.58342e-12

4.31067e-11 -2.39892e-11 0
-2.39892e-11 9.76478e-11 0
0 0 4.22264e-11

8.20198e-13 5.65194e-12 0
5.65194e-12 3.46754e-11 0
0 0 1.06487e-11

4.76287e-11 -4.47341e-12 0
-4.47341e-12 1.08199e-10 0
0 0 4.67484e-11

1.47241e-11 4.24824e-11 0
4.24824e-11 -9.66507e-11 0
0 0 -2.4578e-11

7.08727e-11 8.15965e-12 0
8.15965e-12 1.49397e-10 0
0 0 6.60808e-11

1.26192e-11 1.2071e-11 0
1.2071e-11 -1.01562e-10 0
0 0 -2.66829e-11

8.28135e-11 -1.88683e-12 0
-1.88683e-12 1.77258e-10 0
0 0 7.80216e-11

2.68447e-11 -6.96999e-12 0
-6.96999e-12 9.7737e-11 0
0 0 3.73745e-11

7.45498e-11 -1.78912e-11 0
-1.78912e-11 1.58412e-10 0
0 0 6.98884e-11

2.88843e-11 -9.71378e-12 0
-9.71378e-12 1.02496e-10 0
0 0 3.94141e-11

9.20102e-11 -1.54528e-11 0
-1.54528e-11 1.99153e-10 0
0 0 8.73488e-11

-6.92424e-11 -2.12236e-12 0
-2.12236e-12 -2.01317e-10 0
0 0 -8.11678e-11

-2.14788e-10 1.62615e-11 0
1.62615e-11 -4.86346e-10 0
0 0 -2.1034e-10

-4.62051e-11 9.50273e-13 0
9.50273e-13 -1.47563e-10 0
0 0 -5.81305e-11

-2.16549e-10 8.64176e-12 0
8.64176e-12 -4.90456e-10 0
0 0 -2.12101e-10

2.19008e-12 -2.14624e-13 0
-2.14624e-13 5.31038e-11 0
0 0 1.65882e-11

3.12461e-11 -8.44629e-12 0
-8.44629e-12 1.247e-10 0
0 0 4.67839e-11

-4.75548e-12 -2.91489e-13 0
-2.91489e-13 3.68975e-11 0
0 0 9.64261e-12

1.00644e-11 1.84828e-12 0
1.84828e-12 7.52761e-11 0
0 0 2.56021e-11

5.39214e-12 -2.22967e-11 0
-2.22967e-11 -1.0548e-10 0
0 0 -3.00263e-11

8.95496e-11 -1.06914e-11 0
-1.06914e-11 2.04155e-10 0
0 0 8.81115e-11

2.04562e-11 -4.69704e-11 0
-4.69704e-11 -7.03303e-11 0
0 0 -1.49622e-11

8.86209e-11 -2.40604e-11 0
-2.40604e-11 2.01988e-10 0
0 0 8.71828e-11

3.27393e-11 4.73782e-12 0
4.73782e-12 1.18303e-10 0
0 0 4.53126e-11

7.62743e-11 6.7584e-12 0
6.7584e-12 1.64345e-10 0
0 0 7.21858e-11

2.28061e-11 5.42131e-12 0
5.42131e-12 9.51255e-11 0
0 0 3.53795e-11

7.928e-11 1.6833e-11 0
1.6833e-11 1.71358e-10 0
0 0 7.51914e-11

-4.91072e-11 1.77295e-13 0
1.77295e-13 -1.49907e-10 0
0 0 -5.97041e-11

-2.24348e-10 1.78222e-14 0
1.78222e-14 -4.96049e-10 0
0 0 -2.16119e-10

-6.10311e-11 2.49253e-12 0
2.49253e-12 -1.77729e-10 0
0 0 -7.16281e-11

-2.2228e-10 -5.25059e-12 0
-5.25059e-12 -4.91222e-10 0
0 0 -2.1405e-10

-5.52116e-12 1.91391e-12 0
1.91391e-12 4.05375e-11 0
0 0 1.05049e-11

2.74876e-11 7.08002e-12 0
7.08002e-12 1.04087e-10 0
0 0 3.94725e-11

9.25605e-13 5.42852e-12 0
5.42852e-12 5.558e-11 0
0 0 1.69517e-11

3.18014e-11 1.35345e-11 0
1.35345e-11 1.14153e-10 0
0 0 4.37864e-11

6.82483e-11 -1.22163e-11 0
-1.22163e-11 -9.42951e-11 0
0 0 -7.81402e-12

6.70155e-11 -5.99154e-12 0
-5.99154e-12 1.27753e-10 0
0 0 5.84307e-11

2.52531e-11 -6.21115e-11 0
-6.21115e-11 -1.94617e-10 0
0 0 -5.08093e-11

3.24806e-11 -1.17494e-11 0
-1.17494e-11 4.71721e-11 0
0 0 2.38958e-11

4.48043e-13 1.17128e-11 0
1.17128e-11 7.34012e-11 0
0 0 2.21548e-11

8.22232e-11 2.5602e-11 0
2.5602e-11 1.58397e-10 0
0 0 7.2186e-11

-2.90004e-11 7.85817e-12 0
7.85817e-12 4.68823e-12 0
0 0 -7.29364e-12

1.06074e-10 4.86532e-11 0
4.86532e-11 2.1405e-10 0
0 0 9.60372e-11

1.99149e-11 1.43715e-11 0
1.43715e-11 -1.66242e-10 0
0 0 -4.38981e-11

-1.56607e-10 -2.00672e-11 0
-2.00672e-11 -4.54951e-10 0
0 0 -1.83467e-10

1.2543e-11 2.55268e-11 0
2.55268e-11 -1.83443e-10 0
0 0 -5.12701e-11

-1.55082e-10 -5.47935e-11 0
-5.47935e-11 -4.51394e-10 0
0 0 -1.81943e-10

5.14052e-12 -8.38523e-12 0
-8.38523e-12 4.98199e-11 0
0 0 1.64881e-11

5.38669e-11 1.839e-12 0
1.839e-12 1.17284e-10 0
0 0 5.13452e-11

2.14572e-12 -2.98258e-12 0
-2.98258e-12 4.2832e-11 0
0 0 1.34933e-11

5.01711e-11 1.91695e-11 0
1.91695e-11 1.08661e-10 0
0 0 4.76495e-11

TENSORS velocity_gradient double
7.40662e-15 2.12434e-13 0
-9.76996e-14 1.59872e-14 0
0 0 0

-5.14996e-14 1.20277e-13 0
-6.92779e-14 1.43885e-13 0
0 0 0

7.40662e-15 1.44733e-13 0
-1.06581e-13 2.13163e-14 0
0 0 0

-5.14996e-14 8.77549e-14 0
-9.14824e-14 1.64313e-13 0
0 0 0

-5.66514e-14 2.46746e-14 0
-4.61853e-14 -7.4607e-14 0
0 0 0

-4.67169e-14 -3.7738e-14 0
-3.33067e-14 -1.90958e-14 0
0 0 0

-5.66514e-14 2.86463e-14 0
-4.26326e-14 -2.84217e-14 0
0 0 0

-4.67169e-14 -9.91521e-15 0
-4.08562e-14 1.77636e-15 0
0 0 0

-3.36981e-16 -1.02484e-13 0
-6.39488e-14 9.23706e-14 0
0 0 0

4.41982e-14 -4.44096e-14 0
-9.68114e-14 -2.3892e-13 0
0 0 0

-3.36981e-16 -4.99183e-14 0
-6.39488e-14 6.39488e-14 0
0 0 0

4.41982e-14 -2.39657e-14 0
-9.68114e-14 -2.3892e-13 0
0 0 0

3.96502e-14 1.58357e-14 0
-9.23706e-14 2.13163e-14 0
0 0 0

2.50775e-14 4.47043e-14 0
-5.59552e-14 1.71418e-13 0
0 0 0

3.96502e-14 2.95702e-15 0
-7.81597e-14 4.9738e-14 0
0 0 0

2.50775e-14 2.50497e-14 0
-5.68434e-14 1.98952e-13 0
0 0 0

5.33448e-14 8.99358e-14 0
-5.32907e-15 3.73035e-14 0
0 0 0

1.60164e-14 5.96784e-14 0
-2.93099e-14 1.55431e-13 0
0 0 0

5.33448e-14 4.80416e-14 0
-7.10543e-15 4.9738e-14 0
0 0 0

1.60164e-14 3.60477e-14 0
-2.22045e-14 1.34115e-13 0
0 0 0

6.59534e-15 2.82899e-14 0
-4.61853e-14 -4.61853e-14 0
0 0 0

4.65351e-15 7.13922e-15 0
-4.21885e-14 -2.79776e-14 0
0 0 0

6.59534e-15 2.36054e-14 0
-4.26326e-14 -4.26326e-14 0
0 0 0

4.65351e-15 1.34252e-14 0
-4.79616e-14 3.73035e-14 0
0 0 0

1.9475e-14 -1.48021e-14 0
-4.08562e-14 1.77636e-15 0
0 0 0

3.51082e-14 -8.97714e-15 0
-1.37668e-14 -2.4114e-13 0
0 0 0

1.9475e-14 2.86446e-15 0
-2.84217e-14 5.68434e-14 0
0 0 0

3.51082e-14 5.56127e-16 0
-2.13163e-14 -2.20268e-13 0
0 0 0

3.83135e-14 -2.93438e-15 0
-2.30926e-14 6.21725e-14 0
0 0 0

3.66777e-14 1.0307e-14 0
-5.19584e-14 2.03837e-13 0
0 0 0

3.83135e-14 -1.8385e-15 0
-2.13163e-14 6.39488e-14 0
0 0 0

3.66777e-14 4.76194e-16 0
-2.39808e-14 2.03393e-13 0
0 0 0

6.0047e-14 1.95969e-15 0
-4.61853e-14 2.4869e-14 0
0 0 0

1.5089e-14 9.7205e-15 0
-2.04281e-14 1.64313e-13 0
0 0 0

6.0047e-14 -4.83098e-14 0
-3.55271e-14 3.55271e-14 0
0 0 0

1.5089e-14 -1.93031e-14 0
-8.88178e-16 1.55431e-13 0
0 0 0

2.59538e-15 1.77714e-14 0
-2.13163e-14 -7.10543e-15 0
0 0 0

-1.98667e-15 1.78795e-14 0
-1.5099e-14 -1.5099e-14 0
0 0 0

2.59538e-15 1.07879e-14 0
7.10543e-15 -4.9738e-14 0
0 0 0

-1.98667e-15 2.0502e-14 0
5.32907e-15 3.37508e-14 0
0 0 0

8.10973e-15 1.79916e-14 0
-8.88178e-15 6.21725e-14 0
0 0 0

2.02849e-14 1.07916e-14 0
3.10862e-14 -2.67342e-13 0
0 0 0

8.10973e-15 3.05793e-14 0
7.10543e-15 7.81597e-14 0
0 0 0

2.02849e-14 2.17292e-14 0
-7.99361e-15 -2.49578e-13 0
0 0 0

2.99387e-14 3.32236e-15 0
2.84217e-14 5.68434e-14 0
0 0 0

3.68555e-14 -4.44427e-15 0
1.37668e-14 2.12719e-13 0
0 0 0

2.99387e-14 1.25482e-14 0
2.84217e-14 5.68434e-14 0
0 0 0

3.68555e-14 -4.45442e-15 0
1.5099e-14 2.28262e-13 0
0 0 0

1.98998e-14 -1.10018e-13 0
9.9476e-14 4.26326e-14 0
0 0 0

-4.41232e-14 -5.21402e-14 0
5.63993e-14 1.70086e-13 0
0 0 0

1.98998e-14 -1.83165e-13 0
1.06581e-13 2.13163e-14 0
0 0 0

-4.41232e-14 -8.87907e-14 0
6.4837e-14 1.0747e-13 0
0 0 0

-5.2378e-14 7.90134e-15 0
2.4869e-14 -4.61853e-14 0
0 0 0

-4.58644e-14 3.30247e-14 0
-2.26485e-14 5.77316e-15 0
0 0 0

-5.2378e-14 9.11181e-15 0
0 -9.9476e-14 0
0 0 0

-4.58644e-14 5.54475e-14 0
-2.04281e-14 2.22045e-14 0
0 0 0

-6.93759e-15 5.90872e-14 0
-5.32907e-15 6.57252e-14 0
0 0 0

3.1148e-14 3.6727e-14 0
4.04121e-14 -2.43805e-13 0
0 0 0

-6.93759e-15 1.03515e-13 0
0 9.9476e-14 0
0 0 0

3.1148e-14 5.57852e-14 0
3.55271e-14 -1.77636e-13 0
0 0 0

3.04673e-14 1.3531e-14 0
1.95399e-14 6.21725e-14 0
0 0 0

2.23719e-14 -9.75995e-15 0
2.39808e-14 2.08722e-13 0
0 0 0

3.04673e-14 6.27063e-15 0
3.55271e-14 2.13163e-14 0
0 0 0

2.23719e-14 -2.03609e-14 0
2.22045e-14 2.35367e-13 0
0 0 0

SCALARS active double 1
LOOKUP_TABLE default
1
1
1
1
1
1
1
1
1
1
1
1
1
1
1
1
1
1
1
1
1
1
1
1
1
1
1
1
1
1
1
1
1
1
1
1
1
1
1
1
1
1
1
1
1
1
1
1
1
1
1
1
1
1
1
1
1
1
1
1
1
1
1
1
SCALARS extent double 1
LOOKUP_TABLE default
0.0125
0.0125
0.0125
0.0125
0.0125
0.0125
0.0125
0.0125
0.0125
0.0125
0.0125
0.0125
0.0125
0.0125
0.0125
0.0125
0.0125
0.0125
0.0125
0.0125
0.0125
0.0125
0.0125
0.0125
0.0125
0.0125
0.0125
0.0125
0.0125
0.0125
0.0125
0.0125
0.0125
0.0125
0.0125
0.0125
0.0125
0.0125
0.0125
0.0125
0.0125
0.0125
0.0125
0.0125
0.0125
0.0125
0.0125
0.0125
0.0125
0.0125
0.0125
0.0125
0.0125
0.0125
0.0125
0.0125
0.0125
0.0125
0.0125
0.0125
0.0125
0.0125
0.0125
0.0125
SCALARS pressure double 1
LOOKUP_TABLE default
7.2075e-11
-3.7567e-11
3.81707e-12
-8.51424e-11
-3.35636e-12
-1.35125e-10
-4.04985e-11
-1.22487e-10
5.05816e-11
2.7517e-10
5.64253e-11
2.60298e-10
-1.23983e-11
-6.09936e-11
-1.53814e-11
-6.75254e-11
3.55015e-11
-9.54501e-11
3.85419e-11
-1.12698e-10
-5.39854e-11
-1.0095e-10
-5.69315e-11
-1.26171e-10
1.17242e-10
3.03824e-10
8.39663e-11
3.06369e-10
-2.39607e-11
-6.75768e-11
-1.39282e-11
-3.69809e-11
4.33713e-11
-1.27272e-10
2.16121e-11
-1.25931e-10
-6.54516e-11
-1.04268e-10
-5.11037e-11
-1.0861e-10
8.62393e-11
3.12172e-10
1.03463e-10
3.09184e-10
-1.51737e-11
-5.70159e-11
-2.44857e-11
-6.3247e-11
1.12869e-11
-8.43999e-11
7.33912e-11
-3.45162e-11
-3.20013e-11
-1.04269e-10
1.05353e-11
-1.3872e-10
6.34084e-11
2.65008e-10
7.40567e-11
2.62806e-10
-2.38162e-11
-7.41653e-11
-1.94904e-11
-6.8827e-11
SCALARS density double 1
LOOKUP_TABLE default
1000
1000
1000
1000
1000
1000
1000
1000
1000
1000
1000
1000
1000
1000
1000
1000
1000
1000
1000
1000
1000
1000
1000
1000
1000
1000
1000
1000
1000
1000
1000
1000
1000
1000
1000
1000
1000
1000
1000
1000
1000
1000
1000
1000
1000
1000
1000
1000
1000
1000
1000
1000
1000
1000
1000
1000
1000
1000
1000
1000
1000
1000
1000
1000
