# vtk DataFile Version 3.0
Frame: 42, Time: 0.7
ASCII
DATASET UNSTRUCTURED_GRID
POINTS 64 double
0.695455 0.495108 0 
0.707434 0.472907 0 
0.671179 0.483207 0 
0.682424 0.460045 0 
0.717272 0.450648 0 
0.72994 0.428007 0 
0.693855 0.438362 0 
0.706441 0.416128 0 
0.743181 0.407551 0 
0.753704 0.385555 0 
0.718823 0.395222 0 
0.730289 0.374155 0 
0.768214 0.364733 0 
0.782899 0.3456 0 
0.745074 0.353514 0 
0.758249 0.332518 0 
0.647598 0.471163 0 
0.658408 0.448417 0 
0.624772 0.459915 0 
0.636455 0.435751 0 
0.671376 0.426825 0 
0.683756 0.40573 0 
0.648417 0.413736 0 
0.660509 0.393221 0 
0.695541 0.383228 0 
0.707684 0.36156 0 
0.673447 0.371 0 
0.686416 0.349421 0 
0.722242 0.340345 0 
0.737031 0.318848 0 
0.699611 0.3282 0 
0.713376 0.305662 0 
0.601455 0.446378 0 
0.611687 0.423055 0 
0.578965 0.431013 0 
0.589059 0.408033 0 
0.625466 0.402116 0 
0.63666 0.378727 0 
0.603979 0.387485 0 
0.614349 0.365537 0 
0.65074 0.35691 0 
0.665064 0.336796 0 
0.62861 0.343997 0 
0.642989 0.324217 0 
0.67695 0.314447 0 
0.690756 0.291461 0 
0.654125 0.300943 0 
0.66901 0.27846 0 
0.557522 0.417895 0 
0.56785 0.395036 0 
0.532618 0.406159 0 
0.543614 0.382713 0 
0.58158 0.374342 0 
0.593531 0.35099 0 
0.557752 0.360752 0 
0.569998 0.337154 0 
0.607227 0.330388 0 
0.621067 0.309532 0 
0.582776 0.317738 0 
0.597105 0.29673 0 
0.63324 0.286418 0 
0.647092 0.264979 0 
0.610214 0.274709 0 
0.624598 0.25335 0 
CELLS 64 128
1 0
1 1
1 2
1 3
1 4
1 5
1 6
1 7
1 8
1 9
1 10
1 11
1 12
1 13
1 14
1 15
1 16
1 17
1 18
1 19
1 20
1 21
1 22
1 23
1 24
1 25
1 26
1 27
1 28
1 29
1 30
1 31
1 32
1 33
1 34
1 35
1 36
1 37
1 38
1 39
1 40
1 41
1 42
1 43
1 44
1 45
1 46
1 47
1 48
1 49
1 50
1 51
1 52
1 53
1 54
1 55
1 56
1 57
1 58
1 59
1 60
1 61
1 62
1 63
CELL_TYPES 64
1
1
1
1
1
1
1
1
1
1
1
1
1
1
1
1
1
1
1
1
1
1
1
1
1
1
1
1
1
1
1
1
1
1
1
1
1
1
1
1
1
1
1
1
1
1
1
1
1
1
1
1
1
1
1
1
1
1
1
1
1
1
1
1
POINT_DATA 64
VECTORS displacement double
0.182955 -0.117392 0 
0.194934 -0.164593 0 
0.133679 -0.129293 0 
0.144924 -0.177455 0 
0.204772 -0.211852 0 
0.21744 -0.259493 0 
0.156355 -0.224138 0 
0.168941 -0.271372 0 
0.230681 -0.304949 0 
0.241204 -0.351945 0 
0.181323 -0.317278 0 
0.192789 -0.363345 0 
0.255714 -0.397767 0 
0.270399 -0.4419 0 
0.207574 -0.408986 0 
0.220749 -0.454982 0 
0.0850978 -0.141337 0 
0.0959079 -0.189083 0 
0.0372718 -0.152585 0 
0.0489545 -0.201749 0 
0.108876 -0.235675 0 
0.121256 -0.28177 0 
0.0609167 -0.248764 0 
0.0730087 -0.294279 0 
0.133041 -0.329272 0 
0.145184 -0.37594 0 
0.0859467 -0.3415 0 
0.0989158 -0.388079 0 
0.159742 -0.422155 0 
0.174531 -0.468652 0 
0.112111 -0.4343 0 
0.125876 -0.481838 0 
-0.0110447 -0.166122 0 
-0.000813158 -0.214445 0 
-0.0585353 -0.181487 0 
-0.0484414 -0.229467 0 
0.0129664 -0.260384 0 
0.0241603 -0.308773 0 
-0.0335211 -0.275015 0 
-0.0231506 -0.321963 0 
0.0382398 -0.35559 0 
0.0525643 -0.400704 0 
-0.00888982 -0.368503 0 
0.00548853 -0.413283 0 
0.0644502 -0.448053 0 
0.0782564 -0.496039 0 
0.0166253 -0.461557 0 
0.0315105 -0.50904 0 
-0.104978 -0.194605 0 
-0.0946501 -0.242464 0 
-0.154882 -0.206341 0 
-0.143886 -0.254787 0 
-0.0809205 -0.288158 0 
-0.0689695 -0.33651 0 
-0.129748 -0.301748 0 
-0.117502 -0.350346 0 
-0.0552732 -0.382112 0 
-0.0414326 -0.427968 0 
-0.104724 -0.394762 0 
-0.0903946 -0.44077 0 
-0.0292599 -0.476082 0 
-0.0154078 -0.522521 0 
-0.0772861 -0.487791 0 
-0.0629023 -0.53415 0 
VECTORS velocity double
-2.05374 -0.466063 0 
-1.58496 -0.462242 0 
-1.83549 -0.582384 0 
-1.19703 -0.436846 0 
-1.80911 -0.249619 0 
-1.60861 -0.495205 0 
-1.6765 -0.390564 0 
-1.44084 -0.601821 0 
-1.06538 0.031691 0 
-1.46228 -0.366287 0 
-1.36414 -0.275001 0 
-1.67808 -0.509638 0 
-1.30355 -0.154057 0 
-1.08412 -0.43346 0 
-0.700551 -0.389458 0 
-1.28953 -0.163436 0 
-1.59916 -0.652081 0 
-1.49709 -1.18669 0 
-1.89488 -0.662248 0 
-1.73661 -0.331795 0 
-1.35597 -0.833875 0 
-1.08098 -1.0047 0 
-1.94895 -0.245247 0 
-1.78578 -0.417194 0 
-1.10323 -0.468277 0 
-1.22664 -0.414195 0 
-1.03892 -0.421655 0 
-0.85832 -0.138803 0 
-1.05177 -0.517641 0 
-0.645331 -0.67125 0 
-1.07904 -0.182247 0 
-1.49694 0.167026 0 
-1.43915 -1.02592 0 
-1.0597 -0.535831 0 
-1.72234 -1.00802 0 
-1.55061 -0.671445 0 
-1.35044 -0.770901 0 
-1.43323 -0.851433 0 
-1.76554 -1.1956 0 
-1.57836 -1.07466 0 
-0.402726 -0.405857 0 
-0.966469 -0.23325 0 
-1.14475 -1.13765 0 
-1.72208 -0.500169 0 
-1.04732 -0.783696 0 
-0.752374 -0.44847 0 
-0.87906 -0.942865 0 
-0.689821 -0.401549 0 
-1.47533 -0.771529 0 
-1.59679 -0.84811 0 
-1.48008 -0.964685 0 
-1.16632 -0.887014 0 
-1.48777 -0.684484 0 
-0.904506 -0.434065 0 
-1.14084 -1.12636 0 
-1.03974 -1.30648 0 
-0.944378 -0.52357 0 
-1.48845 -0.440384 0 
-1.05746 -1.13286 0 
-1.2133 -1.14841 0 
-0.327368 -0.489734 0 
-0.864649 -0.383978 0 
-0.599472 -0.800369 0 
-0.545538 -1.06827 0 
SCALARS mass double 1
LOOKUP_TABLE default
0.625
0.625
0.625
0.625
0.625
0.625
0.625
0.625
0.625
0.625
0.625
0.625
0.625
0.625
0.625
0.625
0.625
0.625
0.625
0.625
0.625
0.625
0.625
0.625
0.625
0.625
0.625
0.625
0.625
0.625
0.625
0.625
0.625
0.625
0.625
0.625
0.625
0.625
0.625
0.625
0.625
0.625
0.625
0.625
0.625
0.625
0.625
0.625
0.625
0.625
0.625
0.625
0.625
0.625
0.625
0.625
0.625
0.625
0.625
0.625
0.625
0.625
0.625
0.625
SCALARS volume double 1
LOOKUP_TABLE default
0.000628374
0.00060118
0.000639373
0.000628754
0.000629878
0.000623685
0.000615229
0.000604196
0.000607736
0.000613491
0.00062148
0.000608391
0.000628096
0.000629856
0.000606068
0.000601097
0.00062274
0.000630031
0.000655741
0.000641997
0.000624405
0.000620287
0.000615929
0.000637636
0.000627904
0.000619431
0.000635586
0.000586689
0.000630978
0.000631468
0.000624292
0.000625737
0.0006246
0.000652688
0.000635256
0.000633218
0.000629304
0.000675247
0.000632914
0.000593005
0.000637318
0.000579908
0.000606115
0.000589809
0.000639721
0.000627587
0.000659365
0.00062422
0.000628293
0.000606882
0.000633019
0.000630309
0.000633123
0.000617818
0.000628346
0.000622605
0.000635102
0.000649621
0.000610802
0.000607852
0.000611011
0.000627439
0.000631284
0.000619221
VECTORS momentum double
-1.28358 -0.291289 0 
-0.9906 -0.288901 0 
-1.14718 -0.36399 0 
-0.748146 -0.273029 0 
-1.1307 -0.156012 0 
-1.00538 -0.309503 0 
-1.04781 -0.244103 0 
-0.900525 -0.376138 0 
-0.665866 0.0198069 0 
-0.913926 -0.228929 0 
-0.85259 -0.171875 0 
-1.0488 -0.318524 0 
-0.814717 -0.0962857 0 
-0.677575 -0.270913 0 
-0.437844 -0.243411 0 
-0.805957 -0.102148 0 
-0.999476 -0.40755 0 
-0.935681 -0.741681 0 
-1.1843 -0.413905 0 
-1.08538 -0.207372 0 
-0.847482 -0.521172 0 
-0.675615 -0.627937 0 
-1.21809 -0.15328 0 
-1.11611 -0.260746 0 
-0.689517 -0.292673 0 
-0.766648 -0.258872 0 
-0.649324 -0.263534 0 
-0.53645 -0.0867516 0 
-0.657354 -0.323525 0 
-0.403332 -0.419531 0 
-0.6744 -0.113904 0 
-0.935585 0.104391 0 
-0.899469 -0.641199 0 
-0.662313 -0.334895 0 
-1.07646 -0.630014 0 
-0.969132 -0.419653 0 
-0.844023 -0.481813 0 
-0.895767 -0.532146 0 
-1.10347 -0.747253 0 
-0.986474 -0.671663 0 
-0.251704 -0.25366 0 
-0.604043 -0.145781 0 
-0.715469 -0.71103 0 
-1.0763 -0.312605 0 
-0.654575 -0.48981 0 
-0.470234 -0.280294 0 
-0.549412 -0.589291 0 
-0.431138 -0.250968 0 
-0.922079 -0.482206 0 
-0.997995 -0.530069 0 
-0.925052 -0.602928 0 
-0.728948 -0.554383 0 
-0.929855 -0.427803 0 
-0.565316 -0.27129 0 
-0.713025 -0.703977 0 
-0.649837 -0.816547 0 
-0.590236 -0.327231 0 
-0.930278 -0.27524 0 
-0.660912 -0.708037 0 
-0.758312 -0.717754 0 
-0.204605 -0.306084 0 
-0.540406 -0.239986 0 
-0.37467 -0.50023 0 
-0.340961 -0.667668 0 
VECTORS body_force double
0 -9.81 0 
0 -9.81 0 
0 -9.81 0 
0 -9.81 0 
0 -9.81 0 
0 -9.81 0 
0 -9.81 0 
0 -9.81 0 
0 -9.81 0 
0 -9.81 0 
0 -9.81 0 
0 -9.81 0 
0 -9.81 0 
0 -9.81 0 
0 -9.81 0 
0 -9.81 0 
0 -9.81 0 
0 -9.81 0 
0 -9.81 0 
0 -9.81 0 
0 -9.81 0 
0 -9.81 0 
0 -9.81 0 
0 -9.81 0 
0 -9.81 0 
0 -9.81 0 
0 -9.81 0 
0 -9.81 0 
0 -9.81 0 
0 -9.81 0 
0 -9.81 0 
0 -9.81 0 
0 -9.81 0 
0 -9.81 0 
0 -9.81 0 
0 -9.81 0 
0 -9.81 0 
0 -9.81 0 
0 -9.81 0 
0 -9.81 0 
0 -9.81 0 
0 -9.81 0 
0 -9.81 0 
0 -9.81 0 
0 -9.81 0 
0 -9.81 0 
0 -9.81 0 
0 -9.81 0 
0 -9.81 0 
0 -9.81 0 
0 -9.81 0 
0 -9.81 0 
0 -9.81 0 
0 -9.81 0 
0 -9.81 0 
0 -9.81 0 
0 -9.81 0 
0 -9.81 0 
0 -9.81 0 
0 -9.81 0 
0 -9.81 0 
0 -9.81 0 
0 -9.81 0 
0 -9.81 0 
TENSORS cauchy_stress double
1568.45 -742.614 0
-742.614 -533.04 0
0 0 310.624

302.01 513.423 0
513.423 -7774.42 0
0 0 -2241.72

3252.15 2412.77 0
2412.77 1120.11 0
0 0 1311.68

961.438 2817.08 0
2817.08 190.043 0
0 0 345.444

372.007 -261.798 0
-261.798 1122.95 0
0 0 448.487

1873.32 1378.61 0
1378.61 -2278.26 0
0 0 -121.482

-905.521 -1588.16 0
-1588.16 -2124.66 0
0 0 -909.056

-3890.71 1934.2 0
1934.2 -2619.53 0
0 0 -1953.07

1769.71 1246.14 0
1246.14 -7156.49 0
0 0 -1616.03

-675.605 -178.469 0
-178.469 -2898.63 0
0 0 -1072.27

4063.89 3311.15 0
3311.15 -5150.02 0
0 0 -325.84

-1810.14 1180.15 0
1180.15 -3369.47 0
0 0 -1553.88

1950.72 -433.96 0
-433.96 -1000.49 0
0 0 285.067

568.565 -332.327 0
-332.327 919.803 0
0 0 446.51

-2236.69 1405.09 0
1405.09 -3678.46 0
0 0 -1774.54

-422.907 550.141 0
550.141 -7076.12 0
0 0 -2249.71

2854.66 1864.45 0
1864.45 -3551.22 0
0 0 -208.969

4651.64 136.281 0
136.281 -3109.72 0
0 0 462.575

3368.21 1862.64 0
1862.64 5865.26 0
0 0 2770.04

6049.65 -212.741 0
-212.741 -889.626 0
0 0 1548.01

1787.77 2491.07 0
2491.07 -1970.82 0
0 0 -54.9132

977.979 1452.25 0
1452.25 -2433.59 0
0 0 -436.683

-589.65 1715.96 0
1715.96 -2222.01 0
0 0 -843.497

7059.8 1037.44 0
1037.44 -3210.59 0
0 0 1154.76

-301.094 1082.26 0
1082.26 1192.6 0
0 0 267.452

2041.38 -1568.02 0
-1568.02 -3762.63 0
0 0 -516.376

4232.74 -2875.1 0
-2875.1 -1002.9 0
0 0 968.952

-2536.75 -1702.18 0
-1702.18 -9627.88 0
0 0 -3649.39

2057.92 -174.405 0
-174.405 -227.311 0
0 0 549.183

-1789.95 -237.102 0
-237.102 3769.97 0
0 0 594.007

2765.89 -1958.29 0
-1958.29 -2983.99 0
0 0 -65.432

3873.71 1453.79 0
1453.79 -3646.94 0
0 0 68.0328

550.702 4079.99 0
4079.99 -673.88 0
0 0 -36.9533

5305.68 4266.07 0
4266.07 3030.34 0
0 0 2500.81

3044 2517.95 0
2517.95 86.1529 0
0 0 939.046

1957.13 1427.73 0
1427.73 555.025 0
0 0 753.648

-647.125 -318.918 0
-318.918 1966.84 0
0 0 395.915

4046.17 2466.24 0
2466.24 10824.5 0
0 0 4461.2

-433.337 3933.15 0
3933.15 2853.1 0
0 0 725.928

-2784.52 4534.57 0
4534.57 -7321.03 0
0 0 -3031.66

7426.1 -1055.81 0
-1055.81 -3672.89 0
0 0 1125.96

-10769.7 3219.29 0
3219.29 -3630.84 0
0 0 -4320.15

-1996.03 -3992.82 0
-3992.82 -3904.36 0
0 0 -1770.12

-7814.69 4175.85 0
4175.85 -3330.08 0
0 0 -3343.43

-2596.67 1883.12 0
1883.12 7073.84 0
0 0 1343.15

-1612.58 918.393 0
918.393 2407.08 0
0 0 238.351

6578.14 -2015.54 0
-2015.54 3715.27 0
0 0 3088.02

1261.03 -1440.97 0
-1440.97 -1501.31 0
0 0 -72.0828

2636.37 -418.721 0
-418.721 -1625.75 0
0 0 303.185

416.448 1148.72 0
1148.72 -6073.73 0
0 0 -1697.19

640.288 323.494 0
323.494 1811.3 0
0 0 735.475

-500.489 -139.577 0
-139.577 2127.01 0
0 0 487.956

897.583 1775.45 0
1775.45 1585.76 0
0 0 745.001

1029.54 -1383.95 0
-1383.95 -3252.11 0
0 0 -666.77

664.393 1694.79 0
1694.79 362.422 0
0 0 308.045

-1276.7 3566.49 0
3566.49 538.247 0
0 0 -221.537

9667.08 -1708.02 0
-1708.02 -6583.63 0
0 0 925.034

2511.76 1965.04 0
1965.04 4918.49 0
0 0 2229.08

-890.895 2113.29 0
2113.29 -3528.19 0
0 0 -1325.73

-683.581 3705.05 0
3705.05 -4666.3 0
0 0 -1604.97

273.572 -821.56 0
-821.56 -4626.71 0
0 0 -1305.94

-3038.6 4201.08 0
4201.08 3787.71 0
0 0 224.733

3049.45 681.966 0
681.966 -1125.65 0
0 0 577.141

671.905 833.414 0
833.414 -2458.37 0
0 0 -535.941

TENSORS velocity_gradient double
-1.13314 -4.62676 0
2.93456 0.972884 0
0 0 0

0.301352 -5.12506 0
4.34506 0.58974 0
0 0 0

-1.3549 -3.88818 0
2.80264 1.13792 0
0 0 0

0.156613 -4.61579 0
2.96513 1.0597 0
0 0 0

-0.809298 -4.66795 0
5.06963 0.188034 0
0 0 0

-0.738339 -5.01204 0
4.85133 0.399426 0
0 0 0

0.984804 -4.35081 0
3.2195 -0.228095 0
0 0 0

-0.562528 -4.65982 0
4.62757 -0.0488497 0
0 0 0

-0.350223 -5.18302 0
4.53218 0.781509 0
0 0 0

-0.160355 -4.62788 0
2.49841 1.60435 0
0 0 0

-0.400635 -5.18986 0
3.83052 -1.081 0
0 0 0

-0.660864 -5.09708 0
1.91433 -0.237365 0
0 0 0

-0.959504 -4.06378 0
1.85035 2.05734 0
0 0 0

-1.56179 -0.787928 0
1.20266 1.65409 0
0 0 0

-1.02307 -4.04192 0
0.362805 0.844074 0
0 0 0

-1.69878 -0.412928 0
0.592932 0.285424 0
0 0 0

-0.248077 -2.79564 0
3.56664 0.966239 0
0 0 0

0.810158 -3.04523 0
2.99093 0.215675 0
0 0 0

-0.697727 -3.88897 0
3.10265 -0.81347 0
0 0 0

-0.688901 -2.06569 0
2.46235 -0.33885 0
0 0 0

1.69434 -3.52648 0
2.85135 -0.424191 0
0 0 0

2.48612 -3.98629 0
2.6752 -0.321895 0
0 0 0

1.29016 -2.62552 0
2.85792 -0.51624 0
0 0 0

2.52383 -6.70819 0
2.85434 -1.77656 0
0 0 0

1.53925 -5.6543 0
3.11946 -2.88266 0
0 0 0

-0.832019 -5.40572 0
0.730193 -2.37264 0
0 0 0

1.82153 -6.32604 0
3.68278 -2.25899 0
0 0 0

1.12191 -3.64162 0
4.42629 -1.27751 0
0 0 0

-1.09458 -0.773171 0
-0.383488 -0.137257 0
0 0 0

-1.32602 -0.613895 0
-0.359135 -0.154017 0
0 0 0

-0.512027 -1.08845 0
1.97423 -0.0656381 0
0 0 0

-1.50149 -0.87535 0
-0.349813 -0.121766 0
0 0 0

-0.773067 -1.79484 0
1.99301 -0.313766 0
0 0 0

-0.0527608 -0.817012 0
2.75307 0.231808 0
0 0 0

-0.701383 -0.942507 0
1.32182 0.584106 0
0 0 0

-1.63246 -0.533761 0
1.37855 0.559202 0
0 0 0

0.920696 -3.02658 0
3.25249 -0.221602 0
0 0 0

1.18157 -7.08495 0
3.97573 -0.94818 0
0 0 0

0.984238 -7.01462 0
3.57516 0.127741 0
0 0 0

1.20381 -7.04697 0
4.40462 -0.215752 0
0 0 0

1.32284 -6.97289 0
4.37447 -1.42162 0
0 0 0

0.682285 -2.25032 0
4.70591 0.482974 0
0 0 0

1.24708 -3.09585 0
4.91128 0.62184 0
0 0 0

1.27837 -2.81162 0
4.88957 0.751301 0
0 0 0

-0.128505 -1.82183 0
5.09857 0.27546 0
0 0 0

-0.708612 -5.49929 0
5.47153 -0.400664 0
0 0 0

-0.379014 -3.79489 0
5.28367 0.452557 0
0 0 0

-0.772476 -5.60753 0
5.64791 -0.101736 0
0 0 0

-1.23136 -1.81282 0
1.35411 0.637131 0
0 0 0

-1.75313 -5.09834 0
1.68414 1.75736 0
0 0 0

-0.133842 -2.03741 0
2.11797 -1.6605 0
0 0 0

0.583185 -4.86687 0
-0.429479 2.40352 0
0 0 0

-1.05985 -6.37858 0
2.77231 1.24107 0
0 0 0

-0.13363 -5.33803 0
4.00486 0.618176 0
0 0 0

-0.553208 -5.47992 0
3.51873 2.56505 0
0 0 0

-0.0255827 -2.47987 0
4.13642 0.593812 0
0 0 0

1.28482 -2.71594 0
4.90111 0.684528 0
0 0 0

1.34412 -2.75498 0
4.86037 0.711346 0
0 0 0

0.117606 -2.57355 0
4.08622 0.626653 0
0 0 0

0.748323 -6.91984 0
4.57451 1.09579 0
0 0 0

0.450131 -6.8423 0
5.05317 0.432317 0
0 0 0

-1.00782 -5.99639 0
5.54732 0.211504 0
0 0 0

-0.379755 -8.49844 0
5.2445 0.814131 0
0 0 0

-1.81635 -6.79759 0
5.43114 2.80748 0
0 0 0

SCALARS active double 1
LOOKUP_TABLE default
1
1
1
1
1
1
1
1
1
1
1
1
1
1
1
1
1
1
1
1
1
1
1
1
1
1
1
1
1
1
1
1
1
1
1
1
1
1
1
1
1
1
1
1
1
1
1
1
1
1
1
1
1
1
1
1
1
1
1
1
1
1
1
1
SCALARS extent double 1
LOOKUP_TABLE default
0.0125
0.0125
0.0125
0.0125
0.0125
0.0125
0.0125
0.0125
0.0125
0.0125
0.0125
0.0125
0.0125
0.0125
0.0125
0.0125
0.0125
0.0125
0.0125
0.0125
0.0125
0.0125
0.0125
0.0125
0.0125
0.0125
0.0125
0.0125
0.0125
0.0125
0.0125
0.0125
0.0125
0.0125
0.0125
0.0125
0.0125
0.0125
0.0125
0.0125
0.0125
0.0125
0.0125
0.0125
0.0125
0.0125
0.0125
0.0125
0.0125
0.0125
0.0125
0.0125
0.0125
0.0125
0.0125
0.0125
0.0125
0.0125
0.0125
0.0125
0.0125
0.0125
0.0125
0.0125
SCALARS pressure double 1
LOOKUP_TABLE default
-448.679
3238.05
-1894.65
-498.975
-647.815
175.473
1313.08
2821.11
2334.27
1548.84
470.658
2244.5
-411.763
-644.96
2563.23
3249.58
301.844
-668.164
-4001.17
-2236.01
79.3191
630.764
1218.38
-1667.99
-386.32
745.876
-1399.6
5271.34
-793.264
-858.01
94.5129
-98.2696
53.377
-3612.28
-1356.4
-1088.6
-571.877
-6443.96
-1048.56
4379.07
-1626.39
6240.22
2556.83
4829.4
-1940.1
-344.285
-4460.48
104.12
-437.933
2451.49
-1062.35
-704.825
-1076.11
963.113
-444.953
319.998
-1336.16
-3219.78
1914.94
2318.28
1886.36
-324.614
-833.649
774.136
SCALARS density double 1
LOOKUP_TABLE default
994.63
1039.62
977.521
994.03
992.256
1002.11
1015.88
1034.43
1028.41
1018.76
1005.66
1027.3
995.071
992.29
1031.24
1039.77
1003.63
992.014
953.12
973.525
1000.95
1007.6
1014.73
980.183
995.375
1008.99
983.345
1065.3
990.526
989.757
1001.13
998.821
1000.64
957.579
983.855
987.022
993.161
925.587
987.496
1053.95
980.673
1077.76
1031.16
1059.66
976.988
995.877
947.882
1001.25
994.759
1029.85
987.333
991.578
987.17
1011.62
994.675
1003.85
984.094
962.1
1023.25
1028.21
1022.89
996.112
990.046
1009.33
