# vtk DataFile Version 3.0
Frame: 24, Time: 0.4
ASCII
DATASET UNSTRUCTURED_GRID
POINTS 64 double
0.377861 0.0827623 0 
0.378088 0.110096 0 
0.402122 0.0846695 0 
0.402402 0.111703 0 
0.372916 0.133711 0 
0.367292 0.152706 0 
0.399009 0.134765 0 
0.393316 0.155845 0 
0.362559 0.174994 0 
0.354888 0.197944 0 
0.388033 0.180492 0 
0.379511 0.203996 0 
0.35068 0.223302 0 
0.345519 0.24658 0 
0.376215 0.228987 0 
0.371525 0.252549 0 
0.426196 0.089874 0 
0.426725 0.115898 0 
0.450976 0.0904645 0 
0.450657 0.116333 0 
0.423854 0.138874 0 
0.417099 0.161058 0 
0.449577 0.139274 0 
0.441698 0.16129 0 
0.410431 0.185466 0 
0.403018 0.208232 0 
0.434616 0.185822 0 
0.429028 0.209532 0 
0.40108 0.231836 0 
0.398536 0.258184 0 
0.426773 0.233919 0 
0.424171 0.258986 0 
0.475463 0.091191 0 
0.474627 0.116839 0 
0.499922 0.0939478 0 
0.499952 0.120328 0 
0.473826 0.140832 0 
0.466391 0.16393 0 
0.498417 0.1445 0 
0.492419 0.167989 0 
0.459038 0.188738 0 
0.453969 0.212088 0 
0.485006 0.192994 0 
0.480295 0.215233 0 
0.451485 0.237065 0 
0.449214 0.261675 0 
0.477532 0.239083 0 
0.473468 0.265516 0 
0.522978 0.0918306 0 
0.522579 0.118941 0 
0.547122 0.0950066 0 
0.547379 0.11996 0 
0.522372 0.143756 0 
0.51666 0.169503 0 
0.547514 0.146388 0 
0.541679 0.175274 0 
0.509721 0.194973 0 
0.505167 0.218615 0 
0.534659 0.200778 0 
0.530475 0.22441 0 
0.502086 0.243383 0 
0.496927 0.270118 0 
0.526706 0.247668 0 
0.523691 0.272151 0 
CELLS 64 128
1 0
1 1
1 2
1 3
1 4
1 5
1 6
1 7
1 8
1 9
1 10
1 11
1 12
1 13
1 14
1 15
1 16
1 17
1 18
1 19
1 20
1 21
1 22
1 23
1 24
1 25
1 26
1 27
1 28
1 29
1 30
1 31
1 32
1 33
1 34
1 35
1 36
1 37
1 38
1 39
1 40
1 41
1 42
1 43
1 44
1 45
1 46
1 47
1 48
1 49
1 50
1 51
1 52
1 53
1 54
1 55
1 56
1 57
1 58
1 59
1 60
1 61
1 62
1 63
CELL_TYPES 64
1
1
1
1
1
1
1
1
1
1
1
1
1
1
1
1
1
1
1
1
1
1
1
1
1
1
1
1
1
1
1
1
1
1
1
1
1
1
1
1
1
1
1
1
1
1
1
1
1
1
1
1
1
1
1
1
1
1
1
1
1
1
1
1
POINT_DATA 64
VECTORS displacement double
-0.0346386 -0.329738 0 
-0.0344116 -0.327404 0 
-0.0353775 -0.32783 0 
-0.0350982 -0.325797 0 
-0.0395835 -0.328789 0 
-0.0452077 -0.334794 0 
-0.0384912 -0.327735 0 
-0.0441842 -0.331655 0 
-0.0499409 -0.337506 0 
-0.0576117 -0.339556 0 
-0.049467 -0.332008 0 
-0.0579894 -0.333504 0 
-0.0618203 -0.339198 0 
-0.0669805 -0.34092 0 
-0.0612846 -0.333513 0 
-0.0659752 -0.334951 0 
-0.0363039 -0.322626 0 
-0.0357747 -0.321602 0 
-0.0365243 -0.322036 0 
-0.036843 -0.321167 0 
-0.0386459 -0.323626 0 
-0.0454011 -0.326442 0 
-0.0379231 -0.323226 0 
-0.0458024 -0.32621 0 
-0.0520687 -0.327034 0 
-0.0594819 -0.329268 0 
-0.0528836 -0.326678 0 
-0.0584723 -0.327968 0 
-0.0614196 -0.330664 0 
-0.0639635 -0.329316 0 
-0.0607275 -0.328581 0 
-0.0633288 -0.328514 0 
-0.0370373 -0.321309 0 
-0.0378729 -0.320661 0 
-0.0375783 -0.318552 0 
-0.0375484 -0.317172 0 
-0.0386741 -0.321668 0 
-0.0461092 -0.32357 0 
-0.0390832 -0.318 0 
-0.0450814 -0.319511 0 
-0.0534617 -0.323762 0 
-0.0585311 -0.325412 0 
-0.0524941 -0.319506 0 
-0.0572052 -0.322267 0 
-0.0610147 -0.325435 0 
-0.0632858 -0.325825 0 
-0.0599685 -0.323417 0 
-0.064032 -0.321984 0 
-0.0395222 -0.320669 0 
-0.0399215 -0.318559 0 
-0.0403776 -0.317493 0 
-0.0401211 -0.31754 0 
-0.0401284 -0.318744 0 
-0.0458401 -0.317997 0 
-0.039986 -0.316112 0 
-0.045821 -0.312226 0 
-0.0527793 -0.317527 0 
-0.0573333 -0.318885 0 
-0.0528406 -0.311722 0 
-0.0570253 -0.31309 0 
-0.0604144 -0.319117 0 
-0.0655729 -0.317382 0 
-0.0607944 -0.314832 0 
-0.0638086 -0.315349 0 
VECTORS velocity double
0.514297 0.237945 0 
1.53092 0.883362 0 
0.500505 0.0478532 0 
1.15791 1.01645 0 
0.064312 0.177879 0 
-1.44804 -0.207292 0 
0.147705 0.0809356 0 
-1.25201 0.106675 0 
-1.26672 0.358827 0 
-1.14438 1.06917 0 
-1.46096 0.888386 0 
-1.3571 1.15445 0 
-0.836111 1.10429 0 
-1.21081 0.681423 0 
-1.00547 1.19754 0 
-1.5304 1.66043 0 
0.619559 0.185181 0 
0.950123 0.778881 0 
0.750366 0.240548 0 
1.06319 0.708963 0 
0.100238 -0.0549497 0 
-1.31165 0.267552 0 
0.224952 0.0365161 0 
-1.56261 0.240067 0 
-1.68769 0.808822 0 
-1.29493 0.390123 0 
-1.91017 0.726356 0 
-0.806189 0.239147 0 
-0.618053 0.501371 0 
-0.986914 0.867191 0 
0.0810059 0.656736 0 
-1.31807 0.371186 0 
0.435159 1.4013 0 
1.38811 1.06854 0 
0.131829 1.67585 0 
1.31293 1.32119 0 
0.644263 0.419294 0 
-1.33203 0.588498 0 
0.445798 0.416124 0 
-1.6254 0.494896 0 
-1.57146 0.8868 0 
-0.566776 0.421423 0 
-1.66676 0.823424 0 
-0.551959 0.583725 0 
-0.295846 0.22612 0 
-1.62207 0.54246 0 
-0.114146 0.651091 0 
-1.33822 1.15513 0 
0.723464 1.22448 0 
1.17002 1.19051 0 
0.381337 2.58814 0 
0.438338 1.88934 0 
0.636438 0.869246 0 
-1.02437 1.64359 0 
0.272687 2.02297 0 
-0.411326 2.81172 0 
-1.25549 1.58052 0 
-0.376249 1.10999 0 
-0.587884 1.28754 0 
-0.194143 0.600598 0 
0.169631 1.08503 0 
-1.26122 0.318915 0 
-0.303331 0.807837 0 
-1.0181 1.38468 0 
SCALARS mass double 1
LOOKUP_TABLE default
0.625
0.625
0.625
0.625
0.625
0.625
0.625
0.625
0.625
0.625
0.625
0.625
0.625
0.625
0.625
0.625
0.625
0.625
0.625
0.625
0.625
0.625
0.625
0.625
0.625
0.625
0.625
0.625
0.625
0.625
0.625
0.625
0.625
0.625
0.625
0.625
0.625
0.625
0.625
0.625
0.625
0.625
0.625
0.625
0.625
0.625
0.625
0.625
0.625
0.625
0.625
0.625
0.625
0.625
0.625
0.625
0.625
0.625
0.625
0.625
0.625
0.625
0.625
0.625
SCALARS volume double 1
LOOKUP_TABLE default
0.00064459
0.000654557
0.00062792
0.00062646
0.000530816
0.000567602
0.000558401
0.000596005
0.000631622
0.000619701
0.000612782
0.000593865
0.000673869
0.000580296
0.000651771
0.000649164
0.000647248
0.00063939
0.000636467
0.00062234
0.00058259
0.000628997
0.000537754
0.000579255
0.000612589
0.000567193
0.000572331
0.00061153
0.000648279
0.000624267
0.000617741
0.000655267
0.000647263
0.000652307
0.000597612
0.000632159
0.000592904
0.000664877
0.000564102
0.000588935
0.000661343
0.000632067
0.000607219
0.00057009
0.000618792
0.00063086
0.000633615
0.000620389
0.000640816
0.000640413
0.000626158
0.000641784
0.000629784
0.000626229
0.000709864
0.000653183
0.000651369
0.000623654
0.000613227
0.000575121
0.000646143
0.00064212
0.000586949
0.000648219
VECTORS momentum double
0.321435 0.148716 0 
0.956825 0.552101 0 
0.312815 0.0299083 0 
0.723691 0.635281 0 
0.040195 0.111175 0 
-0.905026 -0.129557 0 
0.0923157 0.0505847 0 
-0.782507 0.066672 0 
-0.791702 0.224267 0 
-0.715236 0.668232 0 
-0.9131 0.555242 0 
-0.848191 0.72153 0 
-0.522569 0.690181 0 
-0.756755 0.425889 0 
-0.628416 0.748463 0 
-0.956499 1.03777 0 
0.387224 0.115738 0 
0.593827 0.4868 0 
0.468979 0.150343 0 
0.664492 0.443102 0 
0.0626486 -0.0343436 0 
-0.819781 0.16722 0 
0.140595 0.0228226 0 
-0.976632 0.150042 0 
-1.05481 0.505514 0 
-0.809328 0.243827 0 
-1.19385 0.453973 0 
-0.503868 0.149467 0 
-0.386283 0.313357 0 
-0.616822 0.541994 0 
0.0506287 0.41046 0 
-0.823795 0.231992 0 
0.271974 0.875811 0 
0.867568 0.667837 0 
0.0823931 1.04741 0 
0.820582 0.825743 0 
0.402665 0.262059 0 
-0.832521 0.367811 0 
0.278623 0.260078 0 
-1.01588 0.30931 0 
-0.982162 0.55425 0 
-0.354235 0.263389 0 
-1.04172 0.51464 0 
-0.344975 0.364828 0 
-0.184904 0.141325 0 
-1.0138 0.339037 0 
-0.0713411 0.406932 0 
-0.836388 0.721955 0 
0.452165 0.765298 0 
0.731263 0.744067 0 
0.238335 1.61759 0 
0.273961 1.18084 0 
0.397774 0.543279 0 
-0.640231 1.02724 0 
0.170429 1.26436 0 
-0.257079 1.75733 0 
-0.784682 0.987823 0 
-0.235155 0.693743 0 
-0.367427 0.804713 0 
-0.121339 0.375373 0 
0.106019 0.678147 0 
-0.788261 0.199322 0 
-0.189582 0.504898 0 
-0.636314 0.865427 0 
VECTORS body_force double
0 -9.81 0 
0 -9.81 0 
0 -9.81 0 
0 -9.81 0 
0 -9.81 0 
0 -9.81 0 
0 -9.81 0 
0 -9.81 0 
0 -9.81 0 
0 -9.81 0 
0 -9.81 0 
0 -9.81 0 
0 -9.81 0 
0 -9.81 0 
0 -9.81 0 
0 -9.81 0 
0 -9.81 0 
0 -9.81 0 
0 -9.81 0 
0 -9.81 0 
0 -9.81 0 
0 -9.81 0 
0 -9.81 0 
0 -9.81 0 
0 -9.81 0 
0 -9.81 0 
0 -9.81 0 
0 -9.81 0 
0 -9.81 0 
0 -9.81 0 
0 -9.81 0 
0 -9.81 0 
0 -9.81 0 
0 -9.81 0 
0 -9.81 0 
0 -9.81 0 
0 -9.81 0 
0 -9.81 0 
0 -9.81 0 
0 -9.81 0 
0 -9.81 0 
0 -9.81 0 
0 -9.81 0 
0 -9.81 0 
0 -9.81 0 
0 -9.81 0 
0 -9.81 0 
0 -9.81 0 
0 -9.81 0 
0 -9.81 0 
0 -9.81 0 
0 -9.81 0 
0 -9.81 0 
0 -9.81 0 
0 -9.81 0 
0 -9.81 0 
0 -9.81 0 
0 -9.81 0 
0 -9.81 0 
0 -9.81 0 
0 -9.81 0 
0 -9.81 0 
0 -9.81 0 
0 -9.81 0 
TENSORS cauchy_stress double
3992.31 -4045.6 0
-4045.6 1942.83 0
0 0 1780.54

2592.41 3378.06 0
3378.06 6293.49 0
0 0 2665.77

624.39 -2003.36 0
-2003.36 271.949 0
0 0 268.902

-1562.57 1834.62 0
1834.62 2011.24 0
0 0 134.6

-3230.39 -9594.86 0
-9594.86 -28180.4 0
0 0 -9423.24

80.196 1254.12 0
1254.12 -18605.3 0
0 0 -5557.54

-1109.61 -7424.66 0
-7424.66 -20558.7 0
0 0 -6500.48

-2830.99 3949.89 0
3949.89 -6304.09 0
0 0 -2740.52

8926.3 -750.607 0
-750.607 -6899.61 0
0 0 608.008

1408.5 -1571.07 0
-1571.07 -3045.84 0
0 0 -491.201

-5651.9 -1305.69 0
-1305.69 1855.33 0
0 0 -1138.97

-3959.47 2683.95 0
2683.95 -5867.27 0
0 0 -2948.02

8629.91 -347.468 0
-347.468 5847.81 0
0 0 4343.32

-1535.05 2305.31 0
2305.31 -12736.8 0
0 0 -4281.55

3749.89 3705.91 0
3705.91 4315.68 0
0 0 2419.67

10765.9 1091.91 0
1091.91 -3470.85 0
0 0 2188.5

6186.5 902.418 0
902.418 540.106 0
0 0 2017.98

310.318 7496.05 0
7496.05 4067.29 0
0 0 1313.28

3140.49 -1482.94 0
-1482.94 355.865 0
0 0 1048.91

-3655.52 6513.52 0
6513.52 2835.24 0
0 0 -246.082

2330.2 -4188.91 0
-4188.91 -15843.4 0
0 0 -4053.95

3017.98 643.756 0
643.756 -1792.13 0
0 0 367.753

-6063.33 -9615.14 0
-9615.14 -22850.1 0
0 0 -8674.02

-6236.51 -8730.04 0
-8730.04 -8380.42 0
0 0 -4385.08

-1856.83 -3772 0
-3772 -2000.39 0
0 0 -1157.16

190.288 -5420.52 0
-5420.52 -18854 0
0 0 -5599.13

-8483.07 -8355.41 0
-8355.41 -8446.66 0
0 0 -5078.92

666.014 -6229.49 0
-6229.49 -4855.88 0
0 0 -1256.96

4603.57 516.194 0
516.194 2428.96 0
0 0 2109.76

976.461 -4461.27 0
-4461.27 -1202.15 0
0 0 -67.706

550.971 -2451.02 0
-2451.02 -2797.71 0
0 0 -674.021

3844.05 -3952.08 0
-3952.08 5250.36 0
0 0 2728.32

8100.29 6420.59 0
6420.59 -1369.39 0
0 0 2019.27

1764.48 8101.08 0
8101.08 6459.39 0
0 0 2467.16

-4964.31 1920.5 0
1920.5 -3653.11 0
0 0 -2585.23

-2538.87 5949.23 0
5949.23 4729.24 0
0 0 657.111

-1884.89 -2452.73 0
-2452.73 -8253.38 0
0 0 -3041.48

8936.77 1010.74 0
1010.74 2957.6 0
0 0 3568.31

-9164.72 -6525.68 0
-6525.68 -10550.2 0
0 0 -5914.47

-2786.38 -9594.88 0
-9594.88 -8643.74 0
0 0 -3429.04

4416.02 3994.72 0
3994.72 6453.28 0
0 0 3260.79

-1092.92 8921.79 0
8921.79 3255.06 0
0 0 648.641

703.812 -11571 0
-11571 -6254.37 0
0 0 -1665.17

-3109.85 -4582.27 0
-4582.27 -14574.3 0
0 0 -5305.24

-3639.59 4606.36 0
4606.36 1719.88 0
0 0 -575.914

5292.72 741.119 0
741.119 -3498.14 0
0 0 538.373

1696.89 -3541.94 0
-3541.94 935.708 0
0 0 789.78

-4987.18 -5904.73 0
-5904.73 3563.08 0
0 0 -427.229

-215.782 -5187.34 0
-5187.34 5021.63 0
0 0 1441.75

-2644.31 -15.6589 0
-15.6589 7329.25 0
0 0 1405.48

-412.556 6809.67 0
6809.67 768.608 0
0 0 106.816

18.7286 5911.15 0
5911.15 5077.45 0
0 0 1528.85

29.6461 -7399.66 0
-7399.66 1436.7 0
0 0 439.904

138.397 -3579.03 0
-3579.03 239.536 0
0 0 113.38

4572.32 -1768.03 0
-1768.03 19912.6 0
0 0 7345.47

2529.77 -2643.5 0
-2643.5 5952 0
0 0 2544.53

3091.36 -3307.72 0
-3307.72 4855.64 0
0 0 2384.1

-46.8555 7351.93 0
7351.93 -367.82 0
0 0 -124.403

-2679.54 -5491.74 0
-5491.74 -977.332 0
0 0 -1097.06

-7468.5 -1258.06 0
-1258.06 -8525.92 0
0 0 -4798.33

-965.912 5555.27 0
5555.27 7363.69 0
0 0 1919.33

-2040.42 -225.59 0
-225.59 7237.36 0
0 0 1559.08

-3647.2 -6012.62 0
-6012.62 -8432.45 0
0 0 -3623.9

7298.93 -2112.54 0
-2112.54 -284.266 0
0 0 2104.4

TENSORS velocity_gradient double
-1.2803 7.83855 0
2.71473 1.14698 0
0 0 0

-0.263882 -31.1697 0
3.29886 -1.69909 0
0 0 0

0.857174 7.31429 0
3.67237 1.72207 0
0 0 0

0.806914 -28.5707 0
3.16807 -1.99058 0
0 0 0

2.51506 -31.689 0
3.01952 -1.64689 0
0 0 0

3.58379 -15.3184 0
1.88378 8.17187 0
0 0 0

2.58091 -28.8039 0
2.92284 -1.95708 0
0 0 0

3.53506 -12.7371 0
1.54143 6.22108 0
0 0 0

0.784275 -7.11007 0
-2.61085 13.5051 0
0 0 0

-2.53743 -4.25748 0
-6.83911 11.3865 0
0 0 0

-0.0463694 -10.9486 0
-3.83881 7.8305 0
0 0 0

-2.29339 0.125565 0
-7.54777 4.6444 0
0 0 0

-4.97792 -0.870739 0
-2.53772 1.12999 0
0 0 0

-1.10863 -2.66565 0
-1.19956 4.40286 0
0 0 0

0.149291 2.86249 0
-5.84515 2.74832 0
0 0 0

3.0314 1.10025 0
-6.07731 7.49781 0
0 0 0

1.70081 5.19984 0
3.9085 0.485817 0
0 0 0

1.49753 -27.1218 0
3.056 -2.3005 0
0 0 0

-0.553373 3.35923 0
9.00803 -0.877127 0
0 0 0

1.29021 -25.4087 0
7.63919 -2.9413 0
0 0 0

2.73544 -27.2422 0
2.76151 -2.27186 0
0 0 0

3.87909 -11.7182 0
2.03771 4.43189 0
0 0 0

4.00182 -25.4677 0
5.85649 -2.90956 0
0 0 0

3.88805 -10.5124 0
2.02783 3.10395 0
0 0 0

5.07499 -12.0306 0
0.720592 4.77603 0
0 0 0

4.07437 4.96792 0
-1.98217 4.08684 0
0 0 0

5.09155 -10.8465 0
0.702354 3.47187 0
0 0 0

5.19284 3.34645 0
-1.02906 1.57312 0
0 0 0

2.61544 4.92249 0
-4.07834 4.10476 0
0 0 0

2.18096 3.54096 0
-6.36197 -1.15388 0
0 0 0

3.4924 3.50912 0
-3.57619 1.81679 0
0 0 0

-0.0632301 -2.29855 0
-4.89075 -1.64742 0
0 0 0

-2.58898 4.71928 0
13.8027 -1.30575 0
0 0 0

1.12884 -21.3614 0
11.8389 -5.40672 0
0 0 0

-1.83762 5.77451 0
14.3639 -1.72031 0
0 0 0

1.01768 -16.7485 0
13.6428 -7.7826 0
0 0 0

5.60391 -21.4141 0
9.04402 -5.37379 0
0 0 0

6.09656 -11.8362 0
8.08881 2.92725 0
0 0 0

5.39248 -16.939 0
12.1656 -7.76111 0
0 0 0

5.71034 -14.446 0
8.14317 3.29462 0
0 0 0

3.60049 -11.1281 0
8.44016 2.82757 0
0 0 0

3.47399 2.43619 0
7.06826 -0.705229 0
0 0 0

3.19541 -13.7384 0
8.49718 3.19501 0
0 0 0

3.5189 4.37326 0
7.92403 -1.99073 0
0 0 0

4.62417 2.42638 0
3.54111 -0.512387 0
0 0 0

2.94523 -8.50332 0
0.340503 -0.8164 0
0 0 0

5.3749 4.1519 0
6.78631 -1.85504 0
0 0 0

6.61879 -8.89545 0
4.75917 -2.75123 0
0 0 0

-0.563154 1.64904 0
15.2661 -2.96788 0
0 0 0

-0.0649815 -13.1538 0
16.0145 -6.67865 0
0 0 0

-1.9946 -3.91167 0
9.76097 -4.20531 0
0 0 0

-2.52544 -9.82183 0
10.2125 -4.74017 0
0 0 0

3.79444 -13.1351 0
17.9504 -6.66926 0
0 0 0

5.74246 -14.4472 0
15.0497 0.171632 0
0 0 0

-1.10625 -10.0201 0
11.3738 -4.89162 0
0 0 0

5.97291 -13.3865 0
14.0186 -4.57448 0
0 0 0

6.8218 -14.5479 0
10.1957 1.36261 0
0 0 0

5.81493 5.40359 0
6.71529 -3.68678 0
0 0 0

6.74786 -5.89166 0
9.29359 -5.24771 0
0 0 0

5.48338 3.69459 0
5.93123 -7.01423 0
0 0 0

4.59548 5.38985 0
4.28992 -3.39796 0
0 0 0

5.00335 -8.65066 0
5.29945 -4.35573 0
0 0 0

3.78882 0.292034 0
3.39736 -4.54658 0
0 0 0

1.04623 -11.3 0
7.92741 1.10054 0
0 0 0

SCALARS active double 1
LOOKUP_TABLE default
1
1
1
1
1
1
1
1
1
1
1
1
1
1
1
1
1
1
1
1
1
1
1
1
1
1
1
1
1
1
1
1
1
1
1
1
1
1
1
1
1
1
1
1
1
1
1
1
1
1
1
1
1
1
1
1
1
1
1
1
1
1
1
1
SCALARS extent double 1
LOOKUP_TABLE default
0.0125
0.0125
0.0125
0.0125
0.0125
0.0125
0.0125
0.0125
0.0125
0.0125
0.0125
0.0125
0.0125
0.0125
0.0125
0.0125
0.0125
0.0125
0.0125
0.0125
0.0125
0.0125
0.0125
0.0125
0.0125
0.0125
0.0125
0.0125
0.0125
0.0125
0.0125
0.0125
0.0125
0.0125
0.0125
0.0125
0.0125
0.0125
0.0125
0.0125
0.0125
0.0125
0.0125
0.0125
0.0125
0.0125
0.0125
0.0125
0.0125
0.0125
0.0125
0.0125
0.0125
0.0125
0.0125
0.0125
0.0125
0.0125
0.0125
0.0125
0.0125
0.0125
0.0125
0.0125
SCALARS pressure double 1
LOOKUP_TABLE default
-2571.89
-3850.55
-388.414
-194.422
13611.3
8027.55
9389.58
3958.53
-878.233
709.513
1645.18
4258.25
-6273.68
6184.46
-3495.08
-3161.17
-2914.86
-1896.96
-1515.09
355.451
5855.7
-531.199
12529.1
6334
1671.46
8087.63
7336.22
1815.61
-3047.43
97.7975
973.585
-3940.91
-2916.72
-3563.68
3734.22
-949.161
4393.25
-5154.23
8543.12
4953.05
-4710.03
-936.926
2405.24
7663.12
831.876
-777.65
-1140.79
617.108
-2082.53
-2030.14
-154.289
-2208.34
-635.417
-163.771
-10610.1
-3675.44
-3443.7
179.693
1584.65
6930.92
-2772.37
-2252.01
5234.52
-3039.69
SCALARS density double 1
LOOKUP_TABLE default
969.609
954.845
995.35
997.67
1177.43
1101.12
1119.27
1048.65
989.517
1008.55
1019.94
1052.43
927.48
1077.04
958.926
962.776
965.626
977.494
981.983
1004.27
1072.8
993.646
1162.24
1078.97
1020.26
1101.92
1092.03
1022.03
964.091
1001.17
1011.75
953.81
965.605
958.137
1045.83
988.675
1054.13
940.023
1107.96
1061.24
945.047
988.82
1029.28
1096.32
1010.03
990.712
986.404
1007.43
975.319
975.933
998.15
973.848
992.404
998.037
880.451
956.853
959.518
1002.16
1019.2
1086.73
967.279
973.338
1064.83
964.181
