# vtk DataFile Version 3.0
Frame: 15, Time: 0.25
ASCII
DATASET UNSTRUCTURED_GRID
POINTS 64 double
0.5125 0.302249 0 
0.5125 0.327249 0 
0.5375 0.302249 0 
0.5375 0.327249 0 
0.5125 0.352249 0 
0.5125 0.377249 0 
0.5375 0.352249 0 
0.5375 0.377249 0 
0.5125 0.402249 0 
0.5125 0.427249 0 
0.5375 0.402249 0 
0.5375 0.427249 0 
0.5125 0.452249 0 
0.5125 0.477249 0 
0.5375 0.452249 0 
0.5375 0.477249 0 
0.5625 0.302249 0 
0.5625 0.327249 0 
0.5875 0.302249 0 
0.5875 0.327249 0 
0.5625 0.352249 0 
0.5625 0.377249 0 
0.5875 0.352249 0 
0.5875 0.377249 0 
0.5625 0.402249 0 
0.5625 0.427249 0 
0.5875 0.402249 0 
0.5875 0.427249 0 
0.5625 0.452249 0 
0.5625 0.477249 0 
0.5875 0.452249 0 
0.5875 0.477249 0 
0.6125 0.302249 0 
0.6125 0.327249 0 
0.6375 0.302249 0 
0.6375 0.327249 0 
0.6125 0.352249 0 
0.6125 0.377249 0 
0.6375 0.352249 0 
0.6375 0.377249 0 
0.6125 0.402249 0 
0.6125 0.427249 0 
0.6375 0.402249 0 
0.6375 0.427249 0 
0.6125 0.452249 0 
0.6125 0.477249 0 
0.6375 0.452249 0 
0.6375 0.477249 0 
0.6625 0.302249 0 
0.6625 0.327249 0 
0.6875 0.302249 0 
0.6875 0.327249 0 
0.6625 0.352249 0 
0.6625 0.377249 0 
0.6875 0.352249 0 
0.6875 0.377249 0 
0.6625 0.402249 0 
0.6625 0.427249 0 
0.6875 0.402249 0 
0.6875 0.427249 0 
0.6625 0.452249 0 
0.6625 0.477249 0 
0.6875 0.452249 0 
0.6875 0.477249 0 
CELLS 64 128
1 0
1 1
1 2
1 3
1 4
1 5
1 6
1 7
1 8
1 9
1 10
1 11
1 12
1 13
1 14
1 15
1 16
1 17
1 18
1 19
1 20
1 21
1 22
1 23
1 24
1 25
1 26
1 27
1 28
1 29
1 30
1 31
1 32
1 33
1 34
1 35
1 36
1 37
1 38
1 39
1 40
1 41
1 42
1 43
1 44
1 45
1 46
1 47
1 48
1 49
1 50
1 51
1 52
1 53
1 54
1 55
1 56
1 57
1 58
1 59
1 60
1 61
1 62
1 63
CELL_TYPES 64
1
1
1
1
1
1
1
1
1
1
1
1
1
1
1
1
1
1
1
1
1
1
1
1
1
1
1
1
1
1
1
1
1
1
1
1
1
1
1
1
1
1
1
1
1
1
1
1
1
1
1
1
1
1
1
1
1
1
1
1
1
1
1
1
POINT_DATA 64
VECTORS displacement double
-2.06614e-16 -0.310251 0 
-9.61941e-17 -0.310251 0 
-1.974e-16 -0.310251 0 
-1.00017e-16 -0.310251 0 
-5.93985e-18 -0.310251 0 
6.30639e-17 -0.310251 0 
-1.22048e-17 -0.310251 0 
5.8325e-17 -0.310251 0 
1.23354e-16 -0.310251 0 
2.015e-16 -0.310251 0 
1.25036e-16 -0.310251 0 
2.05006e-16 -0.310251 0 
2.90928e-16 -0.310251 0 
3.81898e-16 -0.310251 0 
2.9029e-16 -0.310251 0 
3.74643e-16 -0.310251 0 
-1.88115e-16 -0.310251 0 
-1.01486e-16 -0.310251 0 
-1.78759e-16 -0.310251 0 
-1.00601e-16 -0.310251 0 
-1.85036e-17 -0.310251 0 
5.29361e-17 -0.310251 0 
-2.48363e-17 -0.310251 0 
4.68972e-17 -0.310251 0 
1.2433e-16 -0.310251 0 
2.04484e-16 -0.310251 0 
1.21236e-16 -0.310251 0 
1.99936e-16 -0.310251 0 
2.86672e-16 -0.310251 0 
3.67516e-16 -0.310251 0 
2.80076e-16 -0.310251 0 
3.60517e-16 -0.310251 0 
-1.69015e-16 -0.310251 0 
-1.00361e-16 -0.310251 0 
-1.58883e-16 -0.310251 0 
-1.00765e-16 -0.310251 0 
-3.23393e-17 -0.310251 0 
4.11113e-17 -0.310251 0 
-4.10126e-17 -0.310251 0 
3.55784e-17 -0.310251 0 
1.18736e-16 -0.310251 0 
1.95266e-16 -0.310251 0 
1.1683e-16 -0.310251 0 
1.90475e-16 -0.310251 0 
2.73256e-16 -0.310251 0 
3.53045e-16 -0.310251 0 
2.66214e-16 -0.310251 0 
3.451e-16 -0.310251 0 
-1.47162e-16 -0.310251 0 
-1.00024e-16 -0.310251 0 
-1.33854e-16 -0.310251 0 
-9.81376e-17 -0.310251 0 
-4.71111e-17 -0.310251 0 
3.20146e-17 -0.310251 0 
-5.0635e-17 -0.310251 0 
3.04198e-17 -0.310251 0 
1.18813e-16 -0.310251 0 
1.89974e-16 -0.310251 0 
1.24685e-16 -0.310251 0 
1.93763e-16 -0.310251 0 
2.62015e-16 -0.310251 0 
3.3738e-16 -0.310251 0 
2.60659e-16 -0.310251 0 
3.29886e-16 -0.310251 0 
VECTORS velocity double
-1.41547e-14 -2.46231 0 
-3.51785e-15 -2.46231 0 
-1.47389e-14 -2.46231 0 
-3.42742e-15 -2.46231 0 
2.13356e-15 -2.46231 0 
1.47094e-15 -2.46231 0 
3.99087e-15 -2.46231 0 
2.38187e-15 -2.46231 0 
-3.17007e-15 -2.46231 0 
-1.2476e-15 -2.46231 0 
-7.06281e-16 -2.46231 0 
9.35265e-16 -2.46231 0 
-1.27622e-15 -2.46231 0 
-1.74709e-15 -2.46231 0 
1.01854e-15 -2.46231 0 
-4.27632e-16 -2.46231 0 
-1.25764e-14 -2.46231 0 
-2.72442e-15 -2.46231 0 
-7.66698e-15 -2.46231 0 
-1.40883e-15 -2.46231 0 
3.77379e-15 -2.46231 0 
2.02474e-15 -2.46231 0 
1.48231e-15 -2.46231 0 
3.99556e-16 -2.46231 0 
4.75077e-16 -2.46231 0 
1.95615e-15 -2.46231 0 
3.73999e-16 -2.46231 0 
1.81506e-15 -2.46231 0 
2.11164e-15 -2.46231 0 
1.23213e-15 -2.46231 0 
2.00309e-15 -2.46231 0 
3.23219e-15 -2.46231 0 
-1.37193e-15 -2.46231 0 
6.38382e-17 -2.46231 0 
6.30879e-15 -2.46231 0 
1.69358e-15 -2.46231 0 
-1.09881e-15 -2.46231 0 
-7.2093e-16 -2.46231 0 
-3.96959e-15 -2.46231 0 
-1.33672e-15 -2.46231 0 
7.88784e-16 -2.46231 0 
1.72877e-15 -2.46231 0 
1.71943e-15 -2.46231 0 
1.69729e-15 -2.46231 0 
1.56488e-15 -2.46231 0 
4.91886e-15 -2.46231 0 
7.97015e-16 -2.46231 0 
6.29215e-15 -2.46231 0 
1.01869e-14 -2.46231 0 
2.50351e-15 -2.46231 0 
1.02624e-14 -2.46231 0 
2.49362e-15 -2.46231 0 
-4.87702e-15 -2.46231 0 
-8.99719e-16 -2.46231 0 
-3.82112e-15 -2.46231 0 
5.90067e-16 -2.46231 0 
3.71927e-15 -2.46231 0 
2.25387e-15 -2.46231 0 
6.78829e-15 -2.46231 0 
3.39851e-15 -2.46231 0 
1.16241e-15 -2.46231 0 
7.88419e-15 -2.46231 0 
2.66107e-15 -2.46231 0 
9.69498e-15 -2.46231 0 
SCALARS mass double 1
LOOKUP_TABLE default
0.625
0.625
0.625
0.625
0.625
0.625
0.625
0.625
0.625
0.625
0.625
0.625
0.625
0.625
0.625
0.625
0.625
0.625
0.625
0.625
0.625
0.625
0.625
0.625
0.625
0.625
0.625
0.625
0.625
0.625
0.625
0.625
0.625
0.625
0.625
0.625
0.625
0.625
0.625
0.625
0.625
0.625
0.625
0.625
0.625
0.625
0.625
0.625
0.625
0.625
0.625
0.625
0.625
0.625
0.625
0.625
0.625
0.625
0.625
0.625
0.625
0.625
0.625
0.625
SCALARS volume double 1
LOOKUP_TABLE default
0.000625
0.000625
0.000625
0.000625
0.000625
0.000625
0.000625
0.000625
0.000625
0.000625
0.000625
0.000625
0.000625
0.000625
0.000625
0.000625
0.000625
0.000625
0.000625
0.000625
0.000625
0.000625
0.000625
0.000625
0.000625
0.000625
0.000625
0.000625
0.000625
0.000625
0.000625
0.000625
0.000625
0.000625
0.000625
0.000625
0.000625
0.000625
0.000625
0.000625
0.000625
0.000625
0.000625
0.000625
0.000625
0.000625
0.000625
0.000625
0.000625
0.000625
0.000625
0.000625
0.000625
0.000625
0.000625
0.000625
0.000625
0.000625
0.000625
0.000625
0.000625
0.000625
0.000625
0.000625
VECTORS momentum double
-8.84668e-15 -1.53894 0 
-2.19866e-15 -1.53894 0 
-9.21184e-15 -1.53894 0 
-2.14214e-15 -1.53894 0 
1.33347e-15 -1.53894 0 
9.1934e-16 -1.53894 0 
2.49429e-15 -1.53894 0 
1.48867e-15 -1.53894 0 
-1.9813e-15 -1.53894 0 
-7.79749e-16 -1.53894 0 
-4.41425e-16 -1.53894 0 
5.84541e-16 -1.53894 0 
-7.97638e-16 -1.53894 0 
-1.09193e-15 -1.53894 0 
6.36587e-16 -1.53894 0 
-2.6727e-16 -1.53894 0 
-7.86024e-15 -1.53894 0 
-1.70276e-15 -1.53894 0 
-4.79186e-15 -1.53894 0 
-8.80518e-16 -1.53894 0 
2.35862e-15 -1.53894 0 
1.26546e-15 -1.53894 0 
9.26445e-16 -1.53894 0 
2.49723e-16 -1.53894 0 
2.96923e-16 -1.53894 0 
1.22259e-15 -1.53894 0 
2.33749e-16 -1.53894 0 
1.13441e-15 -1.53894 0 
1.31978e-15 -1.53894 0 
7.70079e-16 -1.53894 0 
1.25193e-15 -1.53894 0 
2.02012e-15 -1.53894 0 
-8.57454e-16 -1.53894 0 
3.98989e-17 -1.53894 0 
3.94299e-15 -1.53894 0 
1.05849e-15 -1.53894 0 
-6.86757e-16 -1.53894 0 
-4.50581e-16 -1.53894 0 
-2.48099e-15 -1.53894 0 
-8.35448e-16 -1.53894 0 
4.9299e-16 -1.53894 0 
1.08048e-15 -1.53894 0 
1.07465e-15 -1.53894 0 
1.06081e-15 -1.53894 0 
9.78049e-16 -1.53894 0 
3.07429e-15 -1.53894 0 
4.98134e-16 -1.53894 0 
3.9326e-15 -1.53894 0 
6.36682e-15 -1.53894 0 
1.56469e-15 -1.53894 0 
6.41403e-15 -1.53894 0 
1.55851e-15 -1.53894 0 
-3.04814e-15 -1.53894 0 
-5.62324e-16 -1.53894 0 
-2.3882e-15 -1.53894 0 
3.68792e-16 -1.53894 0 
2.32454e-15 -1.53894 0 
1.40867e-15 -1.53894 0 
4.24268e-15 -1.53894 0 
2.12407e-15 -1.53894 0 
7.26506e-16 -1.53894 0 
4.92762e-15 -1.53894 0 
1.66317e-15 -1.53894 0 
6.05936e-15 -1.53894 0 
VECTORS body_force double
0 -9.81 0 
0 -9.81 0 
0 -9.81 0 
0 -9.81 0 
0 -9.81 0 
0 -9.81 0 
0 -9.81 0 
0 -9.81 0 
0 -9.81 0 
0 -9.81 0 
0 -9.81 0 
0 -9.81 0 
0 -9.81 0 
0 -9.81 0 
0 -9.81 0 
0 -9.81 0 
0 -9.81 0 
0 -9.81 0 
0 -9.81 0 
0 -9.81 0 
0 -9.81 0 
0 -9.81 0 
0 -9.81 0 
0 -9.81 0 
0 -9.81 0 
0 -9.81 0 
0 -9.81 0 
0 -9.81 0 
0 -9.81 0 
0 -9.81 0 
0 -9.81 0 
0 -9.81 0 
0 -9.81 0 
0 -9.81 0 
0 -9.81 0 
0 -9.81 0 
0 -9.81 0 
0 -9.81 0 
0 -9.81 0 
0 -9.81 0 
0 -9.81 0 
0 -9.81 0 
0 -9.81 0 
0 -9.81 0 
0 -9.81 0 
0 -9.81 0 
0 -9.81 0 
0 -9.81 0 
0 -9.81 0 
0 -9.81 0 
0 -9.81 0 
0 -9.81 0 
0 -9.81 0 
0 -9.81 0 
0 -9.81 0 
0 -9.81 0 
0 -9.81 0 
0 -9.81 0 
0 -9.81 0 
0 -9.81 0 
0 -9.81 0 
0 -9.81 0 
0 -9.81 0 
0 -9.81 0 
TENSORS cauchy_stress double
-1.22219e-12 -8.29253e-12 0
-8.29253e-12 -9.73542e-11 0
0 0 -2.95729e-11

-2.85571e-11 5.13903e-12 0
5.13903e-12 -2.7425e-11 0
0 0 -1.67946e-11

1.98811e-11 -2.94591e-11 0
-2.94591e-11 -4.81131e-11 0
0 0 -8.46959e-12

-1.40415e-12 -3.42095e-12 0
-3.42095e-12 3.59319e-11 0
0 0 1.03583e-11

-2.57188e-11 -2.72746e-11 0
-2.72746e-11 4.2455e-12 0
0 0 -6.442e-12

-1.44619e-11 -1.22125e-11 0
-1.22125e-11 1.48597e-11 0
0 0 1.19341e-13

-2.62853e-11 -2.06777e-11 0
-2.06777e-11 2.92377e-12 0
0 0 -7.00845e-12

1.48608e-11 -2.8935e-11 0
-2.8935e-11 8.32793e-11 0
0 0 2.9442e-11

3.47861e-11 -4.22611e-11 0
-4.22611e-11 6.39137e-11 0
0 0 2.961e-11

-2.38377e-12 -1.6987e-12 0
-1.6987e-12 -4.15204e-11 0
0 0 -1.31712e-11

2.53089e-11 -2.31616e-11 0
-2.31616e-11 4.18003e-11 0
0 0 2.01328e-11

-1.00571e-11 -6.57191e-12 0
-6.57191e-12 -5.94248e-11 0
0 0 -2.08446e-11

-2.51559e-11 1.92879e-11 0
1.92879e-11 -5.21529e-11 0
0 0 -2.31927e-11

-1.54908e-11 -4.90979e-12 0
-4.90979e-12 3.82702e-11 0
0 0 6.83385e-12

-4.69306e-11 1.12818e-11 0
1.12818e-11 -1.0296e-10 0
0 0 -4.49673e-11

-8.89026e-12 -8.74625e-12 0
-8.74625e-12 5.36714e-11 0
0 0 1.34343e-11

2.8476e-11 1.87124e-11 0
1.87124e-11 -2.95117e-11 0
0 0 -3.10726e-13

1.47631e-11 1.39801e-11 0
1.39801e-11 2.53747e-11 0
0 0 1.20414e-11

1.76601e-11 -1.30634e-12 0
-1.30634e-12 -5.47488e-11 0
0 0 -1.11266e-11

6.19787e-12 -3.38284e-13 0
-3.38284e-13 5.38909e-12 0
0 0 3.47609e-12

-3.57895e-11 -8.99908e-12 0
-8.99908e-12 -1.85585e-11 0
0 0 -1.63044e-11

-2.58926e-12 -2.69267e-11 0
-2.69267e-11 5.5896e-11 0
0 0 1.5992e-11

-1.39452e-11 -3.04885e-11 0
-3.04885e-11 3.24116e-11 0
0 0 5.53993e-12

1.52298e-11 -2.42201e-11 0
-2.42201e-11 9.74739e-11 0
0 0 3.38111e-11

-2.34791e-11 -3.10523e-11 0
-3.10523e-11 -2.30519e-11 0
0 0 -1.39593e-11

-2.89989e-11 -1.08263e-11 0
-1.08263e-11 -2.1011e-11 0
0 0 -1.5003e-11

1.66727e-11 -2.56995e-11 0
-2.56995e-11 7.06356e-11 0
0 0 2.61925e-11

-4.2091e-11 -9.58319e-12 0
-9.58319e-12 -5.15592e-11 0
0 0 -2.80951e-11

-7.74371e-11 1.60482e-12 0
1.60482e-12 -1.13029e-10 0
0 0 -5.71398e-11

-3.2065e-11 -3.18895e-12 0
-3.18895e-12 -3.03643e-12 0
0 0 -1.05304e-11

-6.19903e-11 6.27338e-12 0
6.27338e-12 -7.69864e-11 0
0 0 -4.1693e-11

-1.08128e-11 7.06288e-12 0
7.06288e-12 4.65521e-11 0
0 0 1.07218e-11

3.07572e-11 -1.39307e-11 0
-1.39307e-11 -3.2156e-11 0
0 0 -4.19628e-13

2.128e-11 1.0249e-11 0
1.0249e-11 5.37973e-11 0
0 0 2.25232e-11

2.84826e-11 -1.18344e-11 0
-1.18344e-11 -3.74634e-11 0
0 0 -2.69425e-12

1.61559e-11 -1.80541e-11 0
-1.80541e-11 4.18411e-11 0
0 0 1.73991e-11

-2.89323e-12 7.8073e-12 0
7.8073e-12 8.2206e-11 0
0 0 2.37938e-11

-1.30317e-11 1.39857e-11 0
1.39857e-11 2.634e-11 0
0 0 3.99247e-12

-2.10314e-11 9.02974e-13 0
9.02974e-13 3.98836e-11 0
0 0 5.65568e-12

7.69722e-13 2.58589e-11 0
2.58589e-11 5.85434e-11 0
0 0 1.77939e-11

2.00189e-11 2.22082e-12 0
2.22082e-12 6.62608e-11 0
0 0 2.58839e-11

-5.19478e-11 -2.89681e-12 0
-2.89681e-12 -7.2077e-11 0
0 0 -3.72074e-11

1.00037e-11 1.82312e-11 0
1.82312e-11 4.28919e-11 0
0 0 1.58687e-11

-5.06219e-11 3.89526e-12 0
3.89526e-12 -6.89833e-11 0
0 0 -3.58816e-11

-5.91433e-11 -6.18879e-12 0
-6.18879e-12 -6.57712e-11 0
0 0 -3.74743e-11

-1.48485e-11 -6.52794e-12 0
-6.52794e-12 4.68417e-11 0
0 0 9.59794e-12

-9.14476e-11 -1.19797e-11 0
-1.19797e-11 -1.41148e-10 0
0 0 -6.97786e-11

-3.34971e-11 -6.79456e-12 0
-6.79456e-12 3.32839e-12 0
0 0 -9.0506e-12

4.21119e-11 1.36709e-11 0
1.36709e-11 -3.82364e-11 0
0 0 1.16265e-12

6.50848e-12 -1.33407e-12 0
-1.33407e-12 -4.16175e-12 0
0 0 7.04019e-13

9.9221e-12 -3.01632e-12 0
-3.01632e-12 -1.13346e-10 0
0 0 -3.10271e-11

-2.42282e-11 3.46228e-12 0
3.46228e-12 -7.58806e-11 0
0 0 -3.00326e-11

-2.09883e-11 1.39608e-11 0
1.39608e-11 -1.28304e-11 0
0 0 -1.01456e-11

1.68808e-12 2.37372e-11 0
2.37372e-11 2.02957e-11 0
0 0 6.59514e-12

-4.09891e-11 1.72891e-11 0
1.72891e-11 -5.9499e-11 0
0 0 -3.01464e-11

4.38625e-12 2.41053e-11 0
2.41053e-11 2.65914e-11 0
0 0 9.2933e-12

4.14641e-11 3.20389e-11 0
3.20389e-11 3.65259e-11 0
0 0 2.3397e-11

-1.00651e-13 9.29367e-12 0
9.29367e-12 -3.90961e-11 0
0 0 -1.1759e-11

1.70097e-11 3.45565e-11 0
3.45565e-11 -2.05343e-11 0
0 0 -1.05737e-12

-1.7852e-12 -1.41417e-12 0
-1.41417e-12 -4.30268e-11 0
0 0 -1.34436e-11

-3.85957e-11 -1.97787e-12 0
-1.97787e-12 -7.61522e-11 0
0 0 -3.44244e-11

-5.27286e-12 1.50013e-11 0
1.50013e-11 6.4561e-11 0
0 0 1.77864e-11

-4.04568e-11 -5.12039e-12 0
-5.12039e-12 -8.04947e-11 0
0 0 -3.62854e-11

-3.2706e-11 5.47084e-12 0
5.47084e-12 5.50225e-13 0
0 0 -9.64675e-12

TENSORS velocity_gradient double
2.00621e-14 1.78512e-13 0
-1.75859e-13 -2.61124e-13 0
0 0 0

2.06408e-14 1.93054e-13 0
-1.42109e-13 -8.52651e-14 0
0 0 0

2.00621e-14 1.73368e-13 0
-1.84741e-13 -2.55795e-13 0
0 0 0

2.06408e-14 1.9554e-13 0
-1.49214e-13 -6.39488e-14 0
0 0 0

2.1876e-14 3.49818e-14 0
-1.36779e-13 -5.15143e-14 0
0 0 0

1.88318e-14 1.27914e-14 0
-2.84217e-14 -5.68434e-14 0
0 0 0

2.1876e-14 3.24644e-14 0
-1.03029e-13 -1.77636e-14 0
0 0 0

1.88318e-14 9.57164e-15 0
-3.55271e-14 2.13163e-14 0
0 0 0

1.91522e-14 -9.01487e-15 0
8.88178e-15 -1.95399e-14 0
0 0 0

3.15842e-14 -1.20761e-14 0
-3.55271e-15 -3.55271e-15 0
0 0 0

1.91522e-14 1.92616e-15 0
1.77636e-14 -1.06581e-14 0
0 0 0

3.15842e-14 8.52885e-16 0
3.55271e-14 7.10543e-15 0
0 0 0

4.22795e-14 -1.30881e-14 0
5.32907e-15 5.32907e-15 0
0 0 0

4.53334e-14 -1.32302e-14 0
3.55271e-15 -1.06581e-14 0
0 0 0

4.22795e-14 -9.09361e-15 0
1.06581e-14 -4.61853e-14 0
0 0 0

4.53334e-14 -1.04899e-14 0
2.84217e-14 -2.84217e-14 0
0 0 0

1.15622e-13 1.38421e-13 0
3.19744e-14 -2.94875e-13 0
0 0 0

4.60785e-14 1.61213e-13 0
-2.4869e-14 3.55271e-15 0
0 0 0

1.15622e-13 7.36686e-14 0
4.26326e-14 -3.2685e-13 0
0 0 0

4.60785e-14 9.0073e-14 0
-2.84217e-14 -8.52651e-14 0
0 0 0

-8.1166e-15 2.95256e-14 0
-7.28306e-14 4.08562e-14 0
0 0 0

-4.34048e-15 1.10392e-14 0
-9.9476e-14 5.68434e-14 0
0 0 0

-8.1166e-15 2.61654e-14 0
-8.52651e-14 4.26326e-14 0
0 0 0

-4.34048e-15 1.7194e-14 0
-7.81597e-14 7.10543e-15 0
0 0 0

2.85617e-15 1.25577e-14 0
-8.88178e-14 -3.55271e-15 0
0 0 0

1.36169e-14 1.27708e-14 0
-5.32907e-14 6.03961e-14 0
0 0 0

2.85617e-15 2.28797e-14 0
-7.10543e-14 4.26326e-14 0
0 0 0

1.36169e-14 2.36778e-14 0
-3.55271e-14 4.9738e-14 0
0 0 0

2.63375e-14 1.98448e-15 0
-4.26326e-14 -4.26326e-14 0
0 0 0

4.5263e-14 4.70282e-16 0
-4.26326e-14 -4.26326e-14 0
0 0 0

2.63375e-14 2.01461e-14 0
-4.26326e-14 -4.26326e-14 0
0 0 0

4.5263e-14 1.96503e-14 0
-5.68434e-14 -2.84217e-14 0
0 0 0

1.49966e-13 1.22114e-15 0
-2.4869e-14 -3.09086e-13 0
0 0 0

6.10109e-14 8.55669e-15 0
2.13163e-14 -7.81597e-14 0
0 0 0

1.49966e-13 -7.89216e-14 0
-3.90799e-14 -2.66454e-13 0
0 0 0

6.10109e-14 -8.33359e-14 0
0 -8.52651e-14 0
0 0 0

-7.60058e-15 2.51012e-14 0
2.84217e-14 0 0
0 0 0

3.43563e-15 2.74237e-14 0
3.19744e-14 3.55271e-15 0
0 0 0

-7.60058e-15 2.63327e-14 0
4.61853e-14 3.55271e-15 0
0 0 0

3.43563e-15 4.17281e-14 0
2.13163e-14 2.13163e-14 0
0 0 0

1.45519e-14 2.88165e-14 0
3.55271e-14 -7.10543e-15 0
0 0 0

1.47609e-14 2.90121e-14 0
-5.68434e-14 5.68434e-14 0
0 0 0

1.45519e-14 3.03683e-14 0
3.90799e-14 -3.19744e-14 0
0 0 0

1.47609e-14 2.87736e-14 0
-1.42109e-14 -1.42109e-14 0
0 0 0

1.85891e-14 3.7241e-14 0
-5.68434e-14 -8.52651e-14 0
0 0 0

3.633e-14 3.83962e-14 0
-8.17124e-14 -9.59233e-14 0
0 0 0

1.85891e-14 5.32692e-14 0
-6.75016e-14 -6.75016e-14 0
0 0 0

3.633e-14 5.6708e-14 0
-5.68434e-14 -4.26326e-14 0
0 0 0

3.26795e-14 -1.20979e-13 0
9.41469e-14 -2.18492e-13 0
0 0 0

2.84594e-14 -1.31434e-13 0
9.9476e-14 -7.10543e-14 0
0 0 0

3.26795e-14 -1.2495e-13 0
9.23706e-14 -2.34479e-13 0
0 0 0

2.84594e-14 -1.35737e-13 0
1.06581e-13 -3.55271e-14 0
0 0 0

2.47794e-14 2.6043e-14 0
8.70415e-14 1.77636e-15 0
0 0 0

2.32307e-14 4.81497e-14 0
3.90799e-14 -3.19744e-14 0
0 0 0

2.47794e-14 2.42319e-14 0
6.03961e-14 -5.32907e-14 0
0 0 0

2.32307e-14 4.66884e-14 0
7.10543e-15 -4.9738e-14 0
0 0 0

2.28152e-14 3.2505e-14 0
-1.77636e-14 -7.4607e-14 0
0 0 0

2.59773e-14 3.03088e-14 0
-2.4869e-14 -6.75016e-14 0
0 0 0

2.28152e-14 3.52267e-14 0
3.55271e-15 -3.90799e-14 0
0 0 0

2.59773e-14 3.36177e-14 0
-3.55271e-14 -6.39488e-14 0
0 0 0

3.06299e-14 6.56251e-14 0
-5.32907e-15 -1.95399e-14 0
0 0 0

3.98791e-14 7.05828e-14 0
-1.42109e-14 -5.68434e-14 0
0 0 0

3.06299e-14 7.43085e-14 0
3.55271e-15 -5.32907e-14 0
0 0 0

3.98791e-14 8.00207e-14 0
-1.42109e-14 -5.68434e-14 0
0 0 0

SCALARS active double 1
LOOKUP_TABLE default
1
1
1
1
1
1
1
1
1
1
1
1
1
1
1
1
1
1
1
1
1
1
1
1
1
1
1
1
1
1
1
1
1
1
1
1
1
1
1
1
1
1
1
1
1
1
1
1
1
1
1
1
1
1
1
1
1
1
1
1
1
1
1
1
SCALARS extent double 1
LOOKUP_TABLE default
0.0125
0.0125
0.0125
0.0125
0.0125
0.0125
0.0125
0.0125
0.0125
0.0125
0.0125
0.0125
0.0125
0.0125
0.0125
0.0125
0.0125
0.0125
0.0125
0.0125
0.0125
0.0125
0.0125
0.0125
0.0125
0.0125
0.0125
0.0125
0.0125
0.0125
0.0125
0.0125
0.0125
0.0125
0.0125
0.0125
0.0125
0.0125
0.0125
0.0125
0.0125
0.0125
0.0125
0.0125
0.0125
0.0125
0.0125
0.0125
0.0125
0.0125
0.0125
0.0125
0.0125
0.0125
0.0125
0.0125
0.0125
0.0125
0.0125
0.0125
0.0125
0.0125
0.0125
0.0125
SCALARS pressure double 1
LOOKUP_TABLE default
4.27164e-11
2.42589e-11
1.22339e-11
-1.4962e-11
9.30511e-12
-1.72382e-13
1.01233e-11
-4.25274e-11
-4.27699e-11
1.90251e-11
-2.90807e-11
3.01088e-11
3.35005e-11
-9.87111e-12
6.49528e-11
-1.94052e-11
4.48827e-13
-1.73931e-11
1.60717e-11
-5.02102e-12
2.35508e-11
-2.30996e-11
-8.00212e-12
-4.88383e-11
2.01634e-11
2.1671e-11
-3.78336e-11
4.05818e-11
8.25352e-11
1.52106e-11
6.02232e-11
-1.5487e-11
6.06129e-13
-3.25335e-11
3.8917e-12
-2.5132e-11
-3.43689e-11
-5.76691e-12
-8.16932e-12
-2.57023e-11
-3.73879e-11
5.37441e-11
-2.29214e-11
5.18289e-11
5.41296e-11
-1.38637e-11
1.00791e-10
1.30731e-11
-1.67939e-12
-1.01692e-12
4.4817e-11
4.33804e-11
1.46548e-11
-9.52631e-12
4.35449e-11
-1.34237e-11
-3.37957e-11
1.69853e-11
1.52731e-12
1.94185e-11
4.97241e-11
-2.56915e-11
5.24123e-11
1.39342e-11
SCALARS density double 1
LOOKUP_TABLE default
1000
1000
1000
1000
1000
1000
1000
1000
1000
1000
1000
1000
1000
1000
1000
1000
1000
1000
1000
1000
1000
1000
1000
1000
1000
1000
1000
1000
1000
1000
1000
1000
1000
1000
1000
1000
1000
1000
1000
1000
1000
1000
1000
1000
1000
1000
1000
1000
1000
1000
1000
1000
1000
1000
1000
1000
1000
1000
1000
1000
1000
1000
1000
1000
