# vtk DataFile Version 3.0
Frame: 57, Time: 0.95
ASCII
DATASET UNSTRUCTURED_GRID
POINTS 64 double
0.400949 0.296048 0 
0.424528 0.284832 0 
0.388618 0.272625 0 
0.41225 0.26 0 
0.446894 0.272637 0 
0.470259 0.260724 0 
0.434125 0.248734 0 
0.45756 0.237951 0 
0.493302 0.250469 0 
0.514607 0.237653 0 
0.480484 0.226983 0 
0.501815 0.214858 0 
0.537975 0.228885 0 
0.56123 0.220433 0 
0.526287 0.205857 0 
0.54934 0.195441 0 
0.376896 0.250102 0 
0.399645 0.237644 0 
0.367009 0.227378 0 
0.390815 0.214828 0 
0.422896 0.226379 0 
0.446067 0.216052 0 
0.414 0.202959 0 
0.435615 0.192145 0 
0.468646 0.204375 0 
0.49045 0.191821 0 
0.458633 0.180002 0 
0.48165 0.168901 0 
0.514957 0.181535 0 
0.540168 0.172641 0 
0.504922 0.158209 0 
0.529208 0.148161 0 
0.35666 0.204153 0 
0.379434 0.190438 0 
0.348714 0.180784 0 
0.369889 0.166837 0 
0.403104 0.180614 0 
0.425984 0.167454 0 
0.393358 0.156473 0 
0.415514 0.144487 0 
0.448993 0.154626 0 
0.472625 0.144377 0 
0.438019 0.131955 0 
0.460362 0.120837 0 
0.495786 0.133366 0 
0.519648 0.123031 0 
0.482855 0.110058 0 
0.506837 0.0999846 0 
0.340596 0.159145 0 
0.361216 0.144615 0 
0.324349 0.137736 0 
0.346402 0.119535 0 
0.3832 0.134282 0 
0.406306 0.119974 0 
0.370488 0.110028 0 
0.393669 0.0964924 0 
0.427986 0.107932 0 
0.449603 0.0964043 0 
0.414469 0.084605 0 
0.4381 0.0726075 0 
0.47321 0.0851027 0 
0.496622 0.0770594 0 
0.463014 0.0610519 0 
0.486921 0.0538545 0 
CELLS 64 128
1 0
1 1
1 2
1 3
1 4
1 5
1 6
1 7
1 8
1 9
1 10
1 11
1 12
1 13
1 14
1 15
1 16
1 17
1 18
1 19
1 20
1 21
1 22
1 23
1 24
1 25
1 26
1 27
1 28
1 29
1 30
1 31
1 32
1 33
1 34
1 35
1 36
1 37
1 38
1 39
1 40
1 41
1 42
1 43
1 44
1 45
1 46
1 47
1 48
1 49
1 50
1 51
1 52
1 53
1 54
1 55
1 56
1 57
1 58
1 59
1 60
1 61
1 62
1 63
CELL_TYPES 64
1
1
1
1
1
1
1
1
1
1
1
1
1
1
1
1
1
1
1
1
1
1
1
1
1
1
1
1
1
1
1
1
1
1
1
1
1
1
1
1
1
1
1
1
1
1
1
1
1
1
1
1
1
1
1
1
1
1
1
1
1
1
1
1
POINT_DATA 64
VECTORS displacement double
-0.111551 -0.316452 0 
-0.0879723 -0.352668 0 
-0.148882 -0.339875 0 
-0.12525 -0.3775 0 
-0.0656055 -0.389863 0 
-0.0422412 -0.426776 0 
-0.103375 -0.413766 0 
-0.07994 -0.449549 0 
-0.0191985 -0.462031 0 
0.00210723 -0.499847 0 
-0.0570159 -0.485517 0 
-0.0356852 -0.522642 0 
0.025475 -0.533615 0 
0.0487305 -0.567067 0 
-0.0112128 -0.556643 0 
0.0118403 -0.592059 0 
-0.185604 -0.362398 0 
-0.162855 -0.399856 0 
-0.220491 -0.385122 0 
-0.196685 -0.422672 0 
-0.139604 -0.436121 0 
-0.116433 -0.471448 0 
-0.1735 -0.459541 0 
-0.151885 -0.495355 0 
-0.0938537 -0.508125 0 
-0.0720501 -0.545679 0 
-0.128867 -0.532498 0 
-0.10585 -0.568599 0 
-0.0475431 -0.580965 0 
-0.0223319 -0.614859 0 
-0.082578 -0.604291 0 
-0.0582921 -0.639339 0 
-0.25584 -0.408347 0 
-0.233066 -0.447062 0 
-0.288786 -0.431716 0 
-0.267611 -0.470663 0 
-0.209396 -0.481886 0 
-0.186516 -0.520046 0 
-0.244142 -0.506027 0 
-0.221986 -0.543013 0 
-0.163507 -0.557874 0 
-0.139875 -0.593123 0 
-0.199481 -0.580545 0 
-0.177138 -0.616663 0 
-0.116714 -0.629134 0 
-0.0928517 -0.664469 0 
-0.154645 -0.652442 0 
-0.130663 -0.687515 0 
-0.321904 -0.453355 0 
-0.301284 -0.492885 0 
-0.363151 -0.474764 0 
-0.341098 -0.517965 0 
-0.2793 -0.528218 0 
-0.256194 -0.567526 0 
-0.317012 -0.552472 0 
-0.293831 -0.591008 0 
-0.234514 -0.604568 0 
-0.212897 -0.641096 0 
-0.273031 -0.627895 0 
-0.2494 -0.664893 0 
-0.18929 -0.677397 0 
-0.165878 -0.710441 0 
-0.224486 -0.701448 0 
-0.200579 -0.733645 0 
VECTORS velocity double
-0.943272 1.20319 0 
-0.92904 1.54542 0 
-0.598299 1.26598 0 
-0.131224 1.53339 0 
-0.464855 1.59098 0 
-0.583688 1.36514 0 
-0.606785 1.62067 0 
-0.513147 1.57761 0 
-0.43693 1.7759 0 
-0.190885 1.94842 0 
-0.0472932 1.95544 0 
-0.227798 2.02348 0 
-0.322403 2.05105 0 
-0.176743 2.24913 0 
0.0685646 1.94004 0 
-0.0902432 2.12992 0 
-0.811847 1.25089 0 
-0.31495 1.25522 0 
-0.308295 0.772521 0 
-0.267166 1.57617 0 
-0.43855 1.39953 0 
-0.195702 1.22406 0 
-0.164053 1.5262 0 
-0.266525 1.62227 0 
0.010332 1.80941 0 
-0.16559 2.01553 0 
-0.0779223 1.6228 0 
-0.0181676 1.78969 0 
-0.347256 1.83958 0 
0.0486707 1.94215 0 
-0.0204182 1.6571 0 
0.167278 2.47714 0 
-0.0149715 1.34409 0 
0.113072 1.27248 0 
-0.184856 1.6 0 
-0.30134 1.42918 0 
0.43239 1.30366 0 
0.127259 1.66425 0 
-0.183175 1.00307 0 
0.194538 1.51011 0 
0.287233 1.86988 0 
0.0793152 1.64928 0 
0.262072 1.08525 0 
0.0367097 1.54459 0 
0.44961 0.97433 0 
0.826083 2.09212 0 
0.727378 1.42906 0 
0.424991 1.61306 0 
0.336754 1.46107 0 
0.257421 1.3707 0 
0.222253 1.78589 0 
0.739712 1.18599 0 
0.0831003 1.45758 0 
0.433329 1.463 0 
0.167926 1.42478 0 
0.251531 1.11691 0 
0.845981 1.41331 0 
0.91239 1.62459 0 
0.531598 1.64434 0 
1.07575 1.90253 0 
1.12927 1.67141 0 
0.706625 1.45408 0 
0.601499 1.16576 0 
0.103953 1.22439 0 
SCALARS mass double 1
LOOKUP_TABLE default
0.625
0.625
0.625
0.625
0.625
0.625
0.625
0.625
0.625
0.625
0.625
0.625
0.625
0.625
0.625
0.625
0.625
0.625
0.625
0.625
0.625
0.625
0.625
0.625
0.625
0.625
0.625
0.625
0.625
0.625
0.625
0.625
0.625
0.625
0.625
0.625
0.625
0.625
0.625
0.625
0.625
0.625
0.625
0.625
0.625
0.625
0.625
0.625
0.625
0.625
0.625
0.625
0.625
0.625
0.625
0.625
0.625
0.625
0.625
0.625
0.625
0.625
0.625
0.625
SCALARS volume double 1
LOOKUP_TABLE default
0.000632475
0.0006234
0.00063311
0.000619993
0.000632638
0.000628688
0.000626706
0.000624011
0.000610988
0.000605272
0.00062549
0.000626334
0.000618974
0.000626352
0.00063774
0.000610915
0.000624293
0.000624748
0.000603453
0.00063761
0.000614264
0.000620287
0.000602387
0.000625662
0.000631456
0.000613883
0.000652518
0.000629773
0.000656384
0.000604192
0.000628455
0.000623613
0.000628816
0.00063606
0.000582531
0.00056642
0.000641119
0.000627098
0.00063622
0.000617442
0.000661942
0.000634401
0.000604279
0.000627094
0.000610495
0.000650901
0.000634178
0.000625925
0.000574642
0.000628589
0.000607052
0.000637934
0.000592481
0.000646794
0.00062804
0.000602086
0.000614376
0.000662249
0.000631721
0.000619728
0.000625799
0.000619753
0.000619189
0.000621571
VECTORS momentum double
-0.589545 0.751991 0 
-0.58065 0.965886 0 
-0.373937 0.791235 0 
-0.0820151 0.958367 0 
-0.290534 0.994363 0 
-0.364805 0.853214 0 
-0.379241 1.01292 0 
-0.320717 0.986003 0 
-0.273082 1.10994 0 
-0.119303 1.21776 0 
-0.0295583 1.22215 0 
-0.142374 1.26468 0 
-0.201502 1.2819 0 
-0.110465 1.4057 0 
0.0428528 1.21253 0 
-0.056402 1.3312 0 
-0.507404 0.781805 0 
-0.196843 0.784515 0 
-0.192684 0.482825 0 
-0.166979 0.985105 0 
-0.274094 0.874705 0 
-0.122314 0.765036 0 
-0.102533 0.953876 0 
-0.166578 1.01392 0 
0.00645749 1.13088 0 
-0.103494 1.2597 0 
-0.0487014 1.01425 0 
-0.0113547 1.11856 0 
-0.217035 1.14974 0 
0.0304192 1.21385 0 
-0.0127614 1.03569 0 
0.104549 1.54821 0 
-0.0093572 0.840059 0 
0.0706699 0.795299 0 
-0.115535 0.999997 0 
-0.188337 0.893238 0 
0.270244 0.814785 0 
0.0795371 1.04016 0 
-0.114484 0.626918 0 
0.121586 0.94382 0 
0.179521 1.16868 0 
0.049572 1.0308 0 
0.163795 0.678281 0 
0.0229436 0.96537 0 
0.281006 0.608956 0 
0.516302 1.30757 0 
0.454611 0.893162 0 
0.265619 1.00816 0 
0.210471 0.91317 0 
0.160888 0.85669 0 
0.138908 1.11618 0 
0.46232 0.741244 0 
0.0519377 0.910991 0 
0.270831 0.914377 0 
0.104953 0.890489 0 
0.157207 0.698072 0 
0.528738 0.883321 0 
0.570244 1.01537 0 
0.332249 1.02771 0 
0.672346 1.18908 0 
0.705795 1.04463 0 
0.44164 0.908801 0 
0.375937 0.7286 0 
0.0649704 0.765247 0 
VECTORS body_force double
0 -9.81 0 
0 -9.81 0 
0 -9.81 0 
0 -9.81 0 
0 -9.81 0 
0 -9.81 0 
0 -9.81 0 
0 -9.81 0 
0 -9.81 0 
0 -9.81 0 
0 -9.81 0 
0 -9.81 0 
0 -9.81 0 
0 -9.81 0 
0 -9.81 0 
0 -9.81 0 
0 -9.81 0 
0 -9.81 0 
0 -9.81 0 
0 -9.81 0 
0 -9.81 0 
0 -9.81 0 
0 -9.81 0 
0 -9.81 0 
0 -9.81 0 
0 -9.81 0 
0 -9.81 0 
0 -9.81 0 
0 -9.81 0 
0 -9.81 0 
0 -9.81 0 
0 -9.81 0 
0 -9.81 0 
0 -9.81 0 
0 -9.81 0 
0 -9.81 0 
0 -9.81 0 
0 -9.81 0 
0 -9.81 0 
0 -9.81 0 
0 -9.81 0 
0 -9.81 0 
0 -9.81 0 
0 -9.81 0 
0 -9.81 0 
0 -9.81 0 
0 -9.81 0 
0 -9.81 0 
0 -9.81 0 
0 -9.81 0 
0 -9.81 0 
0 -9.81 0 
0 -9.81 0 
0 -9.81 0 
0 -9.81 0 
0 -9.81 0 
0 -9.81 0 
0 -9.81 0 
0 -9.81 0 
0 -9.81 0 
0 -9.81 0 
0 -9.81 0 
0 -9.81 0 
0 -9.81 0 
TENSORS cauchy_stress double
1913.08 -979.227 0
-979.227 373.249 0
0 0 685.897

458.954 1357.16 0
1357.16 -951.954 0
0 0 -147.9

667.301 391.991 0
391.991 1812 0
0 0 743.789

-942.785 -467.762 0
-467.762 -604.138 0
0 0 -464.077

2648.5 243.843 0
243.843 -312.523 0
0 0 700.794

1843.01 1060.54 0
1060.54 -711.483 0
0 0 339.458

718.094 2164.63 0
2164.63 -193.829 0
0 0 157.28

-656.102 -931.868 0
-931.868 351.54 0
0 0 -91.3688

-1831.18 2014.99 0
2014.99 -2529.16 0
0 0 -1308.1

-2918.32 165.928 0
165.928 -3249.81 0
0 0 -1850.44

-1459.34 917.268 0
917.268 1610.14 0
0 0 45.2396

-952.053 777.603 0
777.603 1362.21 0
0 0 123.046

-697.41 219.981 0
219.981 -1165.8 0
0 0 -558.962

57.5979 930.221 0
930.221 358.078 0
0 0 124.703

-419.751 1321.73 0
1321.73 4300.22 0
0 0 1164.14

-2411.27 -1608.02 0
-1608.02 -1972.13 0
0 0 -1315.02

-1749.39 -1339.63 0
-1339.63 1531.74 0
0 0 -65.2943

1032.49 307.571 0
307.571 -1109.89 0
0 0 -23.2201

-5086.24 -1361.23 0
-1361.23 -1660.54 0
0 0 -2024.03

1561.39 626.025 0
626.025 2280.08 0
0 0 1152.44

-2896.44 -1882.29 0
-1882.29 -435.679 0
0 0 -999.635

-2958.21 -643.573 0
-643.573 1502.47 0
0 0 -436.721

-5443.99 -2817.23 0
-2817.23 -1642.88 0
0 0 -2126.06

-811.043 373.928 0
373.928 1014.51 0
0 0 61.041

-2400.95 -594.171 0
-594.171 4377.18 0
0 0 592.867

-2304.52 -3048.59 0
-3048.59 -1146.92 0
0 0 -1035.43

2631.49 795.206 0
795.206 5654.44 0
0 0 2485.78

-35.5253 -1080.7 0
-1080.7 1498.56 0
0 0 438.909

7932.53 -811.163 0
-811.163 1489.55 0
0 0 2826.62

-5117.97 -1124.92 0
-1124.92 -1393.53 0
0 0 -1953.45

-501.836 1041.78 0
1041.78 1561.9 0
0 0 318.019

-1541.41 -470.807 0
-470.807 1114.05 0
0 0 -128.207

725.538 548.606 0
548.606 444.945 0
0 0 351.145

151.643 -282.589 0
-282.589 3221.53 0
0 0 1011.95

-9136.21 -6060.63 0
-6060.63 -4396.49 0
0 0 -4059.81

-13465.7 -3447.56 0
-3447.56 -5460.25 0
0 0 -5677.79

1607.6 -2262.79 0
-2262.79 3289.31 0
0 0 1469.07

-3386.77 -4144.14 0
-4144.14 4031.09 0
0 0 193.295

837.975 -1447.29 0
-1447.29 2583.71 0
0 0 1026.51

-5850.84 1505.75 0
1505.75 3511.13 0
0 0 -701.912

6006.88 -3383.59 0
-3383.59 5036.58 0
0 0 3313.04

-3362.44 -350.78 0
-350.78 6233.42 0
0 0 861.294

-5536.35 -2501.95 0
-2501.95 -947.308 0
0 0 -1945.1

-3007.01 -201.437 0
-201.437 3650.14 0
0 0 192.94

-4751.27 -4629.25 0
-4629.25 235.739 0
0 0 -1354.66

2615.44 1799.28 0
1799.28 5193.35 0
0 0 2342.64

6624.73 8722.94 0
8722.94 -3821.27 0
0 0 841.037

-277.054 -87.6315 0
-87.6315 561.594 0
0 0 85.362

-13963.1 -1171.27 0
-1171.27 -2191.62 0
0 0 -4846.41

-1727.07 1080.31 0
1080.31 2828.12 0
0 0 330.317

-9722.71 -4664.07 0
-4664.07 4119.27 0
0 0 -1681.03

5675.74 647.673 0
647.673 -1736.52 0
0 0 1181.77

-8298.92 -2754.79 0
-2754.79 -1976.47 0
0 0 -3082.62

4535.98 -618.034 0
-618.034 2055.62 0
0 0 1977.48

2333.62 2428.05 0
2428.05 -1400.65 0
0 0 279.892

-5057.24 -191.56 0
-191.56 -2125.87 0
0 0 -2154.93

-2601.83 2803.54 0
2803.54 -695.09 0
0 0 -989.076

3831.76 -708.281 0
-708.281 7300.94 0
0 0 3339.81

-298.761 -167.294 0
-167.294 2355.79 0
0 0 617.109

-2922.93 -580.956 0
-580.956 1294.03 0
0 0 -488.671

-2048.33 4651.78 0
4651.78 2294.09 0
0 0 73.7288

-5319.66 -3864.23 0
-3864.23 3698.36 0
0 0 -486.388

-2114.26 375.265 0
375.265 317.91 0
0 0 -538.905

175.413 2461.23 0
2461.23 -1233.51 0
0 0 -317.428

TENSORS velocity_gradient double
-0.484138 -5.85483 0
4.20697 -1.3194 0
0 0 0

0.842618 -6.05682 0
4.05554 -0.509314 0
0 0 0

-0.238935 -5.32412 0
4.83015 -0.859939 0
0 0 0

0.245216 -6.35607 0
3.2874 -0.894092 0
0 0 0

0.683463 -5.66811 0
3.69686 0.0169377 0
0 0 0

1.67563 -6.61216 0
4.43637 -0.927854 0
0 0 0

0.019774 -6.28857 0
3.22426 -0.487924 0
0 0 0

1.73164 -5.99683 0
5.46303 -1.39532 0
0 0 0

1.9193 -6.03669 0
4.95491 -2.53025 0
0 0 0

1.62992 -3.92428 0
4.96081 -2.11008 0
0 0 0

1.36485 -5.24377 0
5.87511 -2.24138 0
0 0 0

0.710155 -4.48909 0
4.57395 -2.64208 0
0 0 0

1.22065 -2.85148 0
4.45502 -0.784281 0
0 0 0

0.395696 -2.71867 0
2.61548 -0.510434 0
0 0 0

0.21164 -3.60714 0
3.31346 -0.796305 0
0 0 0

0.312949 -4.29444 0
3.16916 0.503149 0
0 0 0

1.85897 -6.52025 0
5.13239 -1.44237 0
0 0 0

0.698847 -7.0857 0
3.75241 0.070653 0
0 0 0

0.908543 -8.98094 0
2.8102 -3.37243 0
0 0 0

0.117076 -7.49556 0
1.29549 -0.529706 0
0 0 0

-0.299824 -6.61953 0
3.84945 -0.216731 0
0 0 0

-0.145552 -6.28306 0
4.61653 -0.984813 0
0 0 0

-0.530081 -5.96004 0
4.55293 -0.122387 0
0 0 0

-0.423619 -5.15726 0
4.70923 -0.545339 0
0 0 0

0.648628 -5.50087 0
6.47438 -0.941574 0
0 0 0

0.360941 -4.78809 0
5.85479 3.26621 0
0 0 0

0.162068 -5.33303 0
4.7445 0.223841 0
0 0 0

-0.0291552 -4.94045 0
3.67691 2.4156 0
0 0 0

-0.101823 -4.56289 0
4.61763 2.92902 0
0 0 0

-0.139729 -4.45689 0
5.36459 0.840282 0
0 0 0

-0.201018 -4.61473 0
6.10066 3.64406 0
0 0 0

-0.178339 -9.11987 0
7.4524 1.6113 0
0 0 0

-0.448512 -8.21439 0
0.231331 -3.40421 0
0 0 0

-0.756185 -4.40275 0
-0.259898 -0.28822 0
0 0 0

-2.01334 -4.38212 0
-7.15813 0.258504 0
0 0 0

-0.817294 -4.42775 0
-0.126544 -0.233671 0
0 0 0

-0.320154 -4.45967 0
3.51215 -0.413836 0
0 0 0

0.134284 -4.9365 0
4.80677 -0.506747 0
0 0 0

-0.813359 -4.54589 0
-0.0647505 -0.346854 0
0 0 0

1.07473 -7.92684 0
4.55346 0.463805 0
0 0 0

0.199795 -6.67251 0
3.80685 0.259151 0
0 0 0

-0.438061 -10.4561 0
1.69973 3.08067 0
0 0 0

2.12461 -9.78755 0
3.98003 1.48011 0
0 0 0

-0.810035 -10.6546 0
0.610106 2.49928 0
0 0 0

-0.537543 -10.1116 0
2.2452 4.02858 0
0 0 0

0.0202956 -10.1839 0
9.83491 2.51533 0
0 0 0

-0.98054 -10.2994 0
0.110646 3.53963 0
0 0 0

0.865193 -2.56857 0
11.7406 3.50188 0
0 0 0

-2.29722 -4.25061 0
-9.42995 0.872664 0
0 0 0

-0.513619 -4.66982 0
0.0370918 0.206155 0
0 0 0

-1.17135 -2.34583 0
-7.73736 2.00134 0
0 0 0

0.189732 -3.82385 0
-5.26937 0.644285 0
0 0 0

0.0116935 -5.78486 0
0.153692 -0.0413445 0
0 0 0

3.05722 -7.15137 0
3.36999 0.0458043 0
0 0 0

1.2443 -5.13234 0
0.427288 0.103491 0
0 0 0

3.9949 -0.495152 0
2.37392 -2.02429 0
0 0 0

4.11852 -8.93653 0
2.89098 1.01529 0
0 0 0

1.93189 -1.60944 0
0.977011 -0.616389 0
0 0 0

4.03033 -2.11894 0
1.36059 -3.47931 0
0 0 0

3.58314 -1.24608 0
0.47776 -1.75617 0
0 0 0

-2.34931 0.918845 0
-1.70669 1.12145 0
0 0 0

-1.58662 2.39873 0
0.339488 3.02999 0
0 0 0

-4.16048 0.1499 0
-3.79378 0.235365 0
0 0 0

-4.36688 4.60217 0
-4.06909 9.9621 0
0 0 0

SCALARS active double 1
LOOKUP_TABLE default
1
1
1
1
1
1
1
1
1
1
1
1
1
1
1
1
1
1
1
1
1
1
1
1
1
1
1
1
1
1
1
1
1
1
1
1
1
1
1
1
1
1
1
1
1
1
1
1
1
1
1
1
1
1
1
1
1
1
1
1
1
1
1
1
SCALARS extent double 1
LOOKUP_TABLE default
0.0125
0.0125
0.0125
0.0125
0.0125
0.0125
0.0125
0.0125
0.0125
0.0125
0.0125
0.0125
0.0125
0.0125
0.0125
0.0125
0.0125
0.0125
0.0125
0.0125
0.0125
0.0125
0.0125
0.0125
0.0125
0.0125
0.0125
0.0125
0.0125
0.0125
0.0125
0.0125
0.0125
0.0125
0.0125
0.0125
0.0125
0.0125
0.0125
0.0125
0.0125
0.0125
0.0125
0.0125
0.0125
0.0125
0.0125
0.0125
0.0125
0.0125
0.0125
0.0125
0.0125
0.0125
0.0125
0.0125
0.0125
0.0125
0.0125
0.0125
0.0125
0.0125
0.0125
0.0125
SCALARS pressure double 1
LOOKUP_TABLE default
-990.741
213.633
-1074.36
670.333
-1012.26
-490.328
-227.182
131.977
1889.48
2672.85
-65.3461
-177.733
807.39
-180.126
-1681.54
1899.48
94.314
33.5401
2923.6
-1664.64
1443.92
630.819
3070.97
-88.1704
-856.364
1495.62
-3590.57
-633.98
-4082.9
2821.65
-459.361
185.188
-507.209
-1461.71
5864.17
8201.25
-2121.99
-279.205
-1482.73
1013.87
-4785.5
-1244.09
2809.58
-278.692
1956.73
-3383.81
-1214.83
-123.301
7000.37
-477.124
2428.16
-1706.99
4452.67
-2856.36
-404.288
3112.68
1428.66
-4824.17
-891.379
705.858
-106.497
702.56
778.418
458.507
SCALARS density double 1
LOOKUP_TABLE default
988.182
1002.57
987.19
1008.08
987.926
994.133
997.278
1001.58
1022.93
1032.59
999.216
997.869
1009.74
997.841
980.024
1023.06
1001.13
1000.4
1035.71
980.223
1017.48
1007.6
1037.54
998.943
989.776
1018.11
957.828
992.421
952.186
1034.44
994.503
1002.22
993.932
982.612
1072.91
1103.42
974.858
996.655
982.365
1012.24
944.192
985.182
1034.29
996.661
1023.76
960.208
985.528
998.521
1087.63
994.291
1029.57
979.724
1054.89
966.304
995.16
1038.06
1017.29
943.754
989.36
1008.51
998.723
1008.47
1009.38
1005.52
