# vtk DataFile Version 3.0
Frame: 0, Time: 0
ASCII
DATASET UNSTRUCTURED_GRID
POINTS 64 double
0.5125 0.61249 0 
0.5125 0.63749 0 
0.5375 0.61249 0 
0.5375 0.63749 0 
0.5125 0.66249 0 
0.5125 0.68749 0 
0.5375 0.66249 0 
0.5375 0.68749 0 
0.5125 0.71249 0 
0.5125 0.73749 0 
0.5375 0.71249 0 
0.5375 0.73749 0 
0.5125 0.76249 0 
0.5125 0.78749 0 
0.5375 0.76249 0 
0.5375 0.78749 0 
0.5625 0.61249 0 
0.5625 0.63749 0 
0.5875 0.61249 0 
0.5875 0.63749 0 
0.5625 0.66249 0 
0.5625 0.68749 0 
0.5875 0.66249 0 
0.5875 0.68749 0 
0.5625 0.71249 0 
0.5625 0.73749 0 
0.5875 0.71249 0 
0.5875 0.73749 0 
0.5625 0.76249 0 
0.5625 0.78749 0 
0.5875 0.76249 0 
0.5875 0.78749 0 
0.6125 0.61249 0 
0.6125 0.63749 0 
0.6375 0.61249 0 
0.6375 0.63749 0 
0.6125 0.66249 0 
0.6125 0.68749 0 
0.6375 0.66249 0 
0.6375 0.68749 0 
0.6125 0.71249 0 
0.6125 0.73749 0 
0.6375 0.71249 0 
0.6375 0.73749 0 
0.6125 0.76249 0 
0.6125 0.78749 0 
0.6375 0.76249 0 
0.6375 0.78749 0 
0.6625 0.61249 0 
0.6625 0.63749 0 
0.6875 0.61249 0 
0.6875 0.63749 0 
0.6625 0.66249 0 
0.6625 0.68749 0 
0.6875 0.66249 0 
0.6875 0.68749 0 
0.6625 0.71249 0 
0.6625 0.73749 0 
0.6875 0.71249 0 
0.6875 0.73749 0 
0.6625 0.76249 0 
0.6625 0.78749 0 
0.6875 0.76249 0 
0.6875 0.78749 0 
CELLS 64 128
1 0
1 1
1 2
1 3
1 4
1 5
1 6
1 7
1 8
1 9
1 10
1 11
1 12
1 13
1 14
1 15
1 16
1 17
1 18
1 19
1 20
1 21
1 22
1 23
1 24
1 25
1 26
1 27
1 28
1 29
1 30
1 31
1 32
1 33
1 34
1 35
1 36
1 37
1 38
1 39
1 40
1 41
1 42
1 43
1 44
1 45
1 46
1 47
1 48
1 49
1 50
1 51
1 52
1 53
1 54
1 55
1 56
1 57
1 58
1 59
1 60
1 61
1 62
1 63
CELL_TYPES 64
1
1
1
1
1
1
1
1
1
1
1
1
1
1
1
1
1
1
1
1
1
1
1
1
1
1
1
1
1
1
1
1
1
1
1
1
1
1
1
1
1
1
1
1
1
1
1
1
1
1
1
1
1
1
1
1
1
1
1
1
1
1
1
1
POINT_DATA 64
VECTORS displacement double
0 -9.81e-06 0 
0 -9.81e-06 0 
0 -9.81e-06 0 
0 -9.81e-06 0 
0 -9.81e-06 0 
0 -9.81e-06 0 
0 -9.81e-06 0 
0 -9.81e-06 0 
0 -9.81e-06 0 
0 -9.81e-06 0 
0 -9.81e-06 0 
0 -9.81e-06 0 
0 -9.81e-06 0 
0 -9.81e-06 0 
0 -9.81e-06 0 
0 -9.81e-06 0 
8.37823e-23 -9.81e-06 0 
2.79274e-23 -9.81e-06 0 
2.51347e-22 -9.81e-06 0 
8.37823e-23 -9.81e-06 0 
0 -9.81e-06 0 
0 -9.81e-06 0 
0 -9.81e-06 0 
0 -9.81e-06 0 
0 -9.81e-06 0 
0 -9.81e-06 0 
0 -9.81e-06 0 
0 -9.81e-06 0 
0 -9.81e-06 0 
0 -9.81e-06 0 
0 -9.81e-06 0 
0 -9.81e-06 0 
2.51347e-22 -9.81e-06 0 
8.37823e-23 -9.81e-06 0 
8.37823e-23 -9.81e-06 0 
2.79274e-23 -9.81e-06 0 
0 -9.81e-06 0 
0 -9.81e-06 0 
0 -9.81e-06 0 
0 -9.81e-06 0 
0 -9.81e-06 0 
0 -9.81e-06 0 
0 -9.81e-06 0 
0 -9.81e-06 0 
0 -9.81e-06 0 
0 -9.81e-06 0 
0 -9.81e-06 0 
0 -9.81e-06 0 
0 -9.81e-06 0 
0 -9.81e-06 0 
0 -9.81e-06 0 
0 -9.81e-06 0 
0 -9.81e-06 0 
0 -9.81e-06 0 
0 -9.81e-06 0 
0 -9.81e-06 0 
0 -9.81e-06 0 
0 -9.81e-06 0 
0 -9.81e-06 0 
0 -9.81e-06 0 
0 -9.81e-06 0 
0 -9.81e-06 0 
0 -9.81e-06 0 
0 -9.81e-06 0 
VECTORS velocity double
0 -0.00981 0 
0 -0.00981 0 
0 -0.00981 0 
0 -0.00981 0 
0 -0.00981 0 
0 -0.00981 0 
0 -0.00981 0 
0 -0.00981 0 
0 -0.00981 0 
0 -0.00981 0 
0 -0.00981 0 
0 -0.00981 0 
0 -0.00981 0 
0 -0.00981 0 
0 -0.00981 0 
0 -0.00981 0 
8.37823e-20 -0.00981 0 
2.79274e-20 -0.00981 0 
2.51347e-19 -0.00981 0 
8.37823e-20 -0.00981 0 
0 -0.00981 0 
0 -0.00981 0 
0 -0.00981 0 
0 -0.00981 0 
0 -0.00981 0 
0 -0.00981 0 
0 -0.00981 0 
0 -0.00981 0 
0 -0.00981 0 
0 -0.00981 0 
0 -0.00981 0 
0 -0.00981 0 
2.51347e-19 -0.00981 0 
8.37823e-20 -0.00981 0 
8.37823e-20 -0.00981 0 
2.79274e-20 -0.00981 0 
0 -0.00981 0 
0 -0.00981 0 
0 -0.00981 0 
0 -0.00981 0 
0 -0.00981 0 
0 -0.00981 0 
0 -0.00981 0 
0 -0.00981 0 
0 -0.00981 0 
0 -0.00981 0 
0 -0.00981 0 
0 -0.00981 0 
0 -0.00981 0 
0 -0.00981 0 
0 -0.00981 0 
0 -0.00981 0 
0 -0.00981 0 
0 -0.00981 0 
0 -0.00981 0 
0 -0.00981 0 
0 -0.00981 0 
0 -0.00981 0 
0 -0.00981 0 
0 -0.00981 0 
0 -0.00981 0 
0 -0.00981 0 
0 -0.00981 0 
0 -0.00981 0 
SCALARS mass double 1
LOOKUP_TABLE default
0.625
0.625
0.625
0.625
0.625
0.625
0.625
0.625
0.625
0.625
0.625
0.625
0.625
0.625
0.625
0.625
0.625
0.625
0.625
0.625
0.625
0.625
0.625
0.625
0.625
0.625
0.625
0.625
0.625
0.625
0.625
0.625
0.625
0.625
0.625
0.625
0.625
0.625
0.625
0.625
0.625
0.625
0.625
0.625
0.625
0.625
0.625
0.625
0.625
0.625
0.625
0.625
0.625
0.625
0.625
0.625
0.625
0.625
0.625
0.625
0.625
0.625
0.625
0.625
SCALARS volume double 1
LOOKUP_TABLE default
0.000625
0.000625
0.000625
0.000625
0.000625
0.000625
0.000625
0.000625
0.000625
0.000625
0.000625
0.000625
0.000625
0.000625
0.000625
0.000625
0.000625
0.000625
0.000625
0.000625
0.000625
0.000625
0.000625
0.000625
0.000625
0.000625
0.000625
0.000625
0.000625
0.000625
0.000625
0.000625
0.000625
0.000625
0.000625
0.000625
0.000625
0.000625
0.000625
0.000625
0.000625
0.000625
0.000625
0.000625
0.000625
0.000625
0.000625
0.000625
0.000625
0.000625
0.000625
0.000625
0.000625
0.000625
0.000625
0.000625
0.000625
0.000625
0.000625
0.000625
0.000625
0.000625
0.000625
0.000625
VECTORS momentum double
0 -0.00613125 0 
0 -0.00613125 0 
0 -0.00613125 0 
0 -0.00613125 0 
0 -0.00613125 0 
0 -0.00613125 0 
0 -0.00613125 0 
0 -0.00613125 0 
0 -0.00613125 0 
0 -0.00613125 0 
0 -0.00613125 0 
0 -0.00613125 0 
0 -0.00613125 0 
0 -0.00613125 0 
0 -0.00613125 0 
0 -0.00613125 0 
5.23639e-20 -0.00613125 0 
1.74546e-20 -0.00613125 0 
1.57092e-19 -0.00613125 0 
5.23639e-20 -0.00613125 0 
0 -0.00613125 0 
0 -0.00613125 0 
0 -0.00613125 0 
0 -0.00613125 0 
0 -0.00613125 0 
0 -0.00613125 0 
0 -0.00613125 0 
0 -0.00613125 0 
0 -0.00613125 0 
0 -0.00613125 0 
0 -0.00613125 0 
0 -0.00613125 0 
1.57092e-19 -0.00613125 0 
5.23639e-20 -0.00613125 0 
5.23639e-20 -0.00613125 0 
1.74546e-20 -0.00613125 0 
0 -0.00613125 0 
0 -0.00613125 0 
0 -0.00613125 0 
0 -0.00613125 0 
0 -0.00613125 0 
0 -0.00613125 0 
0 -0.00613125 0 
0 -0.00613125 0 
0 -0.00613125 0 
0 -0.00613125 0 
0 -0.00613125 0 
0 -0.00613125 0 
0 -0.00613125 0 
0 -0.00613125 0 
0 -0.00613125 0 
0 -0.00613125 0 
0 -0.00613125 0 
0 -0.00613125 0 
0 -0.00613125 0 
0 -0.00613125 0 
0 -0.00613125 0 
0 -0.00613125 0 
0 -0.00613125 0 
0 -0.00613125 0 
0 -0.00613125 0 
0 -0.00613125 0 
0 -0.00613125 0 
0 -0.00613125 0 
VECTORS body_force double
0 -9.81 0 
0 -9.81 0 
0 -9.81 0 
0 -9.81 0 
0 -9.81 0 
0 -9.81 0 
0 -9.81 0 
0 -9.81 0 
0 -9.81 0 
0 -9.81 0 
0 -9.81 0 
0 -9.81 0 
0 -9.81 0 
0 -9.81 0 
0 -9.81 0 
0 -9.81 0 
0 -9.81 0 
0 -9.81 0 
0 -9.81 0 
0 -9.81 0 
0 -9.81 0 
0 -9.81 0 
0 -9.81 0 
0 -9.81 0 
0 -9.81 0 
0 -9.81 0 
0 -9.81 0 
0 -9.81 0 
0 -9.81 0 
0 -9.81 0 
0 -9.81 0 
0 -9.81 0 
0 -9.81 0 
0 -9.81 0 
0 -9.81 0 
0 -9.81 0 
0 -9.81 0 
0 -9.81 0 
0 -9.81 0 
0 -9.81 0 
0 -9.81 0 
0 -9.81 0 
0 -9.81 0 
0 -9.81 0 
0 -9.81 0 
0 -9.81 0 
0 -9.81 0 
0 -9.81 0 
0 -9.81 0 
0 -9.81 0 
0 -9.81 0 
0 -9.81 0 
0 -9.81 0 
0 -9.81 0 
0 -9.81 0 
0 -9.81 0 
0 -9.81 0 
0 -9.81 0 
0 -9.81 0 
0 -9.81 0 
0 -9.81 0 
0 -9.81 0 
0 -9.81 0 
0 -9.81 0 
TENSORS cauchy_stress double
-2.40192e-15 -5.87137e-15 0
-5.87137e-15 -5.60449e-15 0
0 0 -2.40192e-15

-1.60128e-15 -7.47265e-15 0
-7.47265e-15 -3.73633e-15 0
0 0 -1.60128e-15

-4.80385e-15 -7.47265e-15 0
-7.47265e-15 -1.1209e-14 0
0 0 -4.80385e-15

-3.20257e-15 -6.40513e-15 0
-6.40513e-15 -7.47265e-15 0
0 0 -3.20257e-15

-2.0016e-15 -5.60449e-15 0
-5.60449e-15 -4.67041e-15 0
0 0 -2.0016e-15

-3.20257e-15 -8.54018e-15 0
-8.54018e-15 -7.47265e-15 0
0 0 -3.20257e-15

-3.20257e-15 -4.27009e-15 0
-4.27009e-15 -7.47265e-15 0
0 0 -3.20257e-15

6.40513e-15 -4.27009e-15 0
-4.27009e-15 1.49453e-14 0
0 0 6.40513e-15

-8.80706e-15 -8.00642e-15 0
-8.00642e-15 -2.05498e-14 0
0 0 -8.80706e-15

-1.60128e-15 -5.33761e-15 0
-5.33761e-15 -3.73633e-15 0
0 0 -1.60128e-15

-6.40513e-15 -8.54018e-15 0
-8.54018e-15 -1.49453e-14 0
0 0 -6.40513e-15

9.6077e-15 -4.27009e-15 0
-4.27009e-15 2.2418e-14 0
0 0 9.6077e-15

-5.60449e-15 -5.87137e-15 0
-5.87137e-15 -1.30771e-14 0
0 0 -5.60449e-15

4.80385e-15 -5.33761e-15 0
-5.33761e-15 1.1209e-14 0
0 0 4.80385e-15

6.40513e-15 0 0
0 1.49453e-14 0
0 0 6.40513e-15

9.6077e-15 -8.54018e-15 0
-8.54018e-15 2.2418e-14 0
0 0 9.6077e-15

9.02271e-16 -8.59306e-17 0
-8.59306e-17 3.86688e-16 0
0 0 3.86688e-16

-7.70566e-15 -1.15345e-15 0
-1.15345e-15 -1.85527e-14 0
0 0 -7.87752e-15

9.02271e-16 -2.57792e-16 0
-2.57792e-16 3.86688e-16 0
0 0 3.86688e-16

3.00757e-16 -2.57792e-16 0
-2.57792e-16 1.28896e-16 0
0 0 1.28896e-16

-6.80545e-15 1.86816e-15 0
1.86816e-15 -1.58794e-14 0
0 0 -6.80545e-15

-4.80385e-15 -1.06752e-15 0
-1.06752e-15 -1.1209e-14 0
0 0 -4.80385e-15

-9.6077e-15 4.27009e-15 0
4.27009e-15 -2.2418e-14 0
0 0 -9.6077e-15

-3.20257e-15 -2.13504e-15 0
-2.13504e-15 -7.47265e-15 0
0 0 -3.20257e-15

-4.80385e-15 -1.06752e-15 0
-1.06752e-15 -1.1209e-14 0
0 0 -4.80385e-15

1.60128e-15 -1.06752e-15 0
-1.06752e-15 3.73633e-15 0
0 0 1.60128e-15

1.60128e-15 -1.06752e-15 0
-1.06752e-15 3.73633e-15 0
0 0 1.60128e-15

3.20257e-15 0 0
0 7.47265e-15 0
0 0 3.20257e-15

-3.20257e-15 0 0
0 -7.47265e-15 0
0 0 -3.20257e-15

3.20257e-15 -4.27009e-15 0
-4.27009e-15 7.47265e-15 0
0 0 3.20257e-15

-1.60128e-15 1.06752e-15 0
1.06752e-15 -3.73633e-15 0
0 0 -1.60128e-15

3.20257e-15 2.13504e-15 0
2.13504e-15 7.47265e-15 0
0 0 3.20257e-15

6.70382e-15 5.4285e-16 0
5.4285e-16 1.73609e-14 0
0 0 7.21941e-15

6.10438e-15 -8.79797e-15 0
-8.79797e-15 1.48164e-14 0
0 0 6.27624e-15

-4.10484e-15 -2.22097e-15 0
-2.22097e-15 -7.85934e-15 0
0 0 -3.58925e-15

-3.00757e-16 -4.35602e-15 0
-4.35602e-15 -1.28896e-16 0
0 0 -1.28896e-16

-1.44115e-14 -5.33761e-15 0
-5.33761e-15 -3.36269e-14 0
0 0 -1.44115e-14

-1.1209e-14 -3.20257e-15 0
-3.20257e-15 -2.61543e-14 0
0 0 -1.1209e-14

3.20257e-15 0 0
0 7.47265e-15 0
0 0 3.20257e-15

-3.20257e-15 -2.13504e-15 0
-2.13504e-15 -7.47265e-15 0
0 0 -3.20257e-15

-4.00321e-15 1.60128e-15 0
1.60128e-15 -9.34082e-15 0
0 0 -4.00321e-15

0 -4.27009e-15 0
-4.27009e-15 0 0
0 0 0

-1.28103e-14 -2.13504e-15 0
-2.13504e-15 -2.98906e-14 0
0 0 -1.28103e-14

6.40513e-15 -8.54018e-15 0
-8.54018e-15 1.49453e-14 0
0 0 6.40513e-15

-1.60128e-15 -3.20257e-15 0
-3.20257e-15 -3.73633e-15 0
0 0 -1.60128e-15

1.60128e-15 -3.20257e-15 0
-3.20257e-15 3.73633e-15 0
0 0 1.60128e-15

9.6077e-15 -2.13504e-15 0
-2.13504e-15 2.2418e-14 0
0 0 9.6077e-15

9.6077e-15 -6.40513e-15 0
-6.40513e-15 2.2418e-14 0
0 0 9.6077e-15

-4.00321e-15 3.73633e-15 0
3.73633e-15 -9.34082e-15 0
0 0 -4.00321e-15

-8.00642e-15 -1.06752e-15 0
-1.06752e-15 -1.86816e-14 0
0 0 -8.00642e-15

-3.20257e-15 2.13504e-15 0
2.13504e-15 -7.47265e-15 0
0 0 -3.20257e-15

3.20257e-15 2.13504e-15 0
2.13504e-15 7.47265e-15 0
0 0 3.20257e-15

-2.40192e-15 2.66881e-15 0
2.66881e-15 -5.60449e-15 0
0 0 -2.40192e-15

-9.6077e-15 -2.13504e-15 0
-2.13504e-15 -2.2418e-14 0
0 0 -9.6077e-15

-4.80385e-15 1.06752e-15 0
1.06752e-15 -1.1209e-14 0
0 0 -4.80385e-15

3.20257e-15 2.13504e-15 0
2.13504e-15 7.47265e-15 0
0 0 3.20257e-15

-2.40192e-15 2.66881e-15 0
2.66881e-15 -5.60449e-15 0
0 0 -2.40192e-15

-1.76141e-14 1.06752e-15 0
1.06752e-15 -4.10996e-14 0
0 0 -1.76141e-14

0 0 0
0 0 0
0 0 0

6.40513e-15 6.40513e-15 0
6.40513e-15 1.49453e-14 0
0 0 6.40513e-15

-4.40353e-15 5.60449e-15 0
5.60449e-15 -1.02749e-14 0
0 0 -4.40353e-15

-4.80385e-15 -1.06752e-15 0
-1.06752e-15 -1.1209e-14 0
0 0 -4.80385e-15

6.40513e-15 6.40513e-15 0
6.40513e-15 1.49453e-14 0
0 0 6.40513e-15

0 0 0
0 0 0
0 0 0

TENSORS velocity_gradient double
0 0 0
-1.52656e-16 -4.16334e-17 0
0 0 0

0 0 0
-1.94289e-16 -2.77556e-17 0
0 0 0

0 0 0
-1.94289e-16 -8.32667e-17 0
0 0 0

0 0 0
-1.66533e-16 -5.55112e-17 0
0 0 0

0 0 0
-1.45717e-16 -3.46945e-17 0
0 0 0

0 0 0
-2.22045e-16 -5.55112e-17 0
0 0 0

0 0 0
-1.11022e-16 -5.55112e-17 0
0 0 0

0 0 0
-1.11022e-16 1.11022e-16 0
0 0 0

0 0 0
-2.08167e-16 -1.52656e-16 0
0 0 0

0 0 0
-1.38778e-16 -2.77556e-17 0
0 0 0

0 0 0
-2.22045e-16 -1.11022e-16 0
0 0 0

0 0 0
-1.11022e-16 1.66533e-16 0
0 0 0

0 0 0
-1.52656e-16 -9.71445e-17 0
0 0 0

0 0 0
-1.38778e-16 8.32667e-17 0
0 0 0

0 0 0
0 1.11022e-16 0
0 0 0

0 0 0
-2.22045e-16 1.66533e-16 0
0 0 0

6.70258e-18 -2.23419e-18 0
0 0 0
0 0 0

2.23419e-18 -2.23419e-18 0
-2.77556e-17 -1.38778e-16 0
0 0 0

6.70258e-18 -6.70258e-18 0
0 0 0
0 0 0

2.23419e-18 -6.70258e-18 0
0 0 0
0 0 0

0 0 0
4.85723e-17 -1.17961e-16 0
0 0 0

0 0 0
-2.77556e-17 -8.32667e-17 0
0 0 0

0 0 0
1.11022e-16 -1.66533e-16 0
0 0 0

0 0 0
-5.55112e-17 -5.55112e-17 0
0 0 0

0 0 0
-2.77556e-17 -8.32667e-17 0
0 0 0

0 0 0
-2.77556e-17 2.77556e-17 0
0 0 0

0 0 0
-2.77556e-17 2.77556e-17 0
0 0 0

0 0 0
0 5.55112e-17 0
0 0 0

0 0 0
0 -5.55112e-17 0
0 0 0

0 0 0
-1.11022e-16 5.55112e-17 0
0 0 0

0 0 0
2.77556e-17 -2.77556e-17 0
0 0 0

0 0 0
5.55112e-17 5.55112e-17 0
0 0 0

-6.70258e-18 -6.70258e-18 0
2.08167e-17 1.31839e-16 0
0 0 0

-2.23419e-18 -6.70258e-18 0
-2.22045e-16 1.11022e-16 0
0 0 0

-6.70258e-18 -2.23419e-18 0
-5.55112e-17 -5.55112e-17 0
0 0 0

-2.23419e-18 -2.23419e-18 0
-1.11022e-16 0 0
0 0 0

0 0 0
-1.38778e-16 -2.498e-16 0
0 0 0

0 0 0
-8.32667e-17 -1.94289e-16 0
0 0 0

0 0 0
0 5.55112e-17 0
0 0 0

0 0 0
-5.55112e-17 -5.55112e-17 0
0 0 0

0 0 0
4.16334e-17 -6.93889e-17 0
0 0 0

0 0 0
-1.11022e-16 0 0
0 0 0

0 0 0
-5.55112e-17 -2.22045e-16 0
0 0 0

0 0 0
-2.22045e-16 1.11022e-16 0
0 0 0

0 0 0
-8.32667e-17 -2.77556e-17 0
0 0 0

0 0 0
-8.32667e-17 2.77556e-17 0
0 0 0

0 0 0
-5.55112e-17 1.66533e-16 0
0 0 0

0 0 0
-1.66533e-16 1.66533e-16 0
0 0 0

0 0 0
9.71445e-17 -6.93889e-17 0
0 0 0

0 0 0
-2.77556e-17 -1.38778e-16 0
0 0 0

0 0 0
5.55112e-17 -5.55112e-17 0
0 0 0

0 0 0
5.55112e-17 5.55112e-17 0
0 0 0

0 0 0
6.93889e-17 -4.16334e-17 0
0 0 0

0 0 0
-5.55112e-17 -1.66533e-16 0
0 0 0

0 0 0
2.77556e-17 -8.32667e-17 0
0 0 0

0 0 0
5.55112e-17 5.55112e-17 0
0 0 0

0 0 0
6.93889e-17 -4.16334e-17 0
0 0 0

0 0 0
2.77556e-17 -3.05311e-16 0
0 0 0

0 0 0
0 0 0
0 0 0

0 0 0
1.66533e-16 1.11022e-16 0
0 0 0

0 0 0
1.45717e-16 -7.63278e-17 0
0 0 0

0 0 0
-2.77556e-17 -8.32667e-17 0
0 0 0

0 0 0
1.66533e-16 1.11022e-16 0
0 0 0

0 0 0
0 0 0
0 0 0

SCALARS active double 1
LOOKUP_TABLE default
1
1
1
1
1
1
1
1
1
1
1
1
1
1
1
1
1
1
1
1
1
1
1
1
1
1
1
1
1
1
1
1
1
1
1
1
1
1
1
1
1
1
1
1
1
1
1
1
1
1
1
1
1
1
1
1
1
1
1
1
1
1
1
1
SCALARS extent double 1
LOOKUP_TABLE default
0.0125
0.0125
0.0125
0.0125
0.0125
0.0125
0.0125
0.0125
0.0125
0.0125
0.0125
0.0125
0.0125
0.0125
0.0125
0.0125
0.0125
0.0125
0.0125
0.0125
0.0125
0.0125
0.0125
0.0125
0.0125
0.0125
0.0125
0.0125
0.0125
0.0125
0.0125
0.0125
0.0125
0.0125
0.0125
0.0125
0.0125
0.0125
0.0125
0.0125
0.0125
0.0125
0.0125
0.0125
0.0125
0.0125
0.0125
0.0125
0.0125
0.0125
0.0125
0.0125
0.0125
0.0125
0.0125
0.0125
0.0125
0.0125
0.0125
0.0125
0.0125
0.0125
0.0125
0.0125
SCALARS pressure double 1
LOOKUP_TABLE default
3.46945e-15
2.31296e-15
6.93889e-15
4.62593e-15
2.89121e-15
4.62593e-15
4.62593e-15
-9.25186e-15
1.27213e-14
2.31296e-15
9.25186e-15
-1.38778e-14
8.09538e-15
-6.93889e-15
-9.25186e-15
-1.38778e-14
-5.58549e-16
1.13786e-14
-5.58549e-16
-1.86183e-16
9.8301e-15
6.93889e-15
1.38778e-14
4.62593e-15
6.93889e-15
-2.31296e-15
-2.31296e-15
-4.62593e-15
4.62593e-15
-4.62593e-15
2.31296e-15
-4.62593e-15
-1.0428e-14
-9.06568e-15
5.18448e-15
1.86183e-16
2.08167e-14
1.61908e-14
-4.62593e-15
4.62593e-15
5.78241e-15
-0
1.85037e-14
-9.25186e-15
2.31296e-15
-2.31296e-15
-1.38778e-14
-1.38778e-14
5.78241e-15
1.15648e-14
4.62593e-15
-4.62593e-15
3.46945e-15
1.38778e-14
6.93889e-15
-4.62593e-15
3.46945e-15
2.54426e-14
-0
-9.25186e-15
6.36065e-15
6.93889e-15
-9.25186e-15
-0
SCALARS density double 1
LOOKUP_TABLE default
1000
1000
1000
1000
1000
1000
1000
1000
1000
1000
1000
1000
1000
1000
1000
1000
1000
1000
1000
1000
1000
1000
1000
1000
1000
1000
1000
1000
1000
1000
1000
1000
1000
1000
1000
1000
1000
1000
1000
1000
1000
1000
1000
1000
1000
1000
1000
1000
1000
1000
1000
1000
1000
1000
1000
1000
1000
1000
1000
1000
1000
1000
1000
1000
