# vtk DataFile Version 3.0
Frame: 5, Time: 0.084
ASCII
DATASET UNSTRUCTURED_GRID
POINTS 64 double
0.4125 0.376644 0 
0.4125 0.401644 0 
0.4375 0.376644 0 
0.4375 0.401644 0 
0.4125 0.426644 0 
0.4125 0.451644 0 
0.4375 0.426644 0 
0.4375 0.451644 0 
0.4125 0.476644 0 
0.4125 0.501644 0 
0.4375 0.476644 0 
0.4375 0.501644 0 
0.4125 0.526644 0 
0.4125 0.551644 0 
0.4375 0.526644 0 
0.4375 0.551644 0 
0.4625 0.376644 0 
0.4625 0.401644 0 
0.4875 0.376644 0 
0.4875 0.401644 0 
0.4625 0.426644 0 
0.4625 0.451644 0 
0.4875 0.426644 0 
0.4875 0.451644 0 
0.4625 0.476644 0 
0.4625 0.501644 0 
0.4875 0.476644 0 
0.4875 0.501644 0 
0.4625 0.526644 0 
0.4625 0.551644 0 
0.4875 0.526644 0 
0.4875 0.551644 0 
0.5125 0.376644 0 
0.5125 0.401644 0 
0.5375 0.376644 0 
0.5375 0.401644 0 
0.5125 0.426644 0 
0.5125 0.451644 0 
0.5375 0.426644 0 
0.5375 0.451644 0 
0.5125 0.476644 0 
0.5125 0.501644 0 
0.5375 0.476644 0 
0.5375 0.501644 0 
0.5125 0.526644 0 
0.5125 0.551644 0 
0.5375 0.526644 0 
0.5375 0.551644 0 
0.5625 0.376644 0 
0.5625 0.401644 0 
0.5875 0.376644 0 
0.5875 0.401644 0 
0.5625 0.426644 0 
0.5625 0.451644 0 
0.5875 0.426644 0 
0.5875 0.451644 0 
0.5625 0.476644 0 
0.5625 0.501644 0 
0.5875 0.476644 0 
0.5875 0.501644 0 
0.5625 0.526644 0 
0.5625 0.551644 0 
0.5875 0.526644 0 
0.5875 0.551644 0 
CELLS 64 128
1 0
1 1
1 2
1 3
1 4
1 5
1 6
1 7
1 8
1 9
1 10
1 11
1 12
1 13
1 14
1 15
1 16
1 17
1 18
1 19
1 20
1 21
1 22
1 23
1 24
1 25
1 26
1 27
1 28
1 29
1 30
1 31
1 32
1 33
1 34
1 35
1 36
1 37
1 38
1 39
1 40
1 41
1 42
1 43
1 44
1 45
1 46
1 47
1 48
1 49
1 50
1 51
1 52
1 53
1 54
1 55
1 56
1 57
1 58
1 59
1 60
1 61
1 62
1 63
CELL_TYPES 64
1
1
1
1
1
1
1
1
1
1
1
1
1
1
1
1
1
1
1
1
1
1
1
1
1
1
1
1
1
1
1
1
1
1
1
1
1
1
1
1
1
1
1
1
1
1
1
1
1
1
1
1
1
1
1
1
1
1
1
1
1
1
1
1
POINT_DATA 64
VECTORS displacement double
-1.22065e-17 -0.0358556 0 
-1.64364e-17 -0.0358556 0 
-1.2998e-17 -0.0358556 0 
-1.56868e-17 -0.0358556 0 
-2.13457e-17 -0.0358556 0 
-1.73136e-17 -0.0358556 0 
-1.79856e-17 -0.0358556 0 
-1.61219e-17 -0.0358556 0 
-1.16279e-17 -0.0358556 0 
-1.09004e-17 -0.0358556 0 
-1.34643e-17 -0.0358556 0 
-1.21282e-17 -0.0358556 0 
-1.00182e-17 -0.0358555 0 
-7.7423e-18 -0.0358556 0 
-1.0315e-17 -0.0358556 0 
-7.41053e-18 -0.0358556 0 
-1.23043e-17 -0.0358556 0 
-1.36745e-17 -0.0358556 0 
-1.01254e-17 -0.0358556 0 
-1.03994e-17 -0.0358556 0 
-1.43589e-17 -0.0358556 0 
-1.41222e-17 -0.0358556 0 
-1.04656e-17 -0.0358556 0 
-1.13144e-17 -0.0358556 0 
-1.3804e-17 -0.0358556 0 
-1.26561e-17 -0.0358556 0 
-1.26469e-17 -0.0358556 0 
-1.24841e-17 -0.0358556 0 
-1.08345e-17 -0.0358556 0 
-7.4784e-18 -0.0358556 0 
-1.15766e-17 -0.0358556 0 
-7.94589e-18 -0.0358556 0 
-7.72059e-18 -0.0358555 0 
-7.13126e-18 -0.0358555 0 
-5.08997e-18 -0.0358555 0 
-3.87019e-18 -0.0358555 0 
-6.83235e-18 -0.0358555 0 
-8.50679e-18 -0.0358555 0 
-3.4591e-18 -0.0358555 0 
-5.69933e-18 -0.0358555 0 
-1.07309e-17 -0.0358555 0 
-1.17176e-17 -0.0358555 0 
-8.05593e-18 -0.0358555 0 
-1.03566e-17 -0.0358555 0 
-1.2371e-17 -0.0358555 0 
-9.99164e-18 -0.0358555 0 
-1.32175e-17 -0.0358555 0 
-1.36157e-17 -0.0358555 0 
-4.18671e-18 -0.0358555 0 
-2.04709e-18 -0.0358555 0 
-5.0108e-18 -0.0358555 0 
-1.66197e-18 -0.0358555 0 
-5.99658e-19 -0.0358555 0 
-3.79761e-18 -0.0358555 0 
1.74598e-18 -0.0358555 0 
-2.80165e-18 -0.0358555 0 
-7.1192e-18 -0.0358555 0 
-1.0284e-17 -0.0358555 0 
-7.92067e-18 -0.0358555 0 
-1.14998e-17 -0.0358555 0 
-1.42632e-17 -0.0358555 0 
-1.6723e-17 -0.0358555 0 
-1.55082e-17 -0.0358555 0 
-1.93138e-17 -0.0358555 0 
VECTORS velocity double
1.45479e-16 -0.83385 0 
8.77334e-16 -0.83385 0 
-8.08029e-17 -0.83385 0 
5.42315e-17 -0.83385 0 
6.92155e-16 -0.83385 0 
1.70831e-15 -0.83385 0 
2.52154e-16 -0.83385 0 
6.59248e-16 -0.83385 0 
1.19209e-15 -0.83385 0 
3.18911e-16 -0.83385 0 
4.10328e-16 -0.83385 0 
1.68128e-16 -0.83385 0 
2.45268e-16 -0.83385 0 
-3.05156e-16 -0.83385 0 
-9.02865e-18 -0.83385 0 
-4.07115e-16 -0.83385 0 
-3.74408e-16 -0.83385 0 
-4.46543e-16 -0.83385 0 
-7.35337e-16 -0.83385 0 
-6.24989e-16 -0.83385 0 
-1.22459e-16 -0.83385 0 
-2.1784e-17 -0.83385 0 
-4.31683e-16 -0.83385 0 
-3.34789e-16 -0.83385 0 
-3.4313e-17 -0.83385 0 
2.97507e-17 -0.83385 0 
-1.41835e-16 -0.83385 0 
-9.62199e-17 -0.83385 0 
-2.32034e-16 -0.83385 0 
-4.04378e-16 -0.83385 0 
-4.23748e-16 -0.83385 0 
-2.96946e-16 -0.83385 0 
-1.0709e-15 -0.83385 0 
-8.04682e-16 -0.83385 0 
-1.38111e-15 -0.83385 0 
-9.85623e-16 -0.83385 0 
-7.91201e-16 -0.83385 0 
-7.07213e-16 -0.83385 0 
-1.20101e-15 -0.83385 0 
-1.13906e-15 -0.83385 0 
-2.99103e-16 -0.83385 0 
-1.9968e-16 -0.83385 0 
-5.06118e-16 -0.83385 0 
-2.80631e-16 -0.83385 0 
-3.66095e-16 -0.83385 0 
-5.70792e-17 -0.83385 0 
-5.9074e-17 -0.83385 0 
3.15224e-16 -0.83385 0 
-1.68496e-15 -0.83385 0 
-1.49435e-15 -0.83385 0 
-1.98245e-15 -0.83385 0 
-2.33085e-15 -0.83385 0 
-1.72574e-15 -0.83385 0 
-1.94952e-15 -0.83385 0 
-2.36538e-15 -0.83385 0 
-3.1386e-15 -0.83385 0 
-1.21319e-15 -0.83385 0 
-6.8288e-16 -0.83385 0 
-2.42031e-15 -0.83385 0 
-1.40643e-15 -0.83385 0 
3.4714e-17 -0.83385 0 
5.69616e-16 -0.83385 0 
-8.4731e-17 -0.83385 0 
7.06098e-16 -0.83385 0 
SCALARS mass double 1
LOOKUP_TABLE default
0.625
0.625
0.625
0.625
0.625
0.625
0.625
0.625
0.625
0.625
0.625
0.625
0.625
0.625
0.625
0.625
0.625
0.625
0.625
0.625
0.625
0.625
0.625
0.625
0.625
0.625
0.625
0.625
0.625
0.625
0.625
0.625
0.625
0.625
0.625
0.625
0.625
0.625
0.625
0.625
0.625
0.625
0.625
0.625
0.625
0.625
0.625
0.625
0.625
0.625
0.625
0.625
0.625
0.625
0.625
0.625
0.625
0.625
0.625
0.625
0.625
0.625
0.625
0.625
SCALARS volume double 1
LOOKUP_TABLE default
0.000625
0.000625
0.000625
0.000625
0.000625
0.000625
0.000625
0.000625
0.000625
0.000625
0.000625
0.000625
0.000625
0.000625
0.000625
0.000625
0.000625
0.000625
0.000625
0.000625
0.000625
0.000625
0.000625
0.000625
0.000625
0.000625
0.000625
0.000625
0.000625
0.000625
0.000625
0.000625
0.000625
0.000625
0.000625
0.000625
0.000625
0.000625
0.000625
0.000625
0.000625
0.000625
0.000625
0.000625
0.000625
0.000625
0.000625
0.000625
0.000625
0.000625
0.000625
0.000625
0.000625
0.000625
0.000625
0.000625
0.000625
0.000625
0.000625
0.000625
0.000625
0.000625
0.000625
0.000625
VECTORS momentum double
9.09245e-17 -0.521156 0 
5.48334e-16 -0.521156 0 
-5.05018e-17 -0.521156 0 
3.38947e-17 -0.521156 0 
4.32597e-16 -0.521156 0 
1.06769e-15 -0.521156 0 
1.57596e-16 -0.521156 0 
4.1203e-16 -0.521156 0 
7.45054e-16 -0.521156 0 
1.9932e-16 -0.521156 0 
2.56455e-16 -0.521156 0 
1.0508e-16 -0.521156 0 
1.53292e-16 -0.521156 0 
-1.90723e-16 -0.521156 0 
-5.6429e-18 -0.521156 0 
-2.54447e-16 -0.521156 0 
-2.34005e-16 -0.521156 0 
-2.79089e-16 -0.521156 0 
-4.59586e-16 -0.521156 0 
-3.90618e-16 -0.521156 0 
-7.65367e-17 -0.521156 0 
-1.3615e-17 -0.521156 0 
-2.69802e-16 -0.521156 0 
-2.09243e-16 -0.521156 0 
-2.14456e-17 -0.521156 0 
1.85942e-17 -0.521156 0 
-8.86466e-17 -0.521156 0 
-6.01374e-17 -0.521156 0 
-1.45021e-16 -0.521156 0 
-2.52736e-16 -0.521156 0 
-2.64843e-16 -0.521156 0 
-1.85591e-16 -0.521156 0 
-6.69315e-16 -0.521156 0 
-5.02926e-16 -0.521156 0 
-8.63192e-16 -0.521156 0 
-6.16014e-16 -0.521156 0 
-4.94501e-16 -0.521156 0 
-4.42008e-16 -0.521156 0 
-7.50634e-16 -0.521156 0 
-7.1191e-16 -0.521156 0 
-1.86939e-16 -0.521156 0 
-1.248e-16 -0.521156 0 
-3.16324e-16 -0.521156 0 
-1.75394e-16 -0.521156 0 
-2.28809e-16 -0.521156 0 
-3.56745e-17 -0.521156 0 
-3.69213e-17 -0.521156 0 
1.97015e-16 -0.521156 0 
-1.0531e-15 -0.521156 0 
-9.33966e-16 -0.521156 0 
-1.23903e-15 -0.521156 0 
-1.45678e-15 -0.521156 0 
-1.07859e-15 -0.521156 0 
-1.21845e-15 -0.521156 0 
-1.47836e-15 -0.521156 0 
-1.96163e-15 -0.521156 0 
-7.58242e-16 -0.521156 0 
-4.268e-16 -0.521156 0 
-1.51269e-15 -0.521156 0 
-8.79016e-16 -0.521156 0 
2.16962e-17 -0.521156 0 
3.5601e-16 -0.521156 0 
-5.29569e-17 -0.521156 0 
4.41311e-16 -0.521156 0 
VECTORS body_force double
0 -9.81 0 
0 -9.81 0 
0 -9.81 0 
0 -9.81 0 
0 -9.81 0 
0 -9.81 0 
0 -9.81 0 
0 -9.81 0 
0 -9.81 0 
0 -9.81 0 
0 -9.81 0 
0 -9.81 0 
0 -9.81 0 
0 -9.81 0 
0 -9.81 0 
0 -9.81 0 
0 -9.81 0 
0 -9.81 0 
0 -9.81 0 
0 -9.81 0 
0 -9.81 0 
0 -9.81 0 
0 -9.81 0 
0 -9.81 0 
0 -9.81 0 
0 -9.81 0 
0 -9.81 0 
0 -9.81 0 
0 -9.81 0 
0 -9.81 0 
0 -9.81 0 
0 -9.81 0 
0 -9.81 0 
0 -9.81 0 
0 -9.81 0 
0 -9.81 0 
0 -9.81 0 
0 -9.81 0 
0 -9.81 0 
0 -9.81 0 
0 -9.81 0 
0 -9.81 0 
0 -9.81 0 
0 -9.81 0 
0 -9.81 0 
0 -9.81 0 
0 -9.81 0 
0 -9.81 0 
0 -9.81 0 
0 -9.81 0 
0 -9.81 0 
0 -9.81 0 
0 -9.81 0 
0 -9.81 0 
0 -9.81 0 
0 -9.81 0 
0 -9.81 0 
0 -9.81 0 
0 -9.81 0 
0 -9.81 0 
0 -9.81 0 
0 -9.81 0 
0 -9.81 0 
0 -9.81 0 
TENSORS cauchy_stress double
-2.5865e-12 1.55298e-12 0
1.55298e-12 2.08339e-12 0
0 0 -1.50934e-13

1.52144e-11 -4.95907e-12 0
-4.95907e-12 2.7813e-11 0
0 0 1.29082e-11

-4.19979e-12 1.71095e-12 0
1.71095e-12 -1.68096e-12 0
0 0 -1.76423e-12

7.32809e-12 -1.37689e-12 0
-1.37689e-12 9.41154e-12 0
0 0 5.02189e-12

2.07257e-11 -7.19303e-12 0
-7.19303e-12 1.38975e-11 0
0 0 1.0387e-11

-1.92246e-11 7.23397e-12 0
7.23397e-12 -5.70798e-11 0
0 0 -2.28913e-11

1.3658e-11 -3.93132e-12 0
-3.93132e-12 -2.59371e-12 0
0 0 3.3193e-12

-2.5705e-11 2.95051e-12 0
2.95051e-12 -7.22007e-11 0
0 0 -2.93717e-11

2.63515e-11 6.05697e-13 0
6.05697e-13 8.03218e-11 0
0 0 3.2002e-11

1.16274e-11 -7.37893e-12 0
-7.37893e-12 3.97234e-11 0
0 0 1.54052e-11

2.48042e-11 -1.70525e-12 0
-1.70525e-12 7.67115e-11 0
0 0 3.04547e-11

9.65457e-12 -4.49429e-12 0
-4.49429e-12 3.51202e-11 0
0 0 1.34324e-11

9.78246e-13 -2.24211e-12 0
-2.24211e-12 5.32756e-12 0
0 0 1.89174e-12

4.07306e-12 -3.55556e-12 0
-3.55556e-12 6.10109e-12 0
0 0 3.05225e-12

3.47024e-12 6.26946e-13 0
6.26946e-13 1.11422e-11 0
0 0 4.38374e-12

1.2484e-12 -3.32923e-12 0
-3.32923e-12 -4.89793e-13 0
0 0 2.27582e-13

7.6139e-12 -2.34027e-12 0
-2.34027e-12 -4.58242e-12 0
0 0 9.09444e-13

2.04456e-11 -4.52539e-12 0
-4.52539e-12 1.41153e-11 0
0 0 1.03683e-11

9.98981e-12 -1.00924e-12 0
-1.00924e-12 9.61352e-13 0
0 0 3.28535e-12

2.27243e-11 -7.20421e-14 0
-7.20421e-14 1.94321e-11 0
0 0 1.26469e-11

2.00735e-11 -8.92883e-13 0
-8.92883e-13 6.90708e-12 0
0 0 8.09416e-12

-2.09004e-11 -4.95724e-12 0
-4.95724e-12 -7.75654e-11 0
0 0 -2.95397e-11

1.46411e-11 -8.95171e-13 0
-8.95171e-13 -5.76842e-12 0
0 0 2.66181e-12

-2.20437e-11 -6.88868e-13 0
-6.88868e-13 -8.02332e-11 0
0 0 -3.06831e-11

4.05181e-11 -1.53256e-12 0
-1.53256e-12 8.26744e-11 0
0 0 3.69577e-11

1.75284e-11 -2.09077e-12 0
-2.09077e-12 3.91352e-11 0
0 0 1.69991e-11

3.59176e-11 -6.80287e-12 0
-6.80287e-12 7.19399e-11 0
0 0 3.23572e-11

1.47934e-11 -4.79287e-12 0
-4.79287e-12 3.27536e-11 0
0 0 1.42641e-11

-2.58845e-12 -1.19532e-12 0
-1.19532e-12 1.57167e-12 0
0 0 -3.05036e-13

-7.20627e-13 1.40699e-12 0
1.40699e-12 3.11333e-12 0
0 0 7.17811e-13

2.12332e-12 -2.02996e-12 0
-2.02996e-12 1.25658e-11 0
0 0 4.40674e-12

-2.01767e-12 2.03393e-12 0
2.03393e-12 8.69058e-14 0
0 0 -5.79228e-13

9.91265e-12 6.74797e-13 0
6.74797e-13 -3.85117e-12 0
0 0 1.81844e-12

2.29255e-11 -1.39098e-12 0
-1.39098e-12 2.0046e-11 0
0 0 1.28915e-11

1.19319e-11 8.48743e-13 0
8.48743e-13 8.60343e-13 0
0 0 3.83766e-12

2.01601e-11 1.7967e-13 0
1.7967e-13 1.35934e-11 0
0 0 1.0126e-11

1.31756e-11 -1.90896e-12 0
-1.90896e-12 -3.85424e-12 0
0 0 2.79642e-12

-2.09854e-11 -3.13478e-12 0
-3.13478e-12 -7.77605e-11 0
0 0 -2.96238e-11

1.10499e-11 -2.45963e-13 0
-2.45963e-13 -8.81422e-12 0
0 0 6.70715e-13

-1.81543e-11 -5.93041e-12 0
-5.93041e-12 -7.11546e-11 0
0 0 -2.67927e-11

3.82382e-11 -8.045e-13 0
-8.045e-13 6.17872e-11 0
0 0 3.00076e-11

1.35221e-11 -1.61579e-12 0
-1.61579e-12 1.75928e-11 0
0 0 9.33449e-12

4.37102e-11 -3.05416e-12 0
-3.05416e-12 7.45552e-11 0
0 0 3.54796e-11

1.43708e-11 -4.36847e-12 0
-4.36847e-12 1.95731e-11 0
0 0 1.01832e-11

-2.25349e-12 -1.02206e-12 0
-1.02206e-12 3.42402e-12 0
0 0 3.51159e-13

-1.5807e-11 -8.1132e-14 0
-8.1132e-14 2.86473e-13 0
0 0 -4.65615e-12

-3.08736e-12 -6.06889e-12 0
-6.06889e-12 1.47833e-12 0
0 0 -4.8271e-13

-1.46172e-11 -7.7806e-13 0
-7.7806e-13 3.06256e-12 0
0 0 -3.4664e-12

-5.38296e-12 -2.41754e-12 0
-2.41754e-12 -4.10804e-12 0
0 0 -2.8473e-12

1.16093e-11 6.0143e-13 0
6.0143e-13 2.31386e-11 0
0 0 1.04244e-11

-4.97543e-12 -2.96712e-12 0
-2.96712e-12 -3.15715e-12 0
0 0 -2.43977e-12

1.4884e-11 3.07046e-12 0
3.07046e-12 3.07794e-11 0
0 0 1.3699e-11

1.52477e-11 2.94743e-12 0
2.94743e-12 1.152e-11 0
0 0 8.03032e-12

-2.48101e-11 -1.56871e-12 0
-1.56871e-12 -6.81052e-11 0
0 0 -2.78746e-11

1.5371e-11 4.75636e-12 0
4.75636e-12 1.18077e-11 0
0 0 8.15362e-12

-2.26148e-11 -6.99875e-12 0
-6.99875e-12 -6.29827e-11 0
0 0 -2.56792e-11

2.3355e-11 3.06465e-12 0
3.06465e-12 6.27151e-11 0
0 0 2.5821e-11

-3.94516e-13 1.96876e-12 0
1.96876e-12 1.15493e-11 0
0 0 3.34642e-12

3.43802e-11 -1.53752e-12 0
-1.53752e-12 8.84407e-11 0
0 0 3.68463e-11

9.54625e-12 2.24348e-12 0
2.24348e-12 3.47444e-11 0
0 0 1.32872e-11

-3.4667e-12 5.39862e-12 0
5.39862e-12 4.67997e-12 0
0 0 3.6398e-13

-1.01999e-11 8.34937e-12 0
8.34937e-12 2.77185e-12 0
0 0 -2.22842e-12

-9.72706e-13 4.41298e-12 0
4.41298e-12 1.04993e-11 0
0 0 2.85798e-12

-1.04433e-11 3.98541e-12 0
3.98541e-12 2.20393e-12 0
0 0 -2.47182e-12

TENSORS velocity_gradient double
-8.54493e-15 9.65139e-15 0
1.77636e-15 -1.24345e-14 0
0 0 0

-1.33491e-14 9.20007e-15 0
4.88498e-15 1.19904e-14 0
0 0 0

-8.54493e-15 4.13048e-15 0
1.42109e-14 -2.13163e-14 0
0 0 0

-1.33491e-14 6.54594e-15 0
-8.88178e-15 1.24345e-14 0
0 0 0

-1.50742e-14 9.00505e-15 0
3.55271e-15 3.90799e-14 0
0 0 0

-1.57393e-14 -2.36548e-15 0
5.77316e-15 5.77316e-15 0
0 0 0

-1.50742e-14 7.58972e-15 0
7.10543e-15 4.26326e-14 0
0 0 0

-1.57393e-14 -7.8014e-16 0
7.99361e-15 -1.33227e-14 0
0 0 0

-1.31815e-14 -7.27895e-15 0
5.32907e-15 -1.77636e-15 0
0 0 0

-1.02919e-14 -1.12492e-14 0
-1.15463e-14 6.66134e-14 0
0 0 0

-1.31815e-14 -4.39695e-15 0
1.06581e-14 -1.06581e-14 0
0 0 0

-1.02919e-14 -8.33701e-15 0
-4.44089e-15 7.37188e-14 0
0 0 0

-7.36997e-15 -1.29648e-14 0
-1.24345e-14 -5.32907e-15 0
0 0 0

-5.36182e-15 -2.26452e-15 0
-1.86517e-14 9.76996e-15 0
0 0 0

-7.36997e-15 -1.00396e-14 0
-1.06581e-14 1.06581e-14 0
0 0 0

-5.36182e-15 -3.00763e-15 0
-1.24345e-14 1.59872e-14 0
0 0 0

-1.36563e-14 1.62945e-15 0
3.55271e-15 -2.4869e-14 0
0 0 0

-1.34043e-14 4.94447e-15 0
1.59872e-14 2.30926e-14 0
0 0 0

-1.36563e-14 2.14827e-15 0
1.06581e-14 -1.77636e-14 0
0 0 0

-1.34043e-14 4.39567e-15 0
7.99361e-15 3.64153e-14 0
0 0 0

-1.42991e-14 6.37697e-15 0
8.88178e-15 4.44089e-14 0
0 0 0

-1.43665e-14 1.39301e-15 0
-2.22045e-15 -2.22045e-15 0
0 0 0

-1.42991e-14 5.36682e-15 0
7.10543e-15 3.55271e-14 0
0 0 0

-1.43665e-14 4.15397e-15 0
5.32907e-15 -8.88178e-15 0
0 0 0

-1.03834e-14 -7.60675e-16 0
0 -2.13163e-14 0
0 0 0

-6.0341e-15 -4.76816e-15 0
-4.88498e-15 5.90639e-14 0
0 0 0

-1.03834e-14 3.62987e-15 0
1.06581e-14 -1.77636e-14 0
0 0 0

-6.0341e-15 -5.42664e-16 0
5.32907e-15 6.21725e-14 0
0 0 0

-1.86209e-15 -6.49989e-15 0
0 1.42109e-14 0
0 0 0

1.11903e-15 -3.64822e-15 0
6.66134e-15 -7.54952e-15 0
0 0 0

-1.86209e-15 -2.34571e-15 0
3.55271e-15 3.55271e-15 0
0 0 0

1.11903e-15 -4.1863e-15 0
-1.15463e-14 -4.44089e-15 0
0 0 0

-1.46512e-14 3.02854e-15 0
-1.77636e-15 1.24345e-14 0
0 0 0

-1.40442e-14 3.47267e-15 0
4.44089e-16 1.46549e-14 0
0 0 0

-1.46512e-14 4.27023e-15 0
-7.10543e-15 -7.10543e-15 0
0 0 0

-1.40442e-14 2.17548e-15 0
-3.55271e-15 2.4869e-14 0
0 0 0

-1.61642e-14 3.66459e-15 0
0 4.26326e-14 0
0 0 0

-1.72393e-14 6.9758e-15 0
1.82077e-14 -1.02141e-14 0
0 0 0

-1.61642e-14 1.27028e-15 0
1.42109e-14 3.55271e-14 0
0 0 0

-1.72393e-14 9.85851e-15 0
1.77636e-15 8.88178e-15 0
0 0 0

-1.26463e-14 8.40665e-15 0
1.06581e-14 -3.19744e-14 0
0 0 0

-6.82535e-15 5.46752e-15 0
3.24185e-14 6.08402e-14 0
0 0 0

-1.26463e-14 1.35697e-14 0
1.06581e-14 3.55271e-15 0
0 0 0

-6.82535e-15 1.32624e-14 0
2.75335e-14 5.59552e-14 0
0 0 0

1.82248e-15 4.19745e-15 0
2.13163e-14 0 0
0 0 0

9.35621e-15 -2.7861e-15 0
1.68754e-14 1.68754e-14 0
0 0 0

1.82248e-15 1.31296e-14 0
3.55271e-15 -3.55271e-15 0
0 0 0

9.35621e-15 5.5237e-16 0
1.42109e-14 7.10543e-15 0
0 0 0

-8.63843e-15 1.52531e-15 0
-1.06581e-14 -1.77636e-14 0
0 0 0

-1.47182e-14 -5.35425e-16 0
8.88178e-16 2.93099e-14 0
0 0 0

-8.63843e-15 -5.20624e-15 0
-3.55271e-15 -3.55271e-15 0
0 0 0

-1.47182e-14 -4.66004e-15 0
2.66454e-15 3.10862e-14 0
0 0 0

-1.7998e-14 -1.42592e-15 0
-3.55271e-15 5.32907e-14 0
0 0 0

-1.99471e-14 1.18987e-14 0
1.77636e-15 8.88178e-15 0
0 0 0

-1.7998e-14 -4.42401e-15 0
0 4.9738e-14 0
0 0 0

-1.99471e-14 1.30965e-14 0
3.55271e-15 -3.55271e-15 0
0 0 0

-1.73895e-14 1.76566e-14 0
0 -1.42109e-14 0
0 0 0

-1.33864e-14 2.06497e-14 0
7.54952e-15 7.14984e-14 0
0 0 0

-1.73895e-14 2.06675e-14 0
-3.55271e-15 -1.77636e-14 0
0 0 0

-1.33864e-14 2.76295e-14 0
-2.66454e-15 6.12843e-14 0
0 0 0

-5.12031e-15 2.19431e-14 0
-7.10543e-15 -1.42109e-14 0
0 0 0

2.36049e-15 4.14099e-15 0
1.02141e-14 1.73195e-14 0
0 0 0

-5.12031e-15 3.06379e-14 0
7.10543e-15 -7.10543e-15 0
0 0 0

2.36049e-15 7.97975e-15 0
5.32907e-15 2.66454e-14 0
0 0 0

SCALARS active double 1
LOOKUP_TABLE default
1
1
1
1
1
1
1
1
1
1
1
1
1
1
1
1
1
1
1
1
1
1
1
1
1
1
1
1
1
1
1
1
1
1
1
1
1
1
1
1
1
1
1
1
1
1
1
1
1
1
1
1
1
1
1
1
1
1
1
1
1
1
1
1
SCALARS extent double 1
LOOKUP_TABLE default
0.0125
0.0125
0.0125
0.0125
0.0125
0.0125
0.0125
0.0125
0.0125
0.0125
0.0125
0.0125
0.0125
0.0125
0.0125
0.0125
0.0125
0.0125
0.0125
0.0125
0.0125
0.0125
0.0125
0.0125
0.0125
0.0125
0.0125
0.0125
0.0125
0.0125
0.0125
0.0125
0.0125
0.0125
0.0125
0.0125
0.0125
0.0125
0.0125
0.0125
0.0125
0.0125
0.0125
0.0125
0.0125
0.0125
0.0125
0.0125
0.0125
0.0125
0.0125
0.0125
0.0125
0.0125
0.0125
0.0125
0.0125
0.0125
0.0125
0.0125
0.0125
0.0125
0.0125
0.0125
SCALARS pressure double 1
LOOKUP_TABLE default
2.18015e-13
-1.86452e-11
2.54833e-12
-7.25384e-12
-1.50034e-11
3.30653e-11
-4.79454e-12
4.24258e-11
-4.62251e-11
-2.2252e-11
-4.39902e-11
-1.94024e-11
-2.73252e-12
-4.4088e-12
-6.33207e-12
-3.28729e-13
-1.31364e-12
-1.49764e-11
-4.7455e-12
-1.82677e-11
-1.16916e-11
4.26685e-11
-3.84483e-12
4.432e-11
-5.33834e-11
-2.45542e-11
-4.67382e-11
-2.06037e-11
4.40607e-13
-1.03684e-12
-6.36529e-12
8.36663e-13
-2.62664e-12
-1.8621e-11
-5.54329e-12
-1.46265e-11
-4.03927e-12
4.27899e-11
-9.68811e-13
3.87006e-11
-4.33444e-11
-1.34831e-11
-5.12483e-11
-1.4709e-11
-5.07229e-13
6.72556e-12
6.97247e-13
5.00702e-12
4.11277e-12
-1.50574e-11
3.52412e-12
-1.97874e-11
-1.15993e-11
4.02633e-11
-1.17774e-11
3.70922e-11
-3.7297e-11
-4.83372e-12
-5.32224e-11
-1.91926e-11
-5.25749e-13
3.21884e-12
-4.12819e-12
3.57041e-12
SCALARS density double 1
LOOKUP_TABLE default
1000
1000
1000
1000
1000
1000
1000
1000
1000
1000
1000
1000
1000
1000
1000
1000
1000
1000
1000
1000
1000
1000
1000
1000
1000
1000
1000
1000
1000
1000
1000
1000
1000
1000
1000
1000
1000
1000
1000
1000
1000
1000
1000
1000
1000
1000
1000
1000
1000
1000
1000
1000
1000
1000
1000
1000
1000
1000
1000
1000
1000
1000
1000
1000
