# vtk DataFile Version 3.0
Frame: 45, Time: 0.75
ASCII
DATASET UNSTRUCTURED_GRID
POINTS 64 double
0.389826 0.129402 0 
0.364981 0.124766 0 
0.382981 0.153673 0 
0.35695 0.147441 0 
0.339917 0.116539 0 
0.314246 0.11036 0 
0.334 0.139733 0 
0.308997 0.13456 0 
0.291368 0.104811 0 
0.267149 0.0955483 0 
0.285374 0.129668 0 
0.262196 0.120305 0 
0.239621 0.0926781 0 
0.216581 0.0868274 0 
0.235317 0.116459 0 
0.212519 0.110906 0 
0.375163 0.176327 0 
0.349943 0.169256 0 
0.372677 0.198843 0 
0.347218 0.192198 0 
0.327407 0.163339 0 
0.303059 0.159711 0 
0.323979 0.187859 0 
0.299632 0.183776 0 
0.278958 0.152522 0 
0.256642 0.142959 0 
0.274899 0.176349 0 
0.250858 0.169059 0 
0.231367 0.140528 0 
0.205901 0.138001 0 
0.226591 0.165711 0 
0.202712 0.162191 0 
0.369694 0.222563 0 
0.345083 0.215325 0 
0.367231 0.246393 0 
0.342274 0.239889 0 
0.321301 0.211218 0 
0.296211 0.207748 0 
0.319008 0.236 0 
0.29335 0.233224 0 
0.272018 0.200806 0 
0.249146 0.195241 0 
0.268351 0.225208 0 
0.245626 0.222156 0 
0.224873 0.190549 0 
0.200348 0.185851 0 
0.220495 0.217312 0 
0.194541 0.210397 0 
0.365146 0.270384 0 
0.339016 0.263424 0 
0.357927 0.293329 0 
0.333332 0.288022 0 
0.314671 0.261551 0 
0.288943 0.25681 0 
0.309101 0.286852 0 
0.283926 0.280892 0 
0.26347 0.249669 0 
0.239505 0.248016 0 
0.258508 0.27568 0 
0.234014 0.272625 0 
0.215487 0.241217 0 
0.189759 0.233699 0 
0.209934 0.263972 0 
0.184614 0.258305 0 
CELLS 64 128
1 0
1 1
1 2
1 3
1 4
1 5
1 6
1 7
1 8
1 9
1 10
1 11
1 12
1 13
1 14
1 15
1 16
1 17
1 18
1 19
1 20
1 21
1 22
1 23
1 24
1 25
1 26
1 27
1 28
1 29
1 30
1 31
1 32
1 33
1 34
1 35
1 36
1 37
1 38
1 39
1 40
1 41
1 42
1 43
1 44
1 45
1 46
1 47
1 48
1 49
1 50
1 51
1 52
1 53
1 54
1 55
1 56
1 57
1 58
1 59
1 60
1 61
1 62
1 63
CELL_TYPES 64
1
1
1
1
1
1
1
1
1
1
1
1
1
1
1
1
1
1
1
1
1
1
1
1
1
1
1
1
1
1
1
1
1
1
1
1
1
1
1
1
1
1
1
1
1
1
1
1
1
1
1
1
1
1
1
1
1
1
1
1
1
1
1
1
POINT_DATA 64
VECTORS displacement double
-0.0226743 -0.283098 0 
-0.0475193 -0.312734 0 
-0.0545188 -0.258827 0 
-0.08055 -0.290059 0 
-0.0725825 -0.345961 0 
-0.0982536 -0.37714 0 
-0.1035 -0.322767 0 
-0.128503 -0.35294 0 
-0.121132 -0.407689 0 
-0.145351 -0.441952 0 
-0.152126 -0.382832 0 
-0.175304 -0.417195 0 
-0.172879 -0.469822 0 
-0.195919 -0.500673 0 
-0.202183 -0.446041 0 
-0.224981 -0.476594 0 
-0.0873372 -0.236173 0 
-0.112557 -0.268244 0 
-0.114823 -0.213657 0 
-0.140282 -0.245302 0 
-0.135093 -0.299161 0 
-0.159441 -0.327789 0 
-0.163521 -0.274641 0 
-0.187868 -0.303724 0 
-0.183542 -0.359978 0 
-0.205858 -0.394541 0 
-0.212601 -0.336151 0 
-0.236642 -0.368441 0 
-0.231133 -0.421972 0 
-0.256599 -0.449499 0 
-0.260909 -0.396789 0 
-0.284788 -0.425309 0 
-0.142806 -0.189937 0 
-0.167417 -0.222175 0 
-0.170269 -0.166107 0 
-0.195226 -0.197611 0 
-0.191199 -0.251282 0 
-0.216289 -0.279752 0 
-0.218492 -0.2265 0 
-0.24415 -0.254276 0 
-0.240482 -0.311694 0 
-0.263354 -0.342259 0 
-0.269149 -0.287292 0 
-0.291874 -0.315344 0 
-0.287627 -0.371951 0 
-0.312152 -0.401649 0 
-0.317005 -0.345188 0 
-0.342959 -0.377103 0 
-0.197354 -0.142116 0 
-0.223484 -0.174076 0 
-0.229573 -0.119171 0 
-0.254168 -0.149478 0 
-0.247829 -0.200949 0 
-0.273557 -0.23069 0 
-0.278399 -0.175648 0 
-0.303574 -0.206608 0 
-0.29903 -0.262831 0 
-0.322995 -0.289484 0 
-0.328992 -0.23682 0 
-0.353486 -0.264875 0 
-0.347013 -0.321283 0 
-0.372741 -0.353801 0 
-0.377566 -0.298528 0 
-0.402886 -0.329195 0 
VECTORS velocity double
-0.506742 0.433174 0 
-0.737306 0.627626 0 
-0.779265 0.528449 0 
-0.957199 0.454269 0 
-0.0149544 0.0911735 0 
-0.985153 0.379794 0 
-0.742517 -0.192547 0 
-1.22168 0.317165 0 
0.168378 0.170445 0 
-0.0884788 0.280374 0 
0.0657452 0.372553 0 
-0.271892 0.262668 0 
-0.210844 0.211228 0 
0.166988 -0.178786 0 
-0.357772 0.20479 0 
-0.274954 -0.159732 0 
-0.486978 0.217939 0 
-0.844301 0.236092 0 
-0.670097 0.428816 0 
-0.7051 0.151746 0 
-0.595523 0.305449 0 
-0.862097 0.464667 0 
-0.345153 0.453421 0 
-0.738947 0.428842 0 
-0.601276 0.144141 0 
-0.635901 -0.25317 0 
-0.802771 0.349545 0 
-0.914299 0.415529 0 
-0.469654 -0.0332501 0 
0.00896393 -0.00486777 0 
-0.388613 0.807914 0 
-0.551234 0.10077 0 
-0.676375 0.343599 0 
-0.665699 0.290239 0 
-0.682043 0.0569125 0 
-0.720348 0.632852 0 
-0.231146 0.311136 0 
-0.236261 0.015787 0 
-0.96534 0.167554 0 
-1.22494 -0.0257684 0 
0.0228336 0.041213 0 
0.0176821 0.188493 0 
-0.789026 0.275709 0 
-0.781358 0.342445 0 
-0.117289 -0.0336287 0 
-0.451411 -0.347234 0 
-0.41306 0.652909 0 
-0.240268 0.32321 0 
-0.687395 0.411506 0 
-0.739633 0.482192 0 
-1.03594 0.137042 0 
-0.958989 0.279178 0 
-0.70837 -0.0896048 0 
-0.633062 0.409972 0 
-0.962871 0.204777 0 
-0.810224 0.37496 0 
-0.587897 0.647431 0 
-0.826719 0.370003 0 
-0.831606 0.0939441 0 
-0.643278 0.412479 0 
-0.125594 0.516126 0 
-0.610866 0.00812121 0 
-0.956813 0.198011 0 
-0.520819 0.19701 0 
SCALARS mass double 1
LOOKUP_TABLE default
0.625
0.625
0.625
0.625
0.625
0.625
0.625
0.625
0.625
0.625
0.625
0.625
0.625
0.625
0.625
0.625
0.625
0.625
0.625
0.625
0.625
0.625
0.625
0.625
0.625
0.625
0.625
0.625
0.625
0.625
0.625
0.625
0.625
0.625
0.625
0.625
0.625
0.625
0.625
0.625
0.625
0.625
0.625
0.625
0.625
0.625
0.625
0.625
0.625
0.625
0.625
0.625
0.625
0.625
0.625
0.625
0.625
0.625
0.625
0.625
0.625
0.625
0.625
0.625
SCALARS volume double 1
LOOKUP_TABLE default
0.000625205
0.000605049
0.000626488
0.000623068
0.000622441
0.000634294
0.000605671
0.000629918
0.000606746
0.000644528
0.000596519
0.000619778
0.000639886
0.000612072
0.000605274
0.0006245
0.000610295
0.000594884
0.000618563
0.000635982
0.000599549
0.000646996
0.000589136
0.000596123
0.000632402
0.000616351
0.000589282
0.000617707
0.000637933
0.000605237
0.000596682
0.00061906
0.000603709
0.000596982
0.000626607
0.000588547
0.000637897
0.000629642
0.000627419
0.000603456
0.000622849
0.000632235
0.00061905
0.000616771
0.000623419
0.000623543
0.000658027
0.000619905
0.000646974
0.000659705
0.000604454
0.000612199
0.000635409
0.000623931
0.000607671
0.000634182
0.000632622
0.000622762
0.000615544
0.000621614
0.000617981
0.000620231
0.000633465
0.000624966
VECTORS momentum double
-0.316714 0.270734 0 
-0.460816 0.392266 0 
-0.48704 0.330281 0 
-0.59825 0.283918 0 
-0.00934651 0.0569835 0 
-0.615721 0.237371 0 
-0.464073 -0.120342 0 
-0.763549 0.198228 0 
0.105236 0.106528 0 
-0.0552992 0.175234 0 
0.0410907 0.232845 0 
-0.169932 0.164167 0 
-0.131777 0.132017 0 
0.104367 -0.111741 0 
-0.223608 0.127994 0 
-0.171846 -0.0998323 0 
-0.304361 0.136212 0 
-0.527688 0.147557 0 
-0.418811 0.26801 0 
-0.440687 0.0948412 0 
-0.372202 0.190905 0 
-0.538811 0.290417 0 
-0.215721 0.283388 0 
-0.461842 0.268026 0 
-0.375798 0.090088 0 
-0.397438 -0.158231 0 
-0.501732 0.218466 0 
-0.571437 0.259706 0 
-0.293534 -0.0207813 0 
0.00560246 -0.00304236 0 
-0.242883 0.504946 0 
-0.344521 0.0629813 0 
-0.422734 0.214749 0 
-0.416062 0.1814 0 
-0.426277 0.0355703 0 
-0.450217 0.395533 0 
-0.144466 0.19446 0 
-0.147663 0.0098669 0 
-0.603338 0.104721 0 
-0.76559 -0.0161053 0 
0.014271 0.0257581 0 
0.0110513 0.117808 0 
-0.493141 0.172318 0 
-0.488349 0.214028 0 
-0.0733058 -0.0210179 0 
-0.282132 -0.217021 0 
-0.258163 0.408068 0 
-0.150167 0.202006 0 
-0.429622 0.257191 0 
-0.46227 0.30137 0 
-0.647464 0.0856512 0 
-0.599368 0.174486 0 
-0.442731 -0.056003 0 
-0.395664 0.256233 0 
-0.601794 0.127986 0 
-0.50639 0.23435 0 
-0.367435 0.404644 0 
-0.516699 0.231252 0 
-0.519754 0.058715 0 
-0.402049 0.2578 0 
-0.0784964 0.322578 0 
-0.381791 0.00507576 0 
-0.598008 0.123757 0 
-0.325512 0.123131 0 
VECTORS body_force double
0 -9.81 0 
0 -9.81 0 
0 -9.81 0 
0 -9.81 0 
0 -9.81 0 
0 -9.81 0 
0 -9.81 0 
0 -9.81 0 
0 -9.81 0 
0 -9.81 0 
0 -9.81 0 
0 -9.81 0 
0 -9.81 0 
0 -9.81 0 
0 -9.81 0 
0 -9.81 0 
0 -9.81 0 
0 -9.81 0 
0 -9.81 0 
0 -9.81 0 
0 -9.81 0 
0 -9.81 0 
0 -9.81 0 
0 -9.81 0 
0 -9.81 0 
0 -9.81 0 
0 -9.81 0 
0 -9.81 0 
0 -9.81 0 
0 -9.81 0 
0 -9.81 0 
0 -9.81 0 
0 -9.81 0 
0 -9.81 0 
0 -9.81 0 
0 -9.81 0 
0 -9.81 0 
0 -9.81 0 
0 -9.81 0 
0 -9.81 0 
0 -9.81 0 
0 -9.81 0 
0 -9.81 0 
0 -9.81 0 
0 -9.81 0 
0 -9.81 0 
0 -9.81 0 
0 -9.81 0 
0 -9.81 0 
0 -9.81 0 
0 -9.81 0 
0 -9.81 0 
0 -9.81 0 
0 -9.81 0 
0 -9.81 0 
0 -9.81 0 
0 -9.81 0 
0 -9.81 0 
0 -9.81 0 
0 -9.81 0 
0 -9.81 0 
0 -9.81 0 
0 -9.81 0 
0 -9.81 0 
TENSORS cauchy_stress double
608.828 195.94 0
195.94 -545.789 0
0 0 18.9116

-1607.72 -978.11 0
-978.11 -4631.14 0
0 0 -1871.66

607.046 -1355.3 0
-1355.3 -149.849 0
0 0 137.159

706.402 3266.73 0
3266.73 -1301.75 0
0 0 -178.604

604.835 1806.75 0
1806.75 -1393.69 0
0 0 -236.657

4143.07 -1195.99 0
-1195.99 -1304.48 0
0 0 851.579

-6477.72 5511.23 0
5511.23 436.386 0
0 0 -1812.4

1564.09 -8059.87 0
-8059.87 -56.6966 0
0 0 452.218

-5828.74 562.916 0
562.916 128.33 0
0 0 -1710.12

5433.48 1013 0
1013 483.097 0
0 0 1774.97

-7212.12 2629.14 0
2629.14 -1757.24 0
0 0 -2690.81

51.7185 502.202 0
502.202 -1665.13 0
0 0 -484.024

4862.27 187.249 0
187.249 -335.703 0
0 0 1357.97

-4072.68 694.863 0
694.863 53.1092 0
0 0 -1205.87

-1528.01 -718.641 0
-718.641 -4639.48 0
0 0 -1850.24

-2739.62 1505.58 0
1505.58 2585.58 0
0 0 -46.2109

-3120.97 -388.483 0
-388.483 -1457.66 0
0 0 -1373.59

531.64 1006.26 0
1006.26 -10028.9 0
0 0 -2849.17

1326.4 -297.66 0
-297.66 -3317.29 0
0 0 -597.265

6126.95 699.553 0
699.553 -2777.07 0
0 0 1004.96

-6489.89 3422.29 0
3422.29 -1505.17 0
0 0 -2398.52

1803.86 -5612.81 0
-5612.81 4847.77 0
0 0 1995.49

-7307.18 2595.69 0
2595.69 -4057.1 0
0 0 -3409.28

-2499.02 1833.32 0
1833.32 -6598.15 0
0 0 -2729.15

2140.11 -2989.08 0
-2989.08 124.031 0
0 0 679.241

-5436.44 -3635.44 0
-3635.44 2756.59 0
0 0 -803.952

-7626.31 7682.74 0
7682.74 -3690.47 0
0 0 -3395.03

-2324.8 1468.89 0
1468.89 67.5101 0
0 0 -677.186

2838.83 -1624.72 0
-1624.72 1099.91 0
0 0 1181.62

-3426.45 -2882.47 0
-2882.47 -2752.81 0
0 0 -1853.78

-6320.89 1920.08 0
1920.08 -2595.87 0
0 0 -2675.03

-395.478 -766.173 0
-766.173 -1441.04 0
0 0 -550.954

-4749.9 1139.56 0
1139.56 -1915.35 0
0 0 -1999.57

-4573.22 3063.24 0
3063.24 -4246.86 0
0 0 -2646.02

856.648 -602.537 0
-602.537 -362.879 0
0 0 148.131

-6252.32 2000.47 0
2000.47 -5304.47 0
0 0 -3467.04

2645.64 140.494 0
140.494 1282.38 0
0 0 1178.41

865.731 -3946.56 0
-3946.56 557.262 0
0 0 426.898

1818.47 -633.221 0
-633.221 -1075.48 0
0 0 222.896

-2092.5 4766.67 0
4766.67 -4653.25 0
0 0 -2023.73

2256.37 170.874 0
170.874 -2919.31 0
0 0 -198.884

-1793.86 -5965.65 0
-5965.65 4007.36 0
0 0 664.049

-2068.13 6657.87 0
6657.87 228.672 0
0 0 -551.837

-5473.99 396.982 0
396.982 2925.07 0
0 0 -764.674

-1536.71 1178.85 0
1178.85 1049.71 0
0 0 -146.1

86.7607 4499.15 0
4499.15 -535.592 0
0 0 -134.649

6821.61 6685.63 0
6685.63 3081.17 0
0 0 2970.84

670.835 1051.44 0
1051.44 -2244.99 0
0 0 -472.245

4632.59 253.386 0
253.386 2012.5 0
0 0 1993.53

7149.92 3337.18 0
3337.18 3242.56 0
0 0 3117.75

-2204.67 1486.18 0
1486.18 -4223.48 0
0 0 -1928.45

-215.985 838.253 0
838.253 -3763.62 0
0 0 -1193.88

3445.25 -371.499 0
-371.499 -268.737 0
0 0 952.953

681.679 -1698.98 0
-1698.98 -1010.81 0
0 0 -98.7389

-3255.06 940.918 0
940.918 -2152.32 0
0 0 -1622.21

4169.36 3015.23 0
3015.23 -1364.68 0
0 0 841.403

1995.13 -3275.86 0
-3275.86 335.996 0
0 0 699.338

-644.105 -6124.02 0
-6124.02 -45.8325 0
0 0 -206.981

-1443.96 -341.21 0
-341.21 -1487.95 0
0 0 -879.574

1418.12 2058.23 0
2058.23 -2462.83 0
0 0 -313.415

3302.93 -1044.62 0
-1044.62 -5474.78 0
0 0 -651.554

1565.75 -1907.4 0
-1907.4 -3038.77 0
0 0 -441.905

2878.78 1956.48 0
1956.48 -291.628 0
0 0 776.147

495.637 310.225 0
310.225 -506.192 0
0 0 -3.16646

TENSORS velocity_gradient double
-0.0937441 -2.23198 0
3.78915 -0.183862 0
0 0 0

-0.234649 -3.00328 0
3.82882 0.0332947 0
0 0 0

0.485662 0.708602 0
3.32725 -1.04883 0
0 0 0

0.407649 -1.87219 0
3.54183 0.143681 0
0 0 0

-3.21995 -3.99616 0
0.326716 0.280116 0
0 0 0

-3.54954 -5.37446 0
0.398303 0.579486 0
0 0 0

-1.98056 -4.30809 0
0.0575167 0.347867 0
0 0 0

-2.25679 -5.64871 0
0.117516 0.639054 0
0 0 0

-2.47134 -6.02865 0
1.72938 0.52467 0
0 0 0

-2.50192 -5.94747 0
1.88533 0.45617 0
0 0 0

-2.64839 -6.04862 0
1.86691 0.648907 0
0 0 0

-2.57501 -5.86511 0
1.80026 0.482234 0
0 0 0

-1.2917 -6.18901 0
4.50302 1.07431 0
0 0 0

-1.28198 -6.14989 0
4.455 0.881057 0
0 0 0

-2.10926 -5.05691 0
3.76464 1.09766 0
0 0 0

-1.84065 -3.93076 0
4.03175 2.21754 0
0 0 0

0.412314 1.73496 0
2.0178 -0.85732 0
0 0 0

-0.487225 1.89293 0
1.58032 0.423349 0
0 0 0

0.306819 0.267914 0
0.675494 -0.715797 0
0 0 0

-1.16658 1.91646 0
1.1732 0.465016 0
0 0 0

-1.56535 2.12928 0
0.340541 0.0396957 0
0 0 0

-1.77169 2.38056 0
0.494196 -0.610848 0
0 0 0

-1.84369 2.16885 0
1.10178 -0.0685394 0
0 0 0

-2.15069 2.38558 0
0.637419 -0.574593 0
0 0 0

-2.75867 -0.351589 0
1.77889 0.348119 0
0 0 0

-2.75348 -5.82228 0
1.96235 0.44334 0
0 0 0

-2.58922 2.23949 0
0.661605 0.442068 0
0 0 0

-2.59652 1.89256 0
1.48622 1.55464 0
0 0 0

-3.29375 -4.86775 0
2.58674 1.28576 0
0 0 0

-3.14235 -3.60562 0
2.70666 2.54251 0
0 0 0

-2.73209 0.494511 0
2.16645 1.6851 0
0 0 0

-1.85415 -0.920235 0
1.55811 1.59648 0
0 0 0

0.351378 -2.14589 0
-0.483262 -0.59876 0
0 0 0

-0.896225 -2.51101 0
1.42628 0.21788 0
0 0 0

0.448743 -2.44012 0
-1.54206 -0.722152 0
0 0 0

0.276454 -2.61461 0
2.10811 0.236348 0
0 0 0

-1.35919 -3.81876 0
1.65898 -0.0942952 0
0 0 0

-2.05442 -5.09426 0
-0.32208 -0.18803 0
0 0 0

0.0570562 -3.94435 0
2.04787 -0.128779 0
0 0 0

-1.58838 -5.20401 0
-2.05705 -0.144251 0
0 0 0

-2.33212 -2.09479 0
-0.590813 0.746043 0
0 0 0

-1.58404 1.05556 0
1.05569 1.62374 0
0 0 0

-1.8093 -5.78995 0
-1.76559 1.04393 0
0 0 0

-1.86492 -5.87309 0
1.24233 1.97163 0
0 0 0

-1.08271 0.379307 0
2.24598 1.67955 0
0 0 0

-0.632709 -0.945635 0
1.27276 1.58025 0
0 0 0

-1.55011 -4.34196 0
2.00232 2.41511 0
0 0 0

-0.57602 -2.90754 0
1.02785 2.35863 0
0 0 0

0.816297 -3.71743 0
-1.88048 -1.73072 0
0 0 0

0.378766 -3.62961 0
1.51643 -1.05797 0
0 0 0

1.24141 -3.84929 0
-2.00496 -1.69211 0
0 0 0

-0.546199 -3.41934 0
0.10017 -0.736014 0
0 0 0

0.447735 -2.71529 0
1.62203 0.342004 0
0 0 0

-1.45781 -1.77464 0
-2.64624 0.73616 0
0 0 0

-0.502376 -2.50852 0
0.167269 0.6586 0
0 0 0

-2.29952 -1.60021 0
-1.48727 0.495985 0
0 0 0

-1.40628 -3.65114 0
-2.66263 0.480122 0
0 0 0

-3.21582 -4.26269 0
1.46804 1.19063 0
0 0 0

-2.1157 -0.708693 0
-1.74039 -0.731565 0
0 0 0

-1.47015 -1.90662 0
0.638087 -0.605265 0
0 0 0

-3.10008 -4.02234 0
1.61854 2.49425 0
0 0 0

-0.979249 -2.78716 0
2.49343 2.08827 0
0 0 0

-2.32982 -4.31106 0
0.961266 0.298649 0
0 0 0

-1.86479 -4.33263 0
3.26171 1.34757 0
0 0 0

SCALARS active double 1
LOOKUP_TABLE default
1
1
1
1
1
1
1
1
1
1
1
1
1
1
1
1
1
1
1
1
1
1
1
1
1
1
1
1
1
1
1
1
1
1
1
1
1
1
1
1
1
1
1
1
1
1
1
1
1
1
1
1
1
1
1
1
1
1
1
1
1
1
1
1
SCALARS extent double 1
LOOKUP_TABLE default
0.0125
0.0125
0.0125
0.0125
0.0125
0.0125
0.0125
0.0125
0.0125
0.0125
0.0125
0.0125
0.0125
0.0125
0.0125
0.0125
0.0125
0.0125
0.0125
0.0125
0.0125
0.0125
0.0125
0.0125
0.0125
0.0125
0.0125
0.0125
0.0125
0.0125
0.0125
0.0125
0.0125
0.0125
0.0125
0.0125
0.0125
0.0125
0.0125
0.0125
0.0125
0.0125
0.0125
0.0125
0.0125
0.0125
0.0125
0.0125
0.0125
0.0125
0.0125
0.0125
0.0125
0.0125
0.0125
0.0125
0.0125
0.0125
0.0125
0.0125
0.0125
0.0125
0.0125
0.0125
SCALARS pressure double 1
LOOKUP_TABLE default
-27.3168
2703.5
-198.119
257.984
341.837
-1230.06
2617.91
-653.204
2470.18
-2563.85
3886.72
699.146
-1961.51
1741.81
2672.58
66.749
1984.07
4115.47
862.716
-1451.61
3464.53
-2882.37
4924.52
3942.11
-981.126
1161.26
4903.94
978.157
-1706.79
2677.68
3863.93
795.823
2888.27
3822.03
-213.967
5007.94
-1702.15
-616.631
-321.961
2923.16
287.276
-959.182
797.098
1104.53
211.033
194.494
-4291.21
682.132
-2879.54
-4503.41
2785.53
1724.5
-1376.49
142.623
2343.2
-1215.36
-1010.15
298.973
1270.5
452.711
941.134
638.308
-1121.1
4.57378
SCALARS density double 1
LOOKUP_TABLE default
999.672
1032.97
997.625
1003.1
1004.11
985.348
1031.91
992.192
1030.09
969.702
1047.75
1008.43
976.737
1021.12
1032.59
1000.8
1024.09
1050.63
1010.41
982.731
1042.45
966.003
1060.88
1048.44
988.296
1014.03
1060.61
1011.81
979.727
1032.65
1047.46
1009.6
1035.27
1046.93
997.436
1061.94
979.781
992.628
996.144
1035.7
1003.45
988.556
1009.61
1013.34
1002.54
1002.34
949.809
1008.22
966.036
947.393
1033.99
1020.91
983.618
1001.71
1028.52
985.522
987.951
1003.59
1015.36
1005.45
1011.36
1007.69
986.637
1000.05
