# vtk DataFile Version 3.0
Frame: 11, Time: 0.184
ASCII
DATASET UNSTRUCTURED_GRID
POINTS 64 double
0.4125 0.243719 0 
0.4125 0.268719 0 
0.4375 0.243719 0 
0.4375 0.268719 0 
0.4125 0.293719 0 
0.4125 0.318719 0 
0.4375 0.293719 0 
0.4375 0.318719 0 
0.4125 0.343719 0 
0.4125 0.368719 0 
0.4375 0.343719 0 
0.4375 0.368719 0 
0.4125 0.393719 0 
0.4125 0.418719 0 
0.4375 0.393719 0 
0.4375 0.418719 0 
0.4625 0.243719 0 
0.4625 0.268719 0 
0.4875 0.243719 0 
0.4875 0.268719 0 
0.4625 0.293719 0 
0.4625 0.318719 0 
0.4875 0.293719 0 
0.4875 0.318719 0 
0.4625 0.343719 0 
0.4625 0.368719 0 
0.4875 0.343719 0 
0.4875 0.368719 0 
0.4625 0.393719 0 
0.4625 0.418719 0 
0.4875 0.393719 0 
0.4875 0.418719 0 
0.5125 0.243719 0 
0.5125 0.268719 0 
0.5375 0.243719 0 
0.5375 0.268719 0 
0.5125 0.293719 0 
0.5125 0.318719 0 
0.5375 0.293719 0 
0.5375 0.318719 0 
0.5125 0.343719 0 
0.5125 0.368719 0 
0.5375 0.343719 0 
0.5375 0.368719 0 
0.5125 0.393719 0 
0.5125 0.418719 0 
0.5375 0.393719 0 
0.5375 0.418719 0 
0.5625 0.243719 0 
0.5625 0.268719 0 
0.5875 0.243719 0 
0.5875 0.268719 0 
0.5625 0.293719 0 
0.5625 0.318719 0 
0.5875 0.293719 0 
0.5875 0.318719 0 
0.5625 0.343719 0 
0.5625 0.368719 0 
0.5875 0.343719 0 
0.5875 0.368719 0 
0.5625 0.393719 0 
0.5625 0.418719 0 
0.5875 0.393719 0 
0.5875 0.418719 0 
CELLS 64 128
1 0
1 1
1 2
1 3
1 4
1 5
1 6
1 7
1 8
1 9
1 10
1 11
1 12
1 13
1 14
1 15
1 16
1 17
1 18
1 19
1 20
1 21
1 22
1 23
1 24
1 25
1 26
1 27
1 28
1 29
1 30
1 31
1 32
1 33
1 34
1 35
1 36
1 37
1 38
1 39
1 40
1 41
1 42
1 43
1 44
1 45
1 46
1 47
1 48
1 49
1 50
1 51
1 52
1 53
1 54
1 55
1 56
1 57
1 58
1 59
1 60
1 61
1 62
1 63
CELL_TYPES 64
1
1
1
1
1
1
1
1
1
1
1
1
1
1
1
1
1
1
1
1
1
1
1
1
1
1
1
1
1
1
1
1
1
1
1
1
1
1
1
1
1
1
1
1
1
1
1
1
1
1
1
1
1
1
1
1
1
1
1
1
1
1
1
1
POINT_DATA 64
VECTORS displacement double
-4.10628e-17 -0.168781 0 
-6.30859e-17 -0.168781 0 
-5.4608e-17 -0.168781 0 
-6.45773e-17 -0.168781 0 
-6.74923e-17 -0.168781 0 
-5.80779e-17 -0.168781 0 
-6.53583e-17 -0.168781 0 
-5.88838e-17 -0.168781 0 
-4.62608e-17 -0.168781 0 
-4.68252e-17 -0.168781 0 
-4.97913e-17 -0.168781 0 
-4.79509e-17 -0.168781 0 
-4.25495e-17 -0.168781 0 
-4.15544e-17 -0.168781 0 
-4.44926e-17 -0.168781 0 
-4.18362e-17 -0.168781 0 
-6.45202e-17 -0.168781 0 
-6.60466e-17 -0.168781 0 
-7.07993e-17 -0.168781 0 
-6.74939e-17 -0.168781 0 
-6.47553e-17 -0.168781 0 
-6.06426e-17 -0.168781 0 
-6.56834e-17 -0.168781 0 
-6.33542e-17 -0.168781 0 
-5.33489e-17 -0.168781 0 
-4.93567e-17 -0.168781 0 
-5.69338e-17 -0.168781 0 
-5.10428e-17 -0.168781 0 
-4.64416e-17 -0.168781 0 
-4.21896e-17 -0.168781 0 
-4.83965e-17 -0.168781 0 
-4.26147e-17 -0.168781 0 
-7.56161e-17 -0.168781 0 
-6.89534e-17 -0.168781 0 
-7.89708e-17 -0.168781 0 
-7.04252e-17 -0.168781 0 
-6.60545e-17 -0.168781 0 
-6.49861e-17 -0.168781 0 
-6.58686e-17 -0.168781 0 
-6.55382e-17 -0.168781 0 
-5.95515e-17 -0.168781 0 
-5.223e-17 -0.168781 0 
-6.12022e-17 -0.168781 0 
-5.29183e-17 -0.168781 0 
-4.96055e-17 -0.168781 0 
-4.40006e-17 -0.168781 0 
-5.00685e-17 -0.168781 0 
-4.63474e-17 -0.168781 0 
-8.76082e-17 -0.168781 0 
-7.26755e-17 -0.168781 0 
-1.01528e-16 -0.168781 0 
-7.57042e-17 -0.168781 0 
-6.45704e-17 -0.168781 0 
-6.46367e-17 -0.168781 0 
-6.21598e-17 -0.168781 0 
-6.22815e-17 -0.168781 0 
-6.22156e-17 -0.168781 0 
-5.34239e-17 -0.168781 0 
-6.25917e-17 -0.168781 0 
-5.37468e-17 -0.168781 0 
-5.0704e-17 -0.168781 0 
-4.79355e-17 -0.168781 0 
-5.15121e-17 -0.168781 0 
-4.8765e-17 -0.168781 0 
VECTORS velocity double
4.94483e-15 -1.81485 0 
-1.27767e-15 -1.81485 0 
1.57641e-15 -1.81485 0 
-1.40448e-16 -1.81485 0 
-1.53157e-15 -1.81485 0 
6.9888e-17 -1.81485 0 
-2.11277e-16 -1.81485 0 
2.19884e-16 -1.81485 0 
5.78879e-17 -1.81485 0 
-7.9421e-17 -1.81485 0 
-1.19735e-16 -1.81485 0 
5.19876e-17 -1.81485 0 
1.30671e-15 -1.81485 0 
-1.15569e-15 -1.81485 0 
2.50714e-16 -1.81485 0 
-8.33324e-16 -1.81485 0 
-3.66479e-16 -1.81485 0 
3.99034e-16 -1.81485 0 
-8.83829e-16 -1.81485 0 
3.40779e-16 -1.81485 0 
2.51277e-16 -1.81485 0 
-2.89194e-18 -1.81485 0 
-1.43904e-16 -1.81485 0 
-5.98441e-16 -1.81485 0 
-2.46033e-16 -1.81485 0 
-1.0632e-17 -1.81485 0 
-3.21007e-16 -1.81485 0 
-2.6728e-16 -1.81485 0 
-2.50907e-16 -1.81485 0 
-3.42985e-16 -1.81485 0 
-1.98155e-16 -1.81485 0 
3.15326e-16 -1.81485 0 
-1.19109e-15 -1.81485 0 
-3.97123e-17 -1.81485 0 
-1.28826e-15 -1.81485 0 
-7.42439e-16 -1.81485 0 
-4.92511e-16 -1.81485 0 
-1.12684e-15 -1.81485 0 
-7.94544e-16 -1.81485 0 
-1.58809e-15 -1.81485 0 
-5.95796e-16 -1.81485 0 
-6.11005e-16 -1.81485 0 
-1.0704e-15 -1.81485 0 
-1.04181e-15 -1.81485 0 
-2.02856e-16 -1.81485 0 
5.25892e-16 -1.81485 0 
-2.65011e-16 -1.81485 0 
2.88713e-16 -1.81485 0 
-3.02363e-15 -1.81485 0 
-9.25813e-16 -1.81485 0 
-6.39721e-15 -1.81485 0 
-5.89834e-16 -1.81485 0 
-3.94403e-16 -1.81485 0 
-1.42118e-15 -1.81485 0 
7.07913e-16 -1.81485 0 
-6.26113e-16 -1.81485 0 
-1.32891e-15 -1.81485 0 
-1.17323e-15 -1.81485 0 
-1.37133e-15 -1.81485 0 
-1.00526e-15 -1.81485 0 
-1.13535e-15 -1.81485 0 
-2.63339e-16 -1.81485 0 
-2.81387e-15 -1.81485 0 
-1.13026e-15 -1.81485 0 
SCALARS mass double 1
LOOKUP_TABLE default
0.625
0.625
0.625
0.625
0.625
0.625
0.625
0.625
0.625
0.625
0.625
0.625
0.625
0.625
0.625
0.625
0.625
0.625
0.625
0.625
0.625
0.625
0.625
0.625
0.625
0.625
0.625
0.625
0.625
0.625
0.625
0.625
0.625
0.625
0.625
0.625
0.625
0.625
0.625
0.625
0.625
0.625
0.625
0.625
0.625
0.625
0.625
0.625
0.625
0.625
0.625
0.625
0.625
0.625
0.625
0.625
0.625
0.625
0.625
0.625
0.625
0.625
0.625
0.625
SCALARS volume double 1
LOOKUP_TABLE default
0.000625
0.000625
0.000625
0.000625
0.000625
0.000625
0.000625
0.000625
0.000625
0.000625
0.000625
0.000625
0.000625
0.000625
0.000625
0.000625
0.000625
0.000625
0.000625
0.000625
0.000625
0.000625
0.000625
0.000625
0.000625
0.000625
0.000625
0.000625
0.000625
0.000625
0.000625
0.000625
0.000625
0.000625
0.000625
0.000625
0.000625
0.000625
0.000625
0.000625
0.000625
0.000625
0.000625
0.000625
0.000625
0.000625
0.000625
0.000625
0.000625
0.000625
0.000625
0.000625
0.000625
0.000625
0.000625
0.000625
0.000625
0.000625
0.000625
0.000625
0.000625
0.000625
0.000625
0.000625
VECTORS momentum double
3.09052e-15 -1.13428 0 
-7.98541e-16 -1.13428 0 
9.85254e-16 -1.13428 0 
-8.77797e-17 -1.13428 0 
-9.57229e-16 -1.13428 0 
4.368e-17 -1.13428 0 
-1.32048e-16 -1.13428 0 
1.37428e-16 -1.13428 0 
3.61799e-17 -1.13428 0 
-4.96381e-17 -1.13428 0 
-7.48345e-17 -1.13428 0 
3.24923e-17 -1.13428 0 
8.16692e-16 -1.13428 0 
-7.22306e-16 -1.13428 0 
1.56696e-16 -1.13428 0 
-5.20828e-16 -1.13428 0 
-2.29049e-16 -1.13428 0 
2.49396e-16 -1.13428 0 
-5.52393e-16 -1.13428 0 
2.12987e-16 -1.13428 0 
1.57048e-16 -1.13428 0 
-1.80746e-18 -1.13428 0 
-8.994e-17 -1.13428 0 
-3.74026e-16 -1.13428 0 
-1.53771e-16 -1.13428 0 
-6.64502e-18 -1.13428 0 
-2.00629e-16 -1.13428 0 
-1.6705e-16 -1.13428 0 
-1.56817e-16 -1.13428 0 
-2.14366e-16 -1.13428 0 
-1.23847e-16 -1.13428 0 
1.97079e-16 -1.13428 0 
-7.4443e-16 -1.13428 0 
-2.48202e-17 -1.13428 0 
-8.0516e-16 -1.13428 0 
-4.64024e-16 -1.13428 0 
-3.07819e-16 -1.13428 0 
-7.04275e-16 -1.13428 0 
-4.9659e-16 -1.13428 0 
-9.92555e-16 -1.13428 0 
-3.72372e-16 -1.13428 0 
-3.81878e-16 -1.13428 0 
-6.69001e-16 -1.13428 0 
-6.51129e-16 -1.13428 0 
-1.26785e-16 -1.13428 0 
3.28683e-16 -1.13428 0 
-1.65632e-16 -1.13428 0 
1.80446e-16 -1.13428 0 
-1.88977e-15 -1.13428 0 
-5.78633e-16 -1.13428 0 
-3.99826e-15 -1.13428 0 
-3.68646e-16 -1.13428 0 
-2.46502e-16 -1.13428 0 
-8.88237e-16 -1.13428 0 
4.42446e-16 -1.13428 0 
-3.91321e-16 -1.13428 0 
-8.3057e-16 -1.13428 0 
-7.33266e-16 -1.13428 0 
-8.57081e-16 -1.13428 0 
-6.28288e-16 -1.13428 0 
-7.09593e-16 -1.13428 0 
-1.64587e-16 -1.13428 0 
-1.75867e-15 -1.13428 0 
-7.06414e-16 -1.13428 0 
VECTORS body_force double
0 -9.81 0 
0 -9.81 0 
0 -9.81 0 
0 -9.81 0 
0 -9.81 0 
0 -9.81 0 
0 -9.81 0 
0 -9.81 0 
0 -9.81 0 
0 -9.81 0 
0 -9.81 0 
0 -9.81 0 
0 -9.81 0 
0 -9.81 0 
0 -9.81 0 
0 -9.81 0 
0 -9.81 0 
0 -9.81 0 
0 -9.81 0 
0 -9.81 0 
0 -9.81 0 
0 -9.81 0 
0 -9.81 0 
0 -9.81 0 
0 -9.81 0 
0 -9.81 0 
0 -9.81 0 
0 -9.81 0 
0 -9.81 0 
0 -9.81 0 
0 -9.81 0 
0 -9.81 0 
0 -9.81 0 
0 -9.81 0 
0 -9.81 0 
0 -9.81 0 
0 -9.81 0 
0 -9.81 0 
0 -9.81 0 
0 -9.81 0 
0 -9.81 0 
0 -9.81 0 
0 -9.81 0 
0 -9.81 0 
0 -9.81 0 
0 -9.81 0 
0 -9.81 0 
0 -9.81 0 
0 -9.81 0 
0 -9.81 0 
0 -9.81 0 
0 -9.81 0 
0 -9.81 0 
0 -9.81 0 
0 -9.81 0 
0 -9.81 0 
0 -9.81 0 
0 -9.81 0 
0 -9.81 0 
0 -9.81 0 
0 -9.81 0 
0 -9.81 0 
0 -9.81 0 
0 -9.81 0 
TENSORS cauchy_stress double
-1.79582e-11 -1.87926e-11 0
-1.87926e-11 9.7023e-11 0
0 0 2.37194e-11

-1.97214e-11 -1.63775e-11 0
-1.63775e-11 -3.07205e-11 0
0 0 -1.51326e-11

-2.56804e-11 2.82922e-12 0
2.82922e-12 7.90046e-11 0
0 0 1.59973e-11

-3.62578e-11 -6.3144e-12 0
-6.3144e-12 -6.93056e-11 0
0 0 -3.1669e-11

-2.76047e-11 1.54731e-12 0
1.54731e-12 -8.62986e-11 0
0 0 -3.4171e-11

-1.11625e-11 3.14455e-12 0
3.14455e-12 -1.77803e-11 0
0 0 -8.68283e-12

-4.05034e-11 -5.07755e-14 0
-5.07755e-14 -1.16396e-10 0
0 0 -4.70697e-11

-5.95995e-12 7.02289e-13 0
7.02289e-13 -5.64093e-12 0
0 0 -3.48027e-12

-5.40789e-12 -1.65328e-13 0
-1.65328e-13 2.35919e-11 0
0 0 5.45519e-12

-1.19251e-11 -5.1654e-12 0
-5.1654e-12 -1.62801e-11 0
0 0 -8.46155e-12

-1.51441e-11 6.82923e-12 0
6.82923e-12 8.74051e-13 0
0 0 -4.28101e-12

2.39679e-12 -2.2274e-12 0
-2.2274e-12 1.71376e-11 0
0 0 5.86032e-12

-3.05501e-12 3.09374e-12 0
3.09374e-12 1.28011e-11 0
0 0 2.92382e-12

-2.44104e-12 3.80202e-13 0
3.80202e-13 -2.80605e-12 0
0 0 -1.57413e-12

-1.11603e-11 -8.51453e-12 0
-8.51453e-12 -6.11129e-12 0
0 0 -5.18148e-12

9.55097e-12 5.89933e-12 0
5.89933e-12 2.51753e-11 0
0 0 1.04179e-11

-2.93248e-12 -1.40695e-11 0
-1.40695e-11 5.75584e-11 0
0 0 1.63878e-11

-2.82591e-11 -5.81351e-12 0
-5.81351e-12 -5.10939e-11 0
0 0 -2.38059e-11

1.82705e-11 -1.27475e-11 0
-1.27475e-11 1.07032e-10 0
0 0 3.75908e-11

-3.51014e-11 -1.51801e-12 0
-1.51801e-12 -6.70592e-11 0
0 0 -3.06482e-11

-5.21746e-11 -1.19541e-11 0
-1.19541e-11 -1.12222e-10 0
0 0 -4.93188e-11

-1.52623e-11 4.43426e-12 0
4.43426e-12 -7.80064e-12 0
0 0 -6.91887e-12

-6.77895e-11 3.84829e-13 0
3.84829e-13 -1.48656e-10 0
0 0 -6.49337e-11

-2.64248e-11 -2.28085e-12 0
-2.28085e-12 -3.38466e-11 0
0 0 -1.80814e-11

-9.20041e-12 -5.92722e-12 0
-5.92722e-12 1.52998e-11 0
0 0 1.82982e-12

-1.49346e-11 1.76438e-12 0
1.76438e-12 -1.75546e-11 0
0 0 -9.74678e-12

-1.61396e-11 -1.83867e-12 0
-1.83867e-12 -8.91557e-13 0
0 0 -5.10934e-12

-6.86256e-12 -2.02594e-12 0
-2.02594e-12 1.28019e-12 0
0 0 -1.67471e-12

-1.4846e-11 -5.80555e-12 0
-5.80555e-12 -1.45901e-11 0
0 0 -8.83082e-12

5.20824e-14 -7.60151e-12 0
-7.60151e-12 4.48151e-12 0
0 0 1.36008e-12

-4.88118e-12 -2.56609e-12 0
-2.56609e-12 8.66106e-12 0
0 0 1.13396e-12

9.27227e-12 -4.32907e-13 0
-4.32907e-13 2.59953e-11 0
0 0 1.05803e-11

9.08758e-12 5.49094e-12 0
5.49094e-12 5.56115e-11 0
0 0 1.94097e-11

-4.8186e-11 -3.36964e-12 0
-3.36964e-12 -9.73389e-11 0
0 0 -4.36575e-11

1.09219e-11 7.04423e-12 0
7.04423e-12 5.98915e-11 0
0 0 2.1244e-11

-4.09626e-11 7.58651e-12 0
7.58651e-12 -8.04843e-11 0
0 0 -3.64341e-11

-5.46554e-11 -8.56444e-12 0
-8.56444e-12 -1.29436e-10 0
0 0 -5.52275e-11

3.40952e-12 -7.75323e-13 0
-7.75323e-13 1.36188e-11 0
0 0 5.10849e-12

-7.20422e-11 7.4181e-12 0
7.4181e-12 -1.70005e-10 0
0 0 -7.26143e-11

-5.58329e-12 -4.89171e-12 0
-4.89171e-12 -7.36444e-12 0
0 0 -3.88432e-12

-1.5386e-12 3.9478e-12 0
3.9478e-12 1.33396e-11 0
0 0 3.54031e-12

-1.87568e-11 -3.74859e-12 0
-3.74859e-12 -3.67062e-11 0
0 0 -1.66389e-11

-4.89288e-12 -1.03728e-12 0
-1.03728e-12 5.51296e-12 0
0 0 1.86022e-13

-1.08385e-11 -8.8848e-13 0
-8.8848e-13 -1.823e-11 0
0 0 -8.72056e-12

-7.87206e-12 -7.75305e-12 0
-7.75305e-12 -1.36197e-11 0
0 0 -6.44752e-12

-3.42267e-12 -3.80854e-12 0
-3.80854e-12 1.60832e-11 0
0 0 3.79816e-12

-1.74449e-11 9.81366e-13 0
9.81366e-13 -3.59564e-11 0
0 0 -1.60204e-11

4.36597e-12 -1.58321e-12 0
-1.58321e-12 3.42567e-11 0
0 0 1.15868e-11

-2.00995e-11 8.41928e-12 0
8.41928e-12 9.58704e-11 0
0 0 2.27313e-11

-4.08882e-11 9.29037e-12 0
9.29037e-12 -6.4342e-11 0
0 0 -3.15691e-11

-2.71332e-11 2.4919e-11 0
2.4919e-11 7.94586e-11 0
0 0 1.56976e-11

-2.54166e-11 9.77292e-12 0
9.77292e-12 -2.82416e-11 0
0 0 -1.60975e-11

-3.27992e-11 -4.81568e-12 0
-4.81568e-12 -1.01255e-10 0
0 0 -4.02163e-11

4.72039e-12 -4.7759e-12 0
-4.7759e-12 -1.31419e-11 0
0 0 -2.52645e-12

-3.6358e-11 8.18344e-12 0
8.18344e-12 -1.09559e-10 0
0 0 -4.37751e-11

1.1465e-11 -8.5005e-12 0
-8.5005e-12 2.59552e-12 0
0 0 4.21816e-12

-6.83691e-12 3.23329e-12 0
3.23329e-12 -1.20948e-11 0
0 0 -5.67951e-12

-1.85314e-11 -1.57721e-12 0
-1.57721e-12 -3.9928e-11 0
0 0 -1.75378e-11

6.67832e-12 -6.01182e-12 0
-6.01182e-12 1.94408e-11 0
0 0 7.83572e-12

-8.99895e-12 6.64534e-12 0
6.64534e-12 -1.76857e-11 0
0 0 -8.00539e-12

-2.0088e-11 1.56567e-12 0
1.56567e-12 -3.85837e-11 0
0 0 -1.76015e-11

-6.36544e-12 2.76242e-12 0
2.76242e-12 -6.34542e-12 0
0 0 -3.81326e-12

3.91439e-12 -9.17402e-13 0
-9.17402e-13 1.7422e-11 0
0 0 6.40092e-12

-2.59282e-12 -5.54439e-13 0
-5.54439e-13 2.45737e-12 0
0 0 -4.06349e-14

TENSORS velocity_gradient double
-1.51665e-14 -6.81889e-15 0
7.33857e-14 -2.10831e-13 0
0 0 0

-9.07639e-16 -4.28236e-14 0
4.44089e-14 5.86198e-14 0
0 0 0

-1.51665e-14 2.39692e-15 0
2.26485e-14 -1.76303e-13 0
0 0 0

-9.07639e-16 -2.68837e-14 0
1.42109e-14 7.10543e-14 0
0 0 0

1.41442e-14 -3.4866e-14 0
-1.66533e-14 -8.77076e-14 0
0 0 0

1.05272e-14 1.29391e-14 0
8.88178e-15 2.30926e-14 0
0 0 0

1.41442e-14 -2.24783e-14 0
2.13163e-14 -9.23706e-14 0
0 0 0

1.05272e-14 3.98722e-15 0
-1.42109e-14 -1.42109e-14 0
0 0 0

1.80462e-15 1.15905e-14 0
-2.18714e-14 -7.66054e-15 0
0 0 0

-2.09629e-15 3.48829e-15 0
-1.77636e-15 1.24345e-14 0
0 0 0

1.80462e-15 3.55597e-15 0
-2.70894e-14 1.55431e-14 0
0 0 0

-2.09629e-15 9.65245e-16 0
7.10543e-15 7.81597e-14 0
0 0 0

-4.29632e-15 4.07872e-16 0
1.67644e-14 1.67644e-14 0
0 0 0

2.94041e-16 -1.80978e-14 0
-1.59872e-14 -3.01981e-14 0
0 0 0

-4.29632e-15 -8.23147e-16 0
-1.9984e-14 2.26485e-14 0
0 0 0

2.94041e-16 -1.15669e-14 0
3.55271e-14 -2.13163e-14 0
0 0 0

-2.96442e-14 9.23462e-15 0
-2.0095e-14 -1.62204e-13 0
0 0 0

-1.96306e-14 -1.29813e-14 0
5.32907e-15 6.21725e-14 0
0 0 0

-2.96442e-14 1.36942e-14 0
-1.77636e-14 -2.16716e-13 0
0 0 0

-1.96306e-14 -1.11649e-15 0
-3.55271e-14 1.06581e-13 0
0 0 0

-8.22814e-15 -1.12767e-14 0
-3.56382e-14 -9.24816e-14 0
0 0 0

-6.5457e-15 -1.03634e-15 0
-1.06581e-14 1.77636e-14 0
0 0 0

-8.22814e-15 -1.26134e-15 0
0 -7.10543e-14 0
0 0 0

-6.5457e-15 -2.13155e-15 0
-7.10543e-15 -3.55271e-14 0
0 0 0

-7.44883e-15 -6.24714e-16 0
-1.12133e-14 1.72085e-14 0
0 0 0

-4.31394e-15 1.84814e-15 0
-5.32907e-15 3.73035e-14 0
0 0 0

-7.44883e-15 -9.51602e-16 0
-2.62013e-14 -1.19904e-14 0
0 0 0

-4.31394e-15 6.13696e-15 0
-5.68434e-14 -2.84217e-14 0
0 0 0

7.78441e-17 9.11668e-16 0
-7.28306e-14 1.24345e-14 0
0 0 0

6.63402e-15 -4.71417e-15 0
-4.79616e-14 -6.21725e-14 0
0 0 0

7.78441e-17 5.61232e-15 0
-7.77156e-14 7.54952e-15 0
0 0 0

6.63402e-15 2.46052e-15 0
-6.39488e-14 -7.10543e-15 0
0 0 0

-2.73691e-14 1.13384e-14 0
9.54792e-15 -1.89404e-13 0
0 0 0

-2.14748e-14 1.0274e-14 0
-1.42109e-14 5.68434e-14 0
0 0 0

-2.73691e-14 2.16723e-15 0
1.06581e-14 -1.88294e-13 0
0 0 0

-2.14748e-14 2.11901e-14 0
2.13163e-14 7.81597e-14 0
0 0 0

-1.10627e-14 8.19636e-15 0
-1.23235e-14 -9.75886e-14 0
0 0 0

-1.12467e-14 -4.28518e-15 0
-5.32907e-15 2.30926e-14 0
0 0 0

-1.10627e-14 1.70963e-14 0
2.26485e-14 -1.05249e-13 0
0 0 0

-1.12467e-14 -7.49723e-15 0
-1.42109e-14 -7.10543e-14 0
0 0 0

-1.42638e-14 -2.33121e-15 0
-3.39728e-14 -5.55112e-15 0
0 0 0

-1.3183e-14 9.40734e-15 0
-1.42109e-14 -4.26326e-14 0
0 0 0

-1.42638e-14 -4.76352e-15 0
-1.9984e-14 -6.26166e-14 0
0 0 0

-1.3183e-14 1.16593e-14 0
0 0 0
0 0 0

-1.09738e-14 9.00306e-15 0
-2.20934e-14 -5.05151e-14 0
0 0 0

-9.66391e-15 6.57434e-15 0
1.06581e-14 -1.77636e-14 0
0 0 0

-1.09738e-14 1.10839e-14 0
4.44089e-16 -1.37668e-14 0
0 0 0

-9.66391e-15 7.62728e-15 0
2.13163e-14 -7.10543e-15 0
0 0 0

-1.71899e-14 -2.93711e-15 0
-3.31957e-14 -2.03726e-13 0
0 0 0

-6.06599e-15 3.42371e-14 0
-3.73035e-14 9.05942e-14 0
0 0 0

-1.71899e-14 -3.9746e-15 0
-2.4869e-14 -1.95399e-13 0
0 0 0

-6.06599e-15 4.94148e-14 0
-2.13163e-14 1.06581e-13 0
0 0 0

8.39116e-15 2.76941e-14 0
-2.10942e-15 -1.44218e-13 0
0 0 0

7.70028e-15 -1.16131e-14 0
7.10543e-15 -7.10543e-15 0
0 0 0

8.39116e-15 3.99895e-14 0
1.64313e-14 -1.11466e-13 0
0 0 0

7.70028e-15 -1.66327e-14 0
1.42109e-14 -2.84217e-14 0
0 0 0

2.41315e-15 -9.02444e-15 0
1.66533e-14 -1.17684e-14 0
0 0 0

-8.49673e-15 6.52689e-15 0
4.44089e-14 3.01981e-14 0
0 0 0

2.41315e-15 -1.5114e-14 0
2.53131e-14 -3.10862e-15 0
0 0 0

-8.49673e-15 -5.98978e-15 0
5.68434e-14 1.42109e-14 0
0 0 0

-2.0421e-14 7.05071e-15 0
2.9976e-14 -2.68674e-14 0
0 0 0

-1.98921e-14 1.01976e-14 0
3.01981e-14 -2.66454e-14 0
0 0 0

-2.0421e-14 -3.09647e-15 0
4.08562e-14 1.24345e-14 0
0 0 0

-1.98921e-14 1.42852e-14 0
2.84217e-14 -2.84217e-14 0
0 0 0

SCALARS active double 1
LOOKUP_TABLE default
1
1
1
1
1
1
1
1
1
1
1
1
1
1
1
1
1
1
1
1
1
1
1
1
1
1
1
1
1
1
1
1
1
1
1
1
1
1
1
1
1
1
1
1
1
1
1
1
1
1
1
1
1
1
1
1
1
1
1
1
1
1
1
1
SCALARS extent double 1
LOOKUP_TABLE default
0.0125
0.0125
0.0125
0.0125
0.0125
0.0125
0.0125
0.0125
0.0125
0.0125
0.0125
0.0125
0.0125
0.0125
0.0125
0.0125
0.0125
0.0125
0.0125
0.0125
0.0125
0.0125
0.0125
0.0125
0.0125
0.0125
0.0125
0.0125
0.0125
0.0125
0.0125
0.0125
0.0125
0.0125
0.0125
0.0125
0.0125
0.0125
0.0125
0.0125
0.0125
0.0125
0.0125
0.0125
0.0125
0.0125
0.0125
0.0125
0.0125
0.0125
0.0125
0.0125
0.0125
0.0125
0.0125
0.0125
0.0125
0.0125
0.0125
0.0125
0.0125
0.0125
0.0125
0.0125
SCALARS pressure double 1
LOOKUP_TABLE default
-3.42614e-11
2.18582e-11
-2.31072e-11
4.57441e-11
4.93581e-11
1.25419e-11
6.79896e-11
5.02705e-12
-7.87972e-12
1.22222e-11
6.18369e-12
-8.46491e-12
-4.22329e-12
2.27374e-12
7.48436e-12
-1.50481e-11
-2.36712e-11
3.43863e-11
-5.42978e-11
4.42696e-11
7.12383e-11
9.99392e-12
9.37932e-11
2.61176e-11
-2.64308e-12
1.40787e-11
7.38015e-12
2.41902e-12
1.27556e-11
-1.96456e-12
-1.63795e-12
-1.52826e-11
-2.80363e-11
6.30608e-11
-3.06858e-11
5.2627e-11
7.97731e-11
-7.37893e-12
1.04887e-10
5.61068e-12
-5.11378e-12
2.4034e-11
-2.68699e-13
1.25964e-11
9.31308e-12
-5.48623e-12
2.31406e-11
-1.67365e-11
-3.2834e-11
4.55997e-11
-2.26743e-11
2.32519e-11
5.80902e-11
3.64931e-12
6.32307e-11
-6.09289e-12
8.20374e-12
2.53324e-11
-1.13183e-11
1.15633e-11
2.54244e-11
5.50804e-12
-9.24578e-12
5.86948e-14
SCALARS density double 1
LOOKUP_TABLE default
1000
1000
1000
1000
1000
1000
1000
1000
1000
1000
1000
1000
1000
1000
1000
1000
1000
1000
1000
1000
1000
1000
1000
1000
1000
1000
1000
1000
1000
1000
1000
1000
1000
1000
1000
1000
1000
1000
1000
1000
1000
1000
1000
1000
1000
1000
1000
1000
1000
1000
1000
1000
1000
1000
1000
1000
1000
1000
1000
1000
1000
1000
1000
1000
