# vtk DataFile Version 3.0
Frame: 55, Time: 0.917
ASCII
DATASET UNSTRUCTURED_GRID
POINTS 64 double
0.422559 0.244026 0 
0.443256 0.229154 0 
0.406392 0.223282 0 
0.427298 0.206844 0 
0.462976 0.214198 0 
0.484978 0.200426 0 
0.44756 0.192497 0 
0.470351 0.179625 0 
0.507669 0.18798 0 
0.52915 0.172928 0 
0.492857 0.166726 0 
0.513749 0.152613 0 
0.552793 0.161364 0 
0.575135 0.148832 0 
0.537867 0.140739 0 
0.55944 0.126787 0 
0.390793 0.204342 0 
0.410767 0.187403 0 
0.375994 0.185621 0 
0.396783 0.167642 0 
0.432702 0.173258 0 
0.455318 0.160867 0 
0.418262 0.152951 0 
0.43893 0.140913 0 
0.477148 0.147726 0 
0.498583 0.13393 0 
0.461227 0.127844 0 
0.484393 0.1154 0 
0.522207 0.120577 0 
0.545913 0.106676 0 
0.50723 0.102431 0 
0.529553 0.0867731 0 
0.360039 0.166352 0 
0.379686 0.147834 0 
0.346402 0.145482 0 
0.364599 0.127648 0 
0.401312 0.134066 0 
0.422778 0.12017 0 
0.385768 0.114014 0 
0.406234 0.10096 0 
0.444992 0.107196 0 
0.468855 0.0958027 0 
0.428366 0.0887651 0 
0.451168 0.0781367 0 
0.492104 0.0835231 0 
0.515341 0.0684053 0 
0.474808 0.0664912 0 
0.500681 0.0541564 0 
0.332902 0.126142 0 
0.350392 0.107228 0 
0.312658 0.110137 0 
0.330727 0.08595 0 
0.370454 0.0945189 0 
0.39251 0.0794202 0 
0.353911 0.0714741 0 
0.377589 0.0571029 0 
0.414583 0.0678477 0 
0.437144 0.0581164 0 
0.398753 0.0457795 0 
0.424206 0.037795 0 
0.463217 0.0475642 0 
0.490015 0.0390882 0 
0.452388 0.0312529 0 
0.480427 0.0258248 0 
CELLS 64 128
1 0
1 1
1 2
1 3
1 4
1 5
1 6
1 7
1 8
1 9
1 10
1 11
1 12
1 13
1 14
1 15
1 16
1 17
1 18
1 19
1 20
1 21
1 22
1 23
1 24
1 25
1 26
1 27
1 28
1 29
1 30
1 31
1 32
1 33
1 34
1 35
1 36
1 37
1 38
1 39
1 40
1 41
1 42
1 43
1 44
1 45
1 46
1 47
1 48
1 49
1 50
1 51
1 52
1 53
1 54
1 55
1 56
1 57
1 58
1 59
1 60
1 61
1 62
1 63
CELL_TYPES 64
1
1
1
1
1
1
1
1
1
1
1
1
1
1
1
1
1
1
1
1
1
1
1
1
1
1
1
1
1
1
1
1
1
1
1
1
1
1
1
1
1
1
1
1
1
1
1
1
1
1
1
1
1
1
1
1
1
1
1
1
1
1
1
1
POINT_DATA 64
VECTORS displacement double
-0.0899411 -0.368474 0 
-0.0692445 -0.408346 0 
-0.131108 -0.389218 0 
-0.110202 -0.430656 0 
-0.0495235 -0.448302 0 
-0.0275222 -0.487074 0 
-0.0899401 -0.470003 0 
-0.0671492 -0.507875 0 
-0.0048308 -0.52452 0 
0.0166504 -0.564572 0 
-0.0446429 -0.545774 0 
-0.023751 -0.584887 0 
0.0402928 -0.601136 0 
0.0626346 -0.638668 0 
0.000366515 -0.621761 0 
0.0219402 -0.660713 0 
-0.171707 -0.408158 0 
-0.151733 -0.450097 0 
-0.211506 -0.426879 0 
-0.190717 -0.469858 0 
-0.129798 -0.489242 0 
-0.107182 -0.526633 0 
-0.169238 -0.509549 0 
-0.14857 -0.546587 0 
-0.0853518 -0.564774 0 
-0.0639168 -0.60357 0 
-0.126273 -0.584656 0 
-0.103107 -0.6221 0 
-0.0402934 -0.641923 0 
-0.0165873 -0.680824 0 
-0.0802701 -0.660069 0 
-0.0579467 -0.700727 0 
-0.252461 -0.446148 0 
-0.232814 -0.489666 0 
-0.291098 -0.467018 0 
-0.272901 -0.509852 0 
-0.211188 -0.528434 0 
-0.189722 -0.56733 0 
-0.251732 -0.548486 0 
-0.231266 -0.58654 0 
-0.167508 -0.605304 0 
-0.143645 -0.641697 0 
-0.209134 -0.623735 0 
-0.186332 -0.659363 0 
-0.120396 -0.678977 0 
-0.097159 -0.719095 0 
-0.162692 -0.696009 0 
-0.136819 -0.733344 0 
-0.329598 -0.486358 0 
-0.312108 -0.530272 0 
-0.374842 -0.502363 0 
-0.356773 -0.55155 0 
-0.292046 -0.567981 0 
-0.26999 -0.60808 0 
-0.333589 -0.591026 0 
-0.309911 -0.630397 0 
-0.247917 -0.644652 0 
-0.225356 -0.679384 0 
-0.288747 -0.666721 0 
-0.263294 -0.699705 0 
-0.199283 -0.714936 0 
-0.172485 -0.748412 0 
-0.235112 -0.731247 0 
-0.207073 -0.761675 0 
VECTORS velocity double
-0.667872 1.38622 0 
-0.898481 1.4646 0 
-0.631267 1.14279 0 
-0.273022 1.17895 0 
-0.397115 1.73369 0 
-0.413986 1.55325 0 
-0.46668 1.54023 0 
-0.349726 1.45636 0 
-0.638066 1.61319 0 
-0.720281 1.47565 0 
-0.270601 1.35332 0 
-0.614591 1.20268 0 
-0.67149 1.76316 0 
-0.481322 2.02885 0 
-0.0145872 1.49397 0 
-0.420624 1.72694 0 
-0.603036 1.30637 0 
-0.426124 0.947766 0 
-0.293536 0.835066 0 
-0.394622 1.38579 0 
-0.220625 1.36342 0 
0.10126 1.23018 0 
-0.152166 1.38397 0 
-0.223373 1.42536 0 
-0.0252358 1.36546 0 
-0.227189 1.26456 0 
-0.120305 1.09577 0 
-0.000326072 1.15036 0 
-0.309449 1.30222 0 
-0.0207655 1.4658 0 
-0.0709809 1.1833 0 
-0.24463 1.58752 0 
-0.203419 0.970237 0 
0.0299689 0.841568 0 
-0.171905 0.739258 0 
-0.154943 0.994766 0 
0.319067 0.853862 0 
0.0499896 1.13108 0 
-0.0871278 0.631971 0 
0.309527 1.25516 0 
0.199781 1.10057 0 
-0.10163 1.01865 0 
0.255841 0.572932 0 
-0.21061 0.867752 0 
0.0122945 0.704744 0 
-0.011178 0.90629 0 
0.188291 0.953546 0 
-0.363366 0.784035 0 
0.357857 0.341724 0 
0.515773 0.707503 0 
-0.438178 0.747093 0 
0.382428 0.683728 0 
0.350494 0.878357 0 
0.648591 1.22662 0 
0.609142 0.921394 0 
0.356927 0.868439 0 
0.649179 0.855846 0 
0.375512 0.634985 0 
-0.09785 0.708872 0 
0.216295 0.572238 0 
0.478099 0.601394 0 
0.162472 0.618792 0 
-0.193703 -0.21235 0 
-0.359893 0.326619 0 
SCALARS mass double 1
LOOKUP_TABLE default
0.625
0.625
0.625
0.625
0.625
0.625
0.625
0.625
0.625
0.625
0.625
0.625
0.625
0.625
0.625
0.625
0.625
0.625
0.625
0.625
0.625
0.625
0.625
0.625
0.625
0.625
0.625
0.625
0.625
0.625
0.625
0.625
0.625
0.625
0.625
0.625
0.625
0.625
0.625
0.625
0.625
0.625
0.625
0.625
0.625
0.625
0.625
0.625
0.625
0.625
0.625
0.625
0.625
0.625
0.625
0.625
0.625
0.625
0.625
0.625
0.625
0.625
0.625
0.625
SCALARS volume double 1
LOOKUP_TABLE default
0.000619431
0.000610328
0.000630058
0.000610258
0.000617581
0.000630689
0.00061655
0.000605128
0.000626311
0.000629006
0.000616441
0.000609638
0.000637474
0.000640863
0.000631299
0.000596001
0.000604042
0.000628562
0.000599294
0.00063494
0.000610274
0.000605295
0.000605157
0.000607372
0.000608224
0.000589271
0.000641639
0.000618925
0.000620115
0.00061658
0.00058392
0.000612665
0.00063832
0.000624511
0.0006176
0.000575102
0.000622714
0.000603357
0.000604736
0.000599017
0.000628958
0.000601556
0.000564709
0.000572085
0.000564927
0.000576237
0.000571046
0.000526749
0.00061261
0.000650749
0.00057425
0.000665547
0.000600369
0.000639951
0.000652811
0.000612202
0.000604432
0.000620672
0.000606566
0.000483442
0.000568818
0.000487742
0.00042537
0.00035334
VECTORS momentum double
-0.41742 0.866387 0 
-0.561551 0.915373 0 
-0.394542 0.714244 0 
-0.170639 0.736842 0 
-0.248197 1.08356 0 
-0.258741 0.970782 0 
-0.291675 0.962644 0 
-0.218579 0.910226 0 
-0.398792 1.00824 0 
-0.450176 0.922282 0 
-0.169126 0.845822 0 
-0.384119 0.751673 0 
-0.419681 1.10197 0 
-0.300826 1.26803 0 
-0.00911699 0.933729 0 
-0.26289 1.07934 0 
-0.376898 0.816478 0 
-0.266327 0.592354 0 
-0.18346 0.521916 0 
-0.246639 0.866121 0 
-0.137891 0.852138 0 
0.0632875 0.768864 0 
-0.095104 0.864981 0 
-0.139608 0.890848 0 
-0.0157724 0.85341 0 
-0.141993 0.790352 0 
-0.0751903 0.684857 0 
-0.000203795 0.718976 0 
-0.193406 0.813886 0 
-0.0129784 0.916127 0 
-0.0443631 0.739563 0 
-0.152894 0.992198 0 
-0.127137 0.606398 0 
0.0187305 0.52598 0 
-0.107441 0.462036 0 
-0.0968393 0.621729 0 
0.199417 0.533664 0 
0.0312435 0.706926 0 
-0.0544549 0.394982 0 
0.193454 0.784472 0 
0.124863 0.687855 0 
-0.0635185 0.636659 0 
0.159901 0.358083 0 
-0.131631 0.542345 0 
0.00768404 0.440465 0 
-0.00698625 0.566431 0 
0.117682 0.595966 0 
-0.227104 0.490022 0 
0.22366 0.213578 0 
0.322358 0.442189 0 
-0.273861 0.466933 0 
0.239018 0.42733 0 
0.219059 0.548973 0 
0.40537 0.766639 0 
0.380714 0.575871 0 
0.22308 0.542774 0 
0.405737 0.534904 0 
0.234695 0.396865 0 
-0.0611562 0.443045 0 
0.135184 0.357649 0 
0.298812 0.375871 0 
0.101545 0.386745 0 
-0.121064 -0.132719 0 
-0.224933 0.204137 0 
VECTORS body_force double
0 -9.81 0 
0 -9.81 0 
0 -9.81 0 
0 -9.81 0 
0 -9.81 0 
0 -9.81 0 
0 -9.81 0 
0 -9.81 0 
0 -9.81 0 
0 -9.81 0 
0 -9.81 0 
0 -9.81 0 
0 -9.81 0 
0 -9.81 0 
0 -9.81 0 
0 -9.81 0 
0 -9.81 0 
0 -9.81 0 
0 -9.81 0 
0 -9.81 0 
0 -9.81 0 
0 -9.81 0 
0 -9.81 0 
0 -9.81 0 
0 -9.81 0 
0 -9.81 0 
0 -9.81 0 
0 -9.81 0 
0 -9.81 0 
0 -9.81 0 
0 -9.81 0 
0 -9.81 0 
0 -9.81 0 
0 -9.81 0 
0 -9.81 0 
0 -9.81 0 
0 -9.81 0 
0 -9.81 0 
0 -9.81 0 
0 -9.81 0 
0 -9.81 0 
0 -9.81 0 
0 -9.81 0 
0 -9.81 0 
0 -9.81 0 
0 -9.81 0 
0 -9.81 0 
0 -9.81 0 
0 -9.81 0 
0 -9.81 0 
0 -9.81 0 
0 -9.81 0 
0 -9.81 0 
0 -9.81 0 
0 -9.81 0 
0 -9.81 0 
0 -9.81 0 
0 -9.81 0 
0 -9.81 0 
0 -9.81 0 
0 -9.81 0 
0 -9.81 0 
0 -9.81 0 
0 -9.81 0 
TENSORS cauchy_stress double
-1715.03 -733.566 0
-733.566 -6.30985 0
0 0 -516.403

-2435.4 1782.39 0
1782.39 -2132.84 0
0 0 -1370.47

934.139 -449.606 0
-449.606 615.833 0
0 0 464.992

-2131.19 -724.338 0
-724.338 -2459.03 0
0 0 -1377.07

119.312 1469.75 0
1469.75 -2415.89 0
0 0 -688.973

2192.43 -4.3589 0
-4.3589 -449.826 0
0 0 522.783

1899.09 440.112 0
440.112 -4516.88 0
0 0 -785.337

-639.633 -1545.11 0
-1545.11 -5574.26 0
0 0 -1864.17

1702.25 -468.603 0
-468.603 -1299.22 0
0 0 120.908

2681.19 -2119.5 0
-2119.5 -1452.59 0
0 0 368.58

1221.74 78.1117 0
78.1117 -3873.61 0
0 0 -795.562

980.779 -336.04 0
-336.04 -5766.73 0
0 0 -1435.78

3047.4 -2059.68 0
-2059.68 752.81 0
0 0 1140.06

1443.03 -1331.97 0
-1331.97 3377.09 0
0 0 1446.04

2697.52 1420.82 0
1420.82 -768.982 0
0 0 578.563

-4511.56 -2104.3 0
-2104.3 -4624.84 0
0 0 -2740.92

-4225.04 -2161.83 0
-2161.83 -2334.11 0
0 0 -1967.75

4146.22 739.143 0
739.143 -3053.42 0
0 0 327.843

-4278.29 -1883.82 0
-1883.82 -3798.55 0
0 0 -2423.05

4073.68 -358.648 0
-358.648 -1039.16 0
0 0 910.355

911.414 -857.348 0
-857.348 -5496.81 0
0 0 -1375.62

1570.5 1857.45 0
1857.45 -7731.25 0
0 0 -1848.23

865.397 1366.94 0
1366.94 -7069.83 0
0 0 -1861.33

4953.58 4358.94 0
4358.94 -10455.5 0
0 0 -1650.58

1823.47 1310.64 0
1310.64 -7055.9 0
0 0 -1569.73

1732.63 -3187.85 0
-3187.85 -13053 0
0 0 -3396.1

11368 3388.41 0
3388.41 -6315.34 0
0 0 1515.79

8320.95 877.882 0
877.882 -10199.3 0
0 0 -563.517

6363.52 -3763.87 0
-3763.87 -7872.56 0
0 0 -452.714

-2100.02 -1837.5 0
-1837.5 -508.475 0
0 0 -782.549

-1219.88 -1154.95 0
-1154.95 -11854.8 0
0 0 -3922.4

-134.73 -4314.64 0
-4314.64 -3698.76 0
0 0 -1150.05

4106.98 -857.809 0
-857.809 -51.6845 0
0 0 1216.59

960.499 -636.333 0
-636.333 -1110.93 0
0 0 -45.1281

-854.701 -3197.44 0
-3197.44 -1435.84 0
0 0 -687.162

-11400.7 249.193 0
249.193 -4600.27 0
0 0 -4800.29

4920.49 1158.5 0
1158.5 -5625.09 0
0 0 -211.379

958.978 1204.94 0
1204.94 -7736.34 0
0 0 -2033.21

201.546 1217.05 0
1217.05 -6540.07 0
0 0 -1901.56

1027.28 7601.77 0
7601.77 -9193.1 0
0 0 -2449.75

10485 273.454 0
273.454 -9271 0
0 0 364.214

2969 2841.46 0
2841.46 -10321.4 0
0 0 -2205.73

-2538.7 1546.47 0
1546.47 -16969.3 0
0 0 -5852.39

-282.525 -156.583 0
-156.583 -16729.7 0
0 0 -5103.67

-2202.01 -3595.33 0
-3595.33 -17231.7 0
0 0 -5830.12

-3212.9 -9165.12 0
-9165.12 -12408.9 0
0 0 -4686.54

10065.9 3642.2 0
3642.2 -27428 0
0 0 -5208.62

-9226.81 -14411 0
-14411 -23663.1 0
0 0 -9866.97

-4539.01 185.87 0
185.87 688.431 0
0 0 -1155.17

2682.1 5389.5 0
5389.5 5081.94 0
0 0 2329.21

-14352.4 -7968.32 0
-7968.32 -1933.36 0
0 0 -4885.73

6948.75 -5307.27 0
-5307.27 5139.18 0
0 0 3626.38

-4113.49 2073.95 0
2073.95 -3618.52 0
0 0 -2319.6

7431.39 1007.89 0
1007.89 -2885.27 0
0 0 1363.84

8732.98 2399.27 0
2399.27 -360.646 0
0 0 2511.7

-1995.71 -601.734 0
-601.734 -1982.89 0
0 0 -1193.58

2611.49 6165.46 0
6165.46 -9046.58 0
0 0 -1930.53

6597.25 2903.38 0
2903.38 -7933.57 0
0 0 -400.896

2634.58 3331.02 0
3331.02 -8391.91 0
0 0 -1727.2

-12107.4 1816.76 0
1816.76 -37281 0
0 0 -14816.5

2739.53 -126.643 0
-126.643 -20853.3 0
0 0 -5434.14

-9791.73 -9697.34 0
-9697.34 -37893.9 0
0 0 -14305.7

-13402.9 -5989.34 0
-5989.34 -60595.8 0
0 0 -22199.6

-23303.3 -5019.11 0
-5019.11 -86373.6 0
0 0 -32903.1

TENSORS velocity_gradient double
-0.429325 -4.9612 0
3.99286 1.12946 0
0 0 0

-0.125279 -5.3639 0
4.51173 0.406985 0
0 0 0

-0.022471 -4.64056 0
4.71912 1.70182 0
0 0 0

0.288764 -5.10827 0
5.26929 1.04184 0
0 0 0

0.227942 -4.30374 0
2.45665 0.91187 0
0 0 0

-0.855783 -3.17592 0
1.87035 3.02852 0
0 0 0

-0.294068 -5.56714 0
3.92567 3.11631 0
0 0 0

-2.03005 -4.51556 0
1.53149 3.52571 0
0 0 0

-3.3536 -3.05742 0
2.17037 3.15618 0
0 0 0

-3.21829 -3.2504 0
3.45646 1.32198 0
0 0 0

-2.70292 -3.34008 0
1.38974 3.77335 0
0 0 0

-2.98735 -3.7048 0
5.07129 3.25618 0
0 0 0

-1.12733 -3.36091 0
6.05821 -0.765065 0
0 0 0

-0.606317 -4.96349 0
7.48913 0.646748 0
0 0 0

-2.71801 -5.2702 0
5.73797 3.13411 0
0 0 0

-0.612086 -5.61396 0
8.20245 2.3709 0
0 0 0

-0.644556 -5.39117 0
4.29117 2.82913 0
0 0 0

0.144741 -6.34784 0
4.81461 1.38395 0
0 0 0

-0.837742 -6.40699 0
5.59327 1.75661 0
0 0 0

-0.593547 -6.50088 0
5.65926 1.09662 0
0 0 0

-0.130167 -5.92534 0
4.11494 2.45928 0
0 0 0

-2.85178 -5.29537 0
1.45276 3.34501 0
0 0 0

-0.64027 -6.25503 0
3.14255 2.65413 0
0 0 0

-1.3016 -4.84395 0
2.62885 5.09683 0
0 0 0

-3.4209 -4.1278 0
1.31201 4.78158 0
0 0 0

-3.08247 -4.2389 0
3.32336 4.70356 0
0 0 0

-3.44292 -4.0753 0
1.5832 5.35381 0
0 0 0

-3.41055 -4.13576 0
1.77601 4.99367 0
0 0 0

-2.14587 -4.81811 0
6.58459 3.80308 0
0 0 0

-1.53363 -5.08106 0
7.48443 2.87123 0
0 0 0

-1.71074 -2.99075 0
7.46685 5.37675 0
0 0 0

-1.63977 -0.812767 0
8.72073 4.75193 0
0 0 0

-0.712032 -6.30128 0
6.33574 2.38095 0
0 0 0

-0.606583 -7.32111 0
6.5239 1.94181 0
0 0 0

-1.77725 -6.27268 0
4.98943 0.0392303 0
0 0 0

-0.541009 -7.56978 0
5.19857 0.90622 0
0 0 0

-1.30153 -7.39473 0
3.67308 3.52504 0
0 0 0

-2.79787 -6.02714 0
1.81802 4.45565 0
0 0 0

-0.500001 -7.63282 0
4.17265 2.48334 0
0 0 0

-3.78393 -3.72408 0
0.881487 3.83744 0
0 0 0

-3.70073 -4.43823 0
1.36179 5.31754 0
0 0 0

-3.47452 -1.67019 0
2.14735 8.06232 0
0 0 0

-3.75094 -0.994933 0
-0.303249 6.38371 0
0 0 0

-3.60488 -1.61856 0
0.916246 8.45017 0
0 0 0

-3.67726 -1.04017 0
2.47926 7.67829 0
0 0 0

-1.69519 -0.85632 0
10.3758 6.0526 0
0 0 0

-3.97101 -1.34318 0
2.94513 8.15884 0
0 0 0

-2.72323 -0.949757 0
7.63519 9.06946 0
0 0 0

2.52808 -3.37409 0
4.29222 -0.398063 0
0 0 0

3.22227 -6.79962 0
3.85826 0.0217452 0
0 0 0

6.38138 1.50516 0
4.0893 -0.655012 0
0 0 0

5.67858 -7.31371 0
3.32222 -2.97206 0
0 0 0

-0.888361 -1.99987 0
2.51943 0.024662 0
0 0 0

-1.9082 -0.511225 0
0.909725 2.37432 0
0 0 0

-1.31663 -3.30525 0
0.637122 -1.65963 0
0 0 0

-3.41157 -1.522 0
-1.46318 0.778918 0
0 0 0

-3.00603 -0.499603 0
-2.65224 4.82175 0
0 0 0

-2.66255 -1.30872 0
-3.73536 7.37322 0
0 0 0

-2.90162 5.08923 0
-2.64447 14.4215 0
0 0 0

-1.78708 4.39756 0
-3.41151 13.6237 0
0 0 0

-3.82398 1.10689 0
3.02208 11.1857 0
0 0 0

-3.2729 -0.244592 0
2.60571 13.954 0
0 0 0

-2.26165 2.88519 0
0.534775 11.7183 0
0 0 0

-2.16373 0.571415 0
1.72265 13.3043 0
0 0 0

SCALARS active double 1
LOOKUP_TABLE default
1
1
1
1
1
1
1
1
1
1
1
1
1
1
1
1
1
1
1
1
1
1
1
1
1
1
1
1
1
1
1
1
1
1
1
1
1
1
1
1
1
1
1
1
1
1
1
1
1
1
1
1
1
1
1
1
1
1
1
1
1
1
1
1
SCALARS extent double 1
LOOKUP_TABLE default
0.0125
0.0125
0.0125
0.0125
0.0125
0.0125
0.0125
0.0125
0.0125
0.0125
0.0125
0.0125
0.0125
0.0125
0.0125
0.0125
0.0125
0.0125
0.0125
0.0125
0.0125
0.0125
0.0125
0.0125
0.0125
0.0125
0.0125
0.0125
0.0125
0.0125
0.0125
0.0125
0.0125
0.0125
0.0125
0.0125
0.0125
0.0125
0.0125
0.0125
0.0125
0.0125
0.0125
0.0125
0.0125
0.0125
0.0125
0.0125
0.0125
0.0125
0.0125
0.0125
0.0125
0.0125
0.0125
0.0125
0.0125
0.0125
0.0125
0.0125
0.0125
0.0125
0.0125
0.0125
SCALARS pressure double 1
LOOKUP_TABLE default
745.916
1979.57
-671.655
1989.1
995.184
-755.13
1134.37
2692.69
-174.645
-532.394
1149.15
2073.91
-1646.76
-2088.72
-835.702
3959.1
2842.3
-473.551
3499.97
-1314.96
1987
2669.66
2688.59
2384.18
2267.39
4905.48
-2189.47
813.969
653.921
1130.35
5665.69
1661.18
-1757.29
65.185
992.567
6933.75
305.325
2936.86
2746.69
3538.52
-526.087
3186.05
8453.45
7371.97
8421.28
6769.44
7523.56
14252.3
1668.58
-3364.41
7057.16
-5238.11
3350.54
-1969.98
-3628.01
1724.06
2788.54
579.072
2494.84
21401.6
7849.31
20663.8
32066.1
47526.7
SCALARS density double 1
LOOKUP_TABLE default
1008.99
1024.04
991.973
1024.16
1012.01
990.979
1013.71
1032.84
997.906
993.632
1013.89
1025.2
980.433
975.247
990.022
1048.66
1034.7
994.334
1042.89
984.344
1024.13
1032.55
1032.79
1029.02
1027.58
1060.63
974.069
1009.82
1007.88
1013.66
1070.35
1020.13
979.133
1000.78
1011.98
1086.76
1003.67
1035.87
1033.51
1043.38
993.707
1038.97
1106.77
1092.49
1106.34
1084.62
1094.48
1186.52
1020.22
960.431
1088.38
939.077
1041.03
976.637
957.398
1020.9
1034.03
1006.97
1030.39
1292.81
1098.77
1281.42
1469.31
1768.83
