# vtk DataFile Version 3.0
Frame: 16, Time: 0.267
ASCII
DATASET UNSTRUCTURED_GRID
POINTS 64 double
0.4125 0.0588887 0 
0.4125 0.0838887 0 
0.4375 0.0588887 0 
0.4375 0.0838887 0 
0.4125 0.108889 0 
0.4125 0.133889 0 
0.4375 0.108889 0 
0.4375 0.133889 0 
0.4125 0.158889 0 
0.4125 0.183889 0 
0.4375 0.158889 0 
0.4375 0.183889 0 
0.4125 0.208889 0 
0.4125 0.233889 0 
0.4375 0.208889 0 
0.4375 0.233889 0 
0.4625 0.0588887 0 
0.4625 0.0838887 0 
0.4875 0.0588887 0 
0.4875 0.0838887 0 
0.4625 0.108889 0 
0.4625 0.133889 0 
0.4875 0.108889 0 
0.4875 0.133889 0 
0.4625 0.158889 0 
0.4625 0.183889 0 
0.4875 0.158889 0 
0.4875 0.183889 0 
0.4625 0.208889 0 
0.4625 0.233889 0 
0.4875 0.208889 0 
0.4875 0.233889 0 
0.5125 0.0588887 0 
0.5125 0.0838887 0 
0.5375 0.0588887 0 
0.5375 0.0838887 0 
0.5125 0.108889 0 
0.5125 0.133889 0 
0.5375 0.108889 0 
0.5375 0.133889 0 
0.5125 0.158889 0 
0.5125 0.183889 0 
0.5375 0.158889 0 
0.5375 0.183889 0 
0.5125 0.208889 0 
0.5125 0.233889 0 
0.5375 0.208889 0 
0.5375 0.233889 0 
0.5625 0.0588887 0 
0.5625 0.0838887 0 
0.5875 0.0588887 0 
0.5875 0.0838887 0 
0.5625 0.108889 0 
0.5625 0.133889 0 
0.5875 0.108889 0 
0.5875 0.133889 0 
0.5625 0.158889 0 
0.5625 0.183889 0 
0.5875 0.158889 0 
0.5875 0.183889 0 
0.5625 0.208889 0 
0.5625 0.233889 0 
0.5875 0.208889 0 
0.5875 0.233889 0 
CELLS 64 128
1 0
1 1
1 2
1 3
1 4
1 5
1 6
1 7
1 8
1 9
1 10
1 11
1 12
1 13
1 14
1 15
1 16
1 17
1 18
1 19
1 20
1 21
1 22
1 23
1 24
1 25
1 26
1 27
1 28
1 29
1 30
1 31
1 32
1 33
1 34
1 35
1 36
1 37
1 38
1 39
1 40
1 41
1 42
1 43
1 44
1 45
1 46
1 47
1 48
1 49
1 50
1 51
1 52
1 53
1 54
1 55
1 56
1 57
1 58
1 59
1 60
1 61
1 62
1 63
CELL_TYPES 64
1
1
1
1
1
1
1
1
1
1
1
1
1
1
1
1
1
1
1
1
1
1
1
1
1
1
1
1
1
1
1
1
1
1
1
1
1
1
1
1
1
1
1
1
1
1
1
1
1
1
1
1
1
1
1
1
1
1
1
1
1
1
1
1
POINT_DATA 64
VECTORS displacement double
-1.02786e-16 -0.353611 0 
-1.21516e-16 -0.353611 0 
-1.09373e-16 -0.353611 0 
-1.23762e-16 -0.353611 0 
-1.36971e-16 -0.353611 0 
-1.36633e-16 -0.353611 0 
-1.36873e-16 -0.353611 0 
-1.35887e-16 -0.353611 0 
-1.24051e-16 -0.353611 0 
-1.0686e-16 -0.353611 0 
-1.20849e-16 -0.353611 0 
-1.01604e-16 -0.353611 0 
-7.30511e-17 -0.353611 0 
-5.3731e-17 -0.353611 0 
-7.32421e-17 -0.353611 0 
-5.24275e-17 -0.353611 0 
-1.21107e-16 -0.353611 0 
-1.25628e-16 -0.353611 0 
-1.3799e-16 -0.353611 0 
-1.27116e-16 -0.353611 0 
-1.31617e-16 -0.353611 0 
-1.27673e-16 -0.353611 0 
-1.21202e-16 -0.353611 0 
-1.11991e-16 -0.353611 0 
-1.12283e-16 -0.353611 0 
-9.37589e-17 -0.353611 0 
-9.83533e-17 -0.353611 0 
-8.3324e-17 -0.353611 0 
-7.16036e-17 -0.353611 0 
-5.20031e-17 -0.353611 0 
-6.81356e-17 -0.353611 0 
-5.24579e-17 -0.353611 0 
-1.52035e-16 -0.353611 0 
-1.29022e-16 -0.353611 0 
-1.63243e-16 -0.353611 0 
-1.31346e-16 -0.353611 0 
-1.11111e-16 -0.353611 0 
-9.76952e-17 -0.353611 0 
-1.01344e-16 -0.353611 0 
-8.47854e-17 -0.353611 0 
-8.53767e-17 -0.353611 0 
-7.23109e-17 -0.353611 0 
-7.33532e-17 -0.353611 0 
-6.07197e-17 -0.353611 0 
-6.32625e-17 -0.353611 0 
-5.32306e-17 -0.353611 0 
-5.69844e-17 -0.353611 0 
-5.43212e-17 -0.353611 0 
-1.71055e-16 -0.353611 0 
-1.35473e-16 -0.353611 0 
-1.75471e-16 -0.353611 0 
-1.41402e-16 -0.353611 0 
-9.85925e-17 -0.353611 0 
-7.86388e-17 -0.353611 0 
-1.02856e-16 -0.353611 0 
-7.92553e-17 -0.353611 0 
-6.44826e-17 -0.353611 0 
-5.14836e-17 -0.353611 0 
-5.87649e-17 -0.353611 0 
-4.46028e-17 -0.353611 0 
-5.40213e-17 -0.353611 0 
-5.31675e-17 -0.353611 0 
-5.43733e-17 -0.353611 0 
-4.97694e-17 -0.353611 0 
VECTORS velocity double
-7.60625e-15 -2.62908 0 
-1.57951e-15 -2.62908 0 
-2.4684e-15 -2.62908 0 
-2.15351e-15 -2.62908 0 
4.06873e-15 -2.62908 0 
4.27264e-15 -2.62908 0 
-6.06477e-16 -2.62908 0 
2.95805e-16 -2.62908 0 
-3.76235e-15 -2.62908 0 
-8.33545e-15 -2.62908 0 
-2.63136e-15 -2.62908 0 
-4.19218e-15 -2.62908 0 
-4.55924e-15 -2.62908 0 
8.73993e-17 -2.62908 0 
-2.95229e-15 -2.62908 0 
-3.87652e-16 -2.62908 0 
-2.97159e-16 -2.62908 0 
-2.10019e-15 -2.62908 0 
-1.09253e-15 -2.62908 0 
-1.41955e-15 -2.62908 0 
-2.57056e-15 -2.62908 0 
-1.40274e-15 -2.62908 0 
-1.82352e-15 -2.62908 0 
-8.23012e-16 -2.62908 0 
-1.66006e-15 -2.62908 0 
-1.8201e-15 -2.62908 0 
-8.48456e-16 -2.62908 0 
-1.21921e-15 -2.62908 0 
-1.72876e-15 -2.62908 0 
-6.26218e-16 -2.62908 0 
-8.88644e-16 -2.62908 0 
-6.28299e-16 -2.62908 0 
-1.89021e-15 -2.62908 0 
-8.59859e-16 -2.62908 0 
-2.6902e-15 -2.62908 0 
-4.21114e-16 -2.62908 0 
-6.73091e-16 -2.62908 0 
-3.15596e-16 -2.62908 0 
8.80722e-16 -2.62908 0 
1.19502e-16 -2.62908 0 
3.81805e-17 -2.62908 0 
-1.13399e-16 -2.62908 0 
9.99849e-16 -2.62908 0 
1.49732e-15 -2.62908 0 
3.27921e-16 -2.62908 0 
-5.9889e-16 -2.62908 0 
1.92093e-15 -2.62908 0 
-5.37991e-16 -2.62908 0 
1.60524e-16 -2.62908 0 
-2.1849e-16 -2.62908 0 
6.66196e-15 -2.62908 0 
-2.51987e-16 -2.62908 0 
-1.00924e-15 -2.62908 0 
-1.79023e-15 -2.62908 0 
-6.34299e-15 -2.62908 0 
-6.0448e-15 -2.62908 0 
2.44185e-15 -2.62908 0 
4.64889e-15 -2.62908 0 
4.36419e-15 -2.62908 0 
9.34131e-15 -2.62908 0 
2.81065e-15 -2.62908 0 
-9.56528e-16 -2.62908 0 
2.99706e-15 -2.62908 0 
-1.8545e-15 -2.62908 0 
SCALARS mass double 1
LOOKUP_TABLE default
0.625
0.625
0.625
0.625
0.625
0.625
0.625
0.625
0.625
0.625
0.625
0.625
0.625
0.625
0.625
0.625
0.625
0.625
0.625
0.625
0.625
0.625
0.625
0.625
0.625
0.625
0.625
0.625
0.625
0.625
0.625
0.625
0.625
0.625
0.625
0.625
0.625
0.625
0.625
0.625
0.625
0.625
0.625
0.625
0.625
0.625
0.625
0.625
0.625
0.625
0.625
0.625
0.625
0.625
0.625
0.625
0.625
0.625
0.625
0.625
0.625
0.625
0.625
0.625
SCALARS volume double 1
LOOKUP_TABLE default
0.000625
0.000625
0.000625
0.000625
0.000625
0.000625
0.000625
0.000625
0.000625
0.000625
0.000625
0.000625
0.000625
0.000625
0.000625
0.000625
0.000625
0.000625
0.000625
0.000625
0.000625
0.000625
0.000625
0.000625
0.000625
0.000625
0.000625
0.000625
0.000625
0.000625
0.000625
0.000625
0.000625
0.000625
0.000625
0.000625
0.000625
0.000625
0.000625
0.000625
0.000625
0.000625
0.000625
0.000625
0.000625
0.000625
0.000625
0.000625
0.000625
0.000625
0.000625
0.000625
0.000625
0.000625
0.000625
0.000625
0.000625
0.000625
0.000625
0.000625
0.000625
0.000625
0.000625
0.000625
VECTORS momentum double
-4.75391e-15 -1.64317 0 
-9.87197e-16 -1.64318 0 
-1.54275e-15 -1.64317 0 
-1.34595e-15 -1.64318 0 
2.54296e-15 -1.64318 0 
2.6704e-15 -1.64318 0 
-3.79048e-16 -1.64318 0 
1.84878e-16 -1.64318 0 
-2.35147e-15 -1.64317 0 
-5.20965e-15 -1.64317 0 
-1.6446e-15 -1.64317 0 
-2.62011e-15 -1.64317 0 
-2.84952e-15 -1.64318 0 
5.46246e-17 -1.64318 0 
-1.84518e-15 -1.64318 0 
-2.42282e-16 -1.64318 0 
-1.85725e-16 -1.64317 0 
-1.31262e-15 -1.64318 0 
-6.82833e-16 -1.64318 0 
-8.8722e-16 -1.64318 0 
-1.6066e-15 -1.64318 0 
-8.76715e-16 -1.64318 0 
-1.1397e-15 -1.64318 0 
-5.14382e-16 -1.64318 0 
-1.03754e-15 -1.64317 0 
-1.13756e-15 -1.64317 0 
-5.30285e-16 -1.64318 0 
-7.62004e-16 -1.64317 0 
-1.08048e-15 -1.64318 0 
-3.91386e-16 -1.64318 0 
-5.55402e-16 -1.64318 0 
-3.92687e-16 -1.64318 0 
-1.18138e-15 -1.64318 0 
-5.37412e-16 -1.64318 0 
-1.68137e-15 -1.64317 0 
-2.63196e-16 -1.64318 0 
-4.20682e-16 -1.64318 0 
-1.97248e-16 -1.64318 0 
5.50451e-16 -1.64318 0 
7.46886e-17 -1.64318 0 
2.38628e-17 -1.64318 0 
-7.08744e-17 -1.64317 0 
6.24906e-16 -1.64318 0 
9.35824e-16 -1.64317 0 
2.04951e-16 -1.64317 0 
-3.74306e-16 -1.64318 0 
1.20058e-15 -1.64317 0 
-3.36244e-16 -1.64318 0 
1.00328e-16 -1.64317 0 
-1.36556e-16 -1.64318 0 
4.16372e-15 -1.64317 0 
-1.57492e-16 -1.64318 0 
-6.30777e-16 -1.64318 0 
-1.1189e-15 -1.64318 0 
-3.96437e-15 -1.64318 0 
-3.778e-15 -1.64318 0 
1.52616e-15 -1.64318 0 
2.90555e-15 -1.64317 0 
2.72762e-15 -1.64317 0 
5.83832e-15 -1.64317 0 
1.75665e-15 -1.64318 0 
-5.9783e-16 -1.64318 0 
1.87317e-15 -1.64318 0 
-1.15906e-15 -1.64318 0 
VECTORS body_force double
0 -9.81 0 
0 -9.81 0 
0 -9.81 0 
0 -9.81 0 
0 -9.81 0 
0 -9.81 0 
0 -9.81 0 
0 -9.81 0 
0 -9.81 0 
0 -9.81 0 
0 -9.81 0 
0 -9.81 0 
0 -9.81 0 
0 -9.81 0 
0 -9.81 0 
0 -9.81 0 
0 -9.81 0 
0 -9.81 0 
0 -9.81 0 
0 -9.81 0 
0 -9.81 0 
0 -9.81 0 
0 -9.81 0 
0 -9.81 0 
0 -9.81 0 
0 -9.81 0 
0 -9.81 0 
0 -9.81 0 
0 -9.81 0 
0 -9.81 0 
0 -9.81 0 
0 -9.81 0 
0 -9.81 0 
0 -9.81 0 
0 -9.81 0 
0 -9.81 0 
0 -9.81 0 
0 -9.81 0 
0 -9.81 0 
0 -9.81 0 
0 -9.81 0 
0 -9.81 0 
0 -9.81 0 
0 -9.81 0 
0 -9.81 0 
0 -9.81 0 
0 -9.81 0 
0 -9.81 0 
0 -9.81 0 
0 -9.81 0 
0 -9.81 0 
0 -9.81 0 
0 -9.81 0 
0 -9.81 0 
0 -9.81 0 
0 -9.81 0 
0 -9.81 0 
0 -9.81 0 
0 -9.81 0 
0 -9.81 0 
0 -9.81 0 
0 -9.81 0 
0 -9.81 0 
0 -9.81 0 
TENSORS cauchy_stress double
-8.30095e-11 4.72665e-11 0
4.72665e-11 -1.26133e-10 0
0 0 -6.27429e-11

2.31452e-11 2.5268e-11 0
2.5268e-11 7.7036e-11 0
0 0 3.00544e-11

-6.34202e-11 5.02136e-11 0
5.02136e-11 -8.04251e-11 0
0 0 -4.31536e-11

2.74327e-12 1.42938e-11 0
1.42938e-11 2.94315e-11 0
0 0 9.65242e-12

7.03382e-11 5.13228e-12 0
5.13228e-12 1.63118e-10 0
0 0 7.00368e-11

3.24569e-11 -2.41092e-12 0
-2.41092e-12 6.80823e-11 0
0 0 3.01618e-11

3.60399e-11 1.92146e-13 0
1.92146e-13 8.30884e-11 0
0 0 3.57385e-11

1.29261e-11 6.86148e-13 0
6.86148e-13 2.25103e-11 0
0 0 1.06309e-11

4.05937e-11 -5.11047e-13 0
-5.11047e-13 6.18756e-11 0
0 0 3.07408e-11

-6.63348e-12 1.45348e-11 0
1.45348e-11 -6.93831e-11 0
0 0 -2.2805e-11

2.74884e-11 -1.20815e-12 0
-1.20815e-12 3.12966e-11 0
0 0 1.76355e-11

9.20321e-12 1.14613e-11 0
1.14613e-11 -3.24308e-11 0
0 0 -6.96828e-12

-4.05959e-11 2.46567e-11 0
2.46567e-11 -9.27645e-11 0
0 0 -4.00081e-11

1.27597e-11 1.37825e-11 0
1.37825e-11 1.64029e-11 0
0 0 8.74877e-12

-3.04465e-11 1.30732e-11 0
1.30732e-11 -6.90828e-11 0
0 0 -2.98588e-11

2.21288e-11 1.94872e-11 0
1.94872e-11 3.82642e-11 0
0 0 1.81179e-11

-1.46708e-10 -5.50142e-12 0
-5.50142e-12 -1.69166e-10 0
0 0 -9.47621e-11

1.39516e-11 -2.18331e-11 0
-2.18331e-11 4.78109e-11 0
0 0 1.85288e-11

-9.7918e-11 7.34046e-12 0
7.34046e-12 -5.53226e-11 0
0 0 -4.59722e-11

1.89717e-11 9.66144e-12 0
9.66144e-12 5.95243e-11 0
0 0 2.35488e-11

1.01293e-10 -8.10747e-14 0
-8.10747e-14 1.29527e-10 0
0 0 6.92458e-11

4.34878e-11 1.85264e-11 0
1.85264e-11 -5.93677e-11 0
0 0 -4.76397e-12

6.86915e-11 1.60535e-11 0
1.60535e-11 5.34569e-11 0
0 0 3.66445e-11

5.79106e-11 1.80999e-11 0
1.80999e-11 -2.57146e-11 0
0 0 9.65878e-12

6.7527e-11 1.83021e-11 0
1.83021e-11 1.46933e-11 0
0 0 2.46661e-11

-3.47446e-12 1.62388e-11 0
1.62388e-11 -1.15131e-10 0
0 0 -3.55817e-11

5.22931e-11 1.38469e-11 0
1.38469e-11 -2.08523e-11 0
0 0 9.43226e-12

8.41187e-12 2.63385e-11 0
2.63385e-11 -8.73966e-11 0
0 0 -2.36954e-11

-1.51284e-11 1.14351e-11 0
1.14351e-11 -7.08689e-11 0
0 0 -2.57992e-11

1.2824e-11 -2.83173e-12 0
-2.83173e-12 3.45875e-11 0
0 0 1.42234e-11

1.84778e-11 9.21361e-12 0
9.21361e-12 7.54541e-12 0
0 0 7.80695e-12

-3.09746e-13 6.42677e-13 0
6.42677e-13 3.94214e-12 0
0 0 1.08972e-12

-1.2827e-10 7.77889e-12 0
7.77889e-12 -1.84344e-10 0
0 0 -9.37843e-11

2.42664e-11 -1.24185e-11 0
-1.24185e-11 8.04629e-11 0
0 0 3.14188e-11

-1.25187e-10 1.41024e-11 0
1.41024e-11 -1.7715e-10 0
0 0 -9.0701e-11

-1.358e-11 2.32462e-11 0
2.32462e-11 -7.84523e-12 0
0 0 -6.42756e-12

7.12197e-11 -8.72008e-12 0
-8.72008e-12 6.60087e-11 0
0 0 4.11685e-11

5.614e-11 -2.20994e-11 0
-2.20994e-11 -1.41411e-12 0
0 0 1.64178e-11

6.37738e-11 2.05313e-11 0
2.05313e-11 4.86348e-11 0
0 0 3.37226e-11

5.13714e-11 -6.77466e-12 0
-6.77466e-12 -1.25409e-11 0
0 0 1.16492e-11

4.56256e-11 -3.5371e-12 0
-3.5371e-12 -1.68586e-11 0
0 0 8.63009e-12

1.34008e-11 -7.67714e-12 0
-7.67714e-12 -8.76162e-11 0
0 0 -2.22646e-11

7.08894e-11 -2.83497e-13 0
-2.83497e-13 4.20904e-11 0
0 0 3.38939e-11

5.64896e-12 -3.25445e-12 0
-3.25445e-12 -1.05704e-10 0
0 0 -3.00164e-11

-1.87796e-11 2.46779e-12 0
2.46779e-12 -1.0821e-10 0
0 0 -3.80969e-11

1.15271e-11 1.36044e-11 0
1.36044e-11 3.80822e-11 0
0 0 1.48828e-11

-4.73034e-12 -8.56089e-12 0
-8.56089e-12 -7.54286e-11 0
0 0 -2.40477e-11

3.65392e-11 7.05513e-13 0
7.05513e-13 9.64436e-11 0
0 0 3.98948e-11

-5.46842e-11 -2.6723e-11 0
-2.6723e-11 -8.23008e-11 0
0 0 -4.10955e-11

-1.17166e-11 -4.85838e-12 0
-4.85838e-12 3.34704e-11 0
0 0 6.52613e-12

-9.17772e-11 -3.26101e-11 0
-3.26101e-11 -1.68851e-10 0
0 0 -7.81884e-11

2.55805e-11 -1.57937e-11 0
-1.57937e-11 1.20497e-10 0
0 0 4.38232e-11

2.65011e-11 -1.03289e-12 0
-1.03289e-12 1.05565e-10 0
0 0 3.96198e-11

-9.32114e-12 -1.60795e-11 0
-1.60795e-11 -1.54264e-11 0
0 0 -7.42426e-12

4.89919e-11 -4.09157e-12 0
-4.09157e-12 1.58043e-10 0
0 0 6.21106e-11

3.30488e-11 -8.93149e-12 0
-8.93149e-12 8.34368e-11 0
0 0 3.49457e-11

2.49768e-11 -6.44699e-12 0
-6.44699e-12 -3.63592e-13 0
0 0 7.38395e-12

-2.23373e-12 -2.0376e-11 0
-2.0376e-11 -7.57845e-11 0
0 0 -2.34055e-11

6.27162e-11 -9.96313e-13 0
-9.96313e-13 8.76951e-11 0
0 0 4.51234e-11

5.33553e-12 -8.7145e-12 0
-8.7145e-12 -5.81229e-11 0
0 0 -1.58362e-11

-2.68552e-11 -1.44596e-11 0
-1.44596e-11 -5.90522e-11 0
0 0 -2.57722e-11

1.58634e-11 -1.42875e-11 0
-1.42875e-11 2.16249e-12 0
0 0 5.40776e-12

-2.80634e-11 -3.2538e-11 0
-3.2538e-11 -6.18713e-11 0
0 0 -2.69804e-11

3.34294e-11 -5.56407e-12 0
-5.56407e-12 4.315e-11 0
0 0 2.29738e-11

TENSORS velocity_gradient double
4.56904e-14 9.30676e-14 0
1.24345e-14 -1.29674e-13 0
0 0 0

-5.10702e-15 9.30676e-14 0
3.55271e-14 -4.9738e-14 0
0 0 0

4.56904e-14 4.22702e-14 0
2.13163e-14 -9.23706e-14 0
0 0 0

-5.10702e-15 4.22702e-14 0
2.84217e-14 -1.13687e-13 0
0 0 0

-2.96934e-14 -7.40481e-15 0
0 5.68434e-14 0
0 0 0

-2.35986e-14 -7.40481e-15 0
-2.13163e-14 3.55271e-14 0
0 0 0

-2.96934e-14 -1.30998e-15 0
2.13163e-14 -7.10543e-15 0
0 0 0

-2.35986e-14 -1.30998e-15 0
0 -2.84217e-14 0
0 0 0

-3.56116e-15 -7.70201e-14 0
-4.79616e-14 6.57252e-14 0
0 0 0

3.27968e-14 -7.70201e-14 0
-6.39488e-14 9.23706e-14 0
0 0 0

-3.56116e-15 -4.06622e-14 0
-3.55271e-14 1.06581e-13 0
0 0 0

3.27968e-14 -4.06622e-14 0
-7.10543e-14 1.27898e-13 0
0 0 0

4.03768e-14 6.25694e-14 0
-7.81597e-14 -1.63425e-13 0
0 0 0

1.42707e-14 6.25694e-14 0
-4.9738e-14 -1.06581e-13 0
0 0 0

4.03768e-14 3.64633e-14 0
-8.52651e-14 -1.27898e-13 0
0 0 0

1.42707e-14 3.64633e-14 0
-8.52651e-14 -7.10543e-14 0
0 0 0

1.16878e-14 1.31138e-14 0
-5.15143e-14 -7.99361e-14 0
0 0 0

4.17244e-15 1.31138e-14 0
-2.84217e-14 -7.10543e-14 0
0 0 0

1.16878e-14 5.59848e-15 0
-2.84217e-14 -2.84217e-14 0
0 0 0

4.17244e-15 5.59848e-15 0
-7.10543e-14 -7.10543e-14 0
0 0 0

3.46888e-15 5.37242e-15 0
-8.88178e-15 -3.73035e-14 0
0 0 0

1.07388e-14 5.37242e-15 0
0 0 0
0 0 0

3.46888e-15 1.26424e-14 0
2.13163e-14 -3.55271e-14 0
0 0 0

1.07388e-14 1.26424e-14 0
-1.42109e-14 -1.42109e-14 0
0 0 0

1.99956e-14 -1.6692e-14 0
2.30926e-14 7.99361e-14 0
0 0 0

3.15779e-14 -1.6692e-14 0
0 1.13687e-13 0
0 0 0

1.99956e-14 -5.10968e-15 0
7.10543e-15 9.23706e-14 0
0 0 0

3.15779e-14 -5.10968e-15 0
2.84217e-14 1.42109e-13 0
0 0 0

3.23887e-14 1.75114e-14 0
0 -1.42109e-13 0
0 0 0

2.0591e-14 1.75114e-14 0
-7.10543e-15 -1.20792e-13 0
0 0 0

3.23887e-14 5.71365e-15 0
7.10543e-15 -1.35003e-13 0
0 0 0

2.0591e-14 5.71365e-15 0
2.84217e-14 -1.13687e-13 0
0 0 0

2.39199e-14 -2.74875e-15 0
-7.10543e-15 -3.55271e-14 0
0 0 0

1.47408e-14 -2.74875e-15 0
2.13163e-14 -4.9738e-14 0
0 0 0

2.39199e-14 -1.19279e-14 0
1.42109e-14 -4.26326e-14 0
0 0 0

1.47408e-14 -1.19279e-14 0
-2.84217e-14 -8.52651e-14 0
0 0 0

1.15869e-14 1.82269e-14 0
1.24345e-14 2.66454e-14 0
0 0 0

1.5486e-14 1.82269e-14 0
0 0 0
0 0 0

1.15869e-14 2.2126e-14 0
2.13163e-14 -7.10543e-15 0
0 0 0

1.5486e-14 2.2126e-14 0
0 1.42109e-14 0
0 0 0

2.56921e-14 9.47585e-15 0
1.95399e-14 1.04805e-13 0
0 0 0

4.32808e-14 9.47585e-15 0
2.13163e-14 1.35003e-13 0
0 0 0

2.56921e-14 2.70646e-14 0
2.84217e-14 8.52651e-14 0
0 0 0

4.32808e-14 2.70646e-14 0
1.42109e-14 1.42109e-13 0
0 0 0

4.33561e-14 -1.03977e-14 0
5.32907e-15 -1.79412e-13 0
0 0 0

2.29311e-14 -1.03977e-14 0
3.55271e-14 -1.35003e-13 0
0 0 0

4.33561e-14 -3.08228e-14 0
2.84217e-14 -9.9476e-14 0
0 0 0

2.29311e-14 -3.08228e-14 0
4.26326e-14 -9.9476e-14 0
0 0 0

6.09933e-14 -4.57947e-14 0
3.37508e-14 -3.73035e-14 0
0 0 0

2.43859e-15 -4.57947e-14 0
-7.10543e-15 -6.39488e-14 0
0 0 0

6.09933e-14 -1.04349e-13 0
7.81597e-14 -1.35003e-13 0
0 0 0

2.43859e-15 -1.04349e-13 0
1.42109e-14 -9.9476e-14 0
0 0 0

-2.51472e-14 2.84079e-14 0
-3.01981e-14 -1.77636e-15 0
0 0 0

-1.64824e-14 2.84079e-14 0
2.84217e-14 -1.42109e-14 0
0 0 0

-2.51472e-14 3.70727e-14 0
-6.39488e-14 2.13163e-14 0
0 0 0

-1.64824e-14 3.70727e-14 0
0 1.42109e-14 0
0 0 0

1.99617e-15 5.0842e-14 0
2.30926e-14 1.5099e-13 0
0 0 0

3.19623e-14 5.0842e-14 0
2.13163e-14 1.63425e-13 0
0 0 0

1.99617e-15 8.08081e-14 0
4.26326e-14 9.9476e-14 0
0 0 0

3.19623e-14 8.08081e-14 0
1.42109e-14 1.56319e-13 0
0 0 0

3.32597e-14 -5.71657e-14 0
1.95399e-14 -1.36779e-13 0
0 0 0

9.98871e-16 -5.71657e-14 0
2.13163e-14 -1.77636e-13 0
0 0 0

3.32597e-14 -8.94265e-14 0
2.84217e-14 -1.42109e-13 0
0 0 0

9.98871e-16 -8.94265e-14 0
2.84217e-14 -1.42109e-13 0
0 0 0

SCALARS active double 1
LOOKUP_TABLE default
1
1
1
1
1
1
1
1
1
1
1
1
1
1
1
1
1
1
1
1
1
1
1
1
1
1
1
1
1
1
1
1
1
1
1
1
1
1
1
1
1
1
1
1
1
1
1
1
1
1
1
1
1
1
1
1
1
1
1
1
1
1
1
1
SCALARS extent double 1
LOOKUP_TABLE default
0.0125
0.0125
0.0125
0.0125
0.0125
0.0125
0.0125
0.0125
0.0125
0.0125
0.0125
0.0125
0.0125
0.0125
0.0125
0.0125
0.0125
0.0125
0.0125
0.0125
0.0125
0.0125
0.0125
0.0125
0.0125
0.0125
0.0125
0.0125
0.0125
0.0125
0.0125
0.0125
0.0125
0.0125
0.0125
0.0125
0.0125
0.0125
0.0125
0.0125
0.0125
0.0125
0.0125
0.0125
0.0125
0.0125
0.0125
0.0125
0.0125
0.0125
0.0125
0.0125
0.0125
0.0125
0.0125
0.0125
0.0125
0.0125
0.0125
0.0125
0.0125
0.0125
0.0125
0.0125
SCALARS pressure double 1
LOOKUP_TABLE default
9.06286e-11
-4.34119e-11
6.2333e-11
-1.39424e-11
-1.01164e-10
-4.3567e-11
-5.16223e-11
-1.53558e-11
-4.44034e-11
3.29405e-11
-2.54735e-11
1.00653e-11
5.77895e-11
-1.26371e-11
4.31294e-11
-2.61703e-11
1.36879e-10
-2.67638e-11
6.64043e-11
-3.40149e-11
-1.00022e-10
6.8813e-12
-5.2931e-11
-1.39516e-11
-3.56288e-11
5.13959e-11
-1.36244e-11
3.42267e-11
3.72655e-11
-2.0545e-11
-1.12767e-11
-1.57404e-12
1.35466e-10
-4.53827e-11
1.31013e-10
9.28426e-12
-5.94657e-11
-2.37146e-11
-4.87104e-11
-1.68266e-11
-1.24657e-11
3.216e-11
-4.89579e-11
4.33571e-11
5.50289e-11
-2.14974e-11
3.47355e-11
-5.76259e-11
5.93602e-11
-9.42663e-12
1.12939e-10
-6.33002e-11
-5.72286e-11
1.07239e-11
-8.97153e-11
-5.04771e-11
-1.06657e-11
3.38079e-11
-6.51782e-11
2.28745e-11
3.72266e-11
-7.8112e-12
3.89717e-11
-3.31844e-11
SCALARS density double 1
LOOKUP_TABLE default
1000
1000
1000
1000
1000
1000
1000
1000
1000
1000
1000
1000
1000
1000
1000
1000
1000
1000
1000
1000
1000
1000
1000
1000
1000
1000
1000
1000
1000
1000
1000
1000
1000
1000
1000
1000
1000
1000
1000
1000
1000
1000
1000
1000
1000
1000
1000
1000
1000
1000
1000
1000
1000
1000
1000
1000
1000
1000
1000
1000
1000
1000
1000
1000
