# vtk DataFile Version 3.0
Frame: 28, Time: 0.467
ASCII
DATASET UNSTRUCTURED_GRID
POINTS 64 double
0.869207 0.437549 0 
0.879486 0.414023 0 
0.845132 0.426953 0 
0.85593 0.402131 0 
0.891046 0.391842 0 
0.90433 0.369268 0 
0.867932 0.380049 0 
0.880579 0.357672 0 
0.915972 0.346858 0 
0.928933 0.324522 0 
0.892017 0.335103 0 
0.905371 0.31365 0 
0.941581 0.30195 0 
0.95215 0.278825 0 
0.918673 0.291575 0 
0.928723 0.267128 0 
0.822923 0.414649 0 
0.833344 0.391462 0 
0.800335 0.404401 0 
0.809834 0.38066 0 
0.844298 0.369092 0 
0.856596 0.347406 0 
0.819331 0.357689 0 
0.832861 0.335517 0 
0.868281 0.324717 0 
0.881933 0.303731 0 
0.8453 0.313041 0 
0.858493 0.291569 0 
0.894928 0.281452 0 
0.904505 0.256717 0 
0.871539 0.270212 0 
0.882341 0.245791 0 
0.777261 0.394419 0 
0.784657 0.370263 0 
0.752859 0.38366 0 
0.761708 0.358914 0 
0.796425 0.347286 0 
0.809361 0.323734 0 
0.774239 0.335236 0 
0.785186 0.3133 0 
0.821574 0.301142 0 
0.835063 0.279736 0 
0.798371 0.290831 0 
0.811961 0.269127 0 
0.847705 0.258183 0 
0.859556 0.235081 0 
0.824019 0.246911 0 
0.83615 0.223317 0 
0.729854 0.371368 0 
0.740193 0.347966 0 
0.70591 0.360198 0 
0.716649 0.337198 0 
0.751317 0.324082 0 
0.762937 0.300075 0 
0.728067 0.313457 0 
0.740021 0.288545 0 
0.776238 0.277597 0 
0.789288 0.255939 0 
0.752592 0.266589 0 
0.765424 0.243756 0 
0.80109 0.233809 0 
0.81432 0.211699 0 
0.778749 0.221094 0 
0.793124 0.199096 0 
CELLS 64 128
1 0
1 1
1 2
1 3
1 4
1 5
1 6
1 7
1 8
1 9
1 10
1 11
1 12
1 13
1 14
1 15
1 16
1 17
1 18
1 19
1 20
1 21
1 22
1 23
1 24
1 25
1 26
1 27
1 28
1 29
1 30
1 31
1 32
1 33
1 34
1 35
1 36
1 37
1 38
1 39
1 40
1 41
1 42
1 43
1 44
1 45
1 46
1 47
1 48
1 49
1 50
1 51
1 52
1 53
1 54
1 55
1 56
1 57
1 58
1 59
1 60
1 61
1 62
1 63
CELL_TYPES 64
1
1
1
1
1
1
1
1
1
1
1
1
1
1
1
1
1
1
1
1
1
1
1
1
1
1
1
1
1
1
1
1
1
1
1
1
1
1
1
1
1
1
1
1
1
1
1
1
1
1
1
1
1
1
1
1
1
1
1
1
1
1
1
1
POINT_DATA 64
VECTORS displacement double
0.356707 -0.174951 0 
0.366986 -0.223477 0 
0.307632 -0.185547 0 
0.31843 -0.235369 0 
0.378546 -0.270658 0 
0.39183 -0.318232 0 
0.330432 -0.282451 0 
0.343079 -0.329828 0 
0.403472 -0.365642 0 
0.416433 -0.412978 0 
0.354517 -0.377397 0 
0.367871 -0.42385 0 
0.429081 -0.46055 0 
0.43965 -0.508675 0 
0.381173 -0.470925 0 
0.391223 -0.520372 0 
0.260423 -0.197851 0 
0.270844 -0.246038 0 
0.212835 -0.208099 0 
0.222334 -0.25684 0 
0.281798 -0.293408 0 
0.294096 -0.340094 0 
0.231831 -0.304811 0 
0.245361 -0.351983 0 
0.305781 -0.387783 0 
0.319433 -0.433769 0 
0.2578 -0.399459 0 
0.270993 -0.445931 0 
0.332428 -0.481048 0 
0.342005 -0.530783 0 
0.284039 -0.492288 0 
0.294841 -0.541709 0 
0.164761 -0.218081 0 
0.172157 -0.267237 0 
0.115359 -0.22884 0 
0.124208 -0.278586 0 
0.183925 -0.315214 0 
0.196861 -0.363766 0 
0.136739 -0.327264 0 
0.147686 -0.3742 0 
0.209074 -0.411358 0 
0.222563 -0.457764 0 
0.160871 -0.421669 0 
0.174461 -0.468373 0 
0.235205 -0.504317 0 
0.247056 -0.552419 0 
0.186519 -0.515589 0 
0.19865 -0.564183 0 
0.0673537 -0.241132 0 
0.0776926 -0.289534 0 
0.0184099 -0.252302 0 
0.0291492 -0.300302 0 
0.0888172 -0.338418 0 
0.100437 -0.387425 0 
0.0405671 -0.349043 0 
0.0525213 -0.398955 0 
0.113738 -0.434903 0 
0.126788 -0.481561 0 
0.0650924 -0.445911 0 
0.077924 -0.493744 0 
0.13859 -0.528691 0 
0.15182 -0.575801 0 
0.0912493 -0.541406 0 
0.105624 -0.588404 0 
VECTORS velocity double
3.88817 -0.878976 0 
3.36562 -1.81735 0 
3.80484 0.447873 0 
2.51292 -0.361487 0 
2.99439 -1.56584 0 
2.47415 -1.76483 0 
1.93119 -0.305695 0 
1.4949 -1.11221 0 
2.08526 -1.88567 0 
1.95581 -2.28814 0 
1.38885 -0.896445 0 
1.26337 -1.23519 0 
2.06667 -2.18035 0 
0.916308 -2.96922 0 
1.12176 -1.45438 0 
-0.0147014 -2.05734 0 
3.56015 0.499606 0 
2.42358 -0.6374 0 
3.25416 1.17804 0 
2.25151 0.0647619 0 
2.26433 -0.00608071 0 
2.00974 -0.78337 0 
1.84919 0.367799 0 
1.66314 0.148568 0 
1.72766 -0.594326 0 
1.7741 -0.667078 0 
1.33692 -0.1982 0 
1.38951 -0.376224 0 
1.56109 -0.819293 0 
-0.244877 -1.93056 0 
1.57025 -0.375585 0 
-0.099966 -1.53778 0 
3.3773 1.68443 0 
1.89699 0.997448 0 
3.07032 1.8523 0 
1.37775 1.34039 0 
1.75764 1.16054 0 
1.72154 1.27108 0 
1.50992 1.22043 0 
1.4499 1.06734 0 
1.64788 0.50024 0 
1.10007 0.0342822 0 
1.24723 -0.08222 0 
0.879673 0.288962 0 
0.891448 0.0612137 0 
0.176239 -0.565299 0 
0.332169 0.768661 0 
-0.805016 -0.139734 0 
3.07712 1.83499 0 
1.67661 1.17224 0 
2.33854 2.91099 0 
1.32491 2.44791 0 
2.05403 1.27917 0 
1.86956 1.09769 0 
1.70696 2.57459 0 
1.25791 2.16248 0 
1.39943 0.617763 0 
1.23518 1.00152 0 
0.821922 1.41011 0 
0.544996 1.1472 0 
0.935863 1.18828 0 
-0.501809 -0.458125 0 
-0.324396 1.49336 0 
-0.365925 0.705549 0 
SCALARS mass double 1
LOOKUP_TABLE default
0.625
0.625
0.625
0.625
0.625
0.625
0.625
0.625
0.625
0.625
0.625
0.625
0.625
0.625
0.625
0.625
0.625
0.625
0.625
0.625
0.625
0.625
0.625
0.625
0.625
0.625
0.625
0.625
0.625
0.625
0.625
0.625
0.625
0.625
0.625
0.625
0.625
0.625
0.625
0.625
0.625
0.625
0.625
0.625
0.625
0.625
0.625
0.625
0.625
0.625
0.625
0.625
0.625
0.625
0.625
0.625
0.625
0.625
0.625
0.625
0.625
0.625
0.625
0.625
SCALARS volume double 1
LOOKUP_TABLE default
0.0006311
0.000622817
0.000641642
0.000635807
0.0006263
0.000632642
0.000630155
0.000654238
0.000637244
0.000644413
0.000636526
0.000610635
0.000648497
0.000593815
0.000622648
0.000668625
0.000617396
0.000606415
0.000619974
0.000633933
0.000632657
0.000646024
0.000653548
0.000655118
0.000608127
0.000615248
0.000675333
0.000680803
0.000631486
0.000649219
0.000644199
0.000629974
0.000628107
0.000653299
0.000642389
0.000645368
0.000635036
0.00065548
0.000631656
0.000646149
0.000622709
0.000596468
0.000635458
0.000603396
0.000643725
0.000618089
0.000655161
0.000626625
0.000631585
0.000632455
0.000622797
0.000609307
0.000646555
0.000623694
0.000657273
0.000652656
0.000647335
0.000649063
0.000638157
0.000624913
0.000633447
0.000625576
0.000628333
0.000625188
VECTORS momentum double
2.43011 -0.54936 0 
2.10351 -1.13584 0 
2.37802 0.279921 0 
1.57058 -0.22593 0 
1.87149 -0.978652 0 
1.54634 -1.10302 0 
1.20699 -0.191059 0 
0.934315 -0.69513 0 
1.30328 -1.17854 0 
1.22238 -1.43009 0 
0.868031 -0.560278 0 
0.789605 -0.771997 0 
1.29167 -1.36272 0 
0.572692 -1.85576 0 
0.701097 -0.90899 0 
-0.00918837 -1.28583 0 
2.22509 0.312254 0 
1.51474 -0.398375 0 
2.03385 0.736273 0 
1.4072 0.0404762 0 
1.41521 -0.00380044 0 
1.25609 -0.489606 0 
1.15574 0.229874 0 
1.03947 0.0928551 0 
1.07979 -0.371454 0 
1.10881 -0.416924 0 
0.835574 -0.123875 0 
0.868445 -0.23514 0 
0.975684 -0.512058 0 
-0.153048 -1.2066 0 
0.981408 -0.234741 0 
-0.0624787 -0.961114 0 
2.11081 1.05277 0 
1.18562 0.623405 0 
1.91895 1.15769 0 
0.861092 0.837745 0 
1.09853 0.725337 0 
1.07596 0.794425 0 
0.943699 0.76277 0 
0.906185 0.667088 0 
1.02992 0.31265 0 
0.687545 0.0214264 0 
0.779516 -0.0513875 0 
0.549795 0.180601 0 
0.557155 0.0382585 0 
0.110149 -0.353312 0 
0.207606 0.480413 0 
-0.503135 -0.0873338 0 
1.9232 1.14687 0 
1.04788 0.73265 0 
1.46159 1.81937 0 
0.828067 1.52994 0 
1.28377 0.799479 0 
1.16847 0.686058 0 
1.06685 1.60912 0 
0.786192 1.35155 0 
0.874646 0.386102 0 
0.771988 0.625947 0 
0.513701 0.88132 0 
0.340623 0.717003 0 
0.584914 0.742675 0 
-0.313631 -0.286328 0 
-0.202747 0.933349 0 
-0.228703 0.440968 0 
VECTORS body_force double
0 -9.81 0 
0 -9.81 0 
0 -9.81 0 
0 -9.81 0 
0 -9.81 0 
0 -9.81 0 
0 -9.81 0 
0 -9.81 0 
0 -9.81 0 
0 -9.81 0 
0 -9.81 0 
0 -9.81 0 
0 -9.81 0 
0 -9.81 0 
0 -9.81 0 
0 -9.81 0 
0 -9.81 0 
0 -9.81 0 
0 -9.81 0 
0 -9.81 0 
0 -9.81 0 
0 -9.81 0 
0 -9.81 0 
0 -9.81 0 
0 -9.81 0 
0 -9.81 0 
0 -9.81 0 
0 -9.81 0 
0 -9.81 0 
0 -9.81 0 
0 -9.81 0 
0 -9.81 0 
0 -9.81 0 
0 -9.81 0 
0 -9.81 0 
0 -9.81 0 
0 -9.81 0 
0 -9.81 0 
0 -9.81 0 
0 -9.81 0 
0 -9.81 0 
0 -9.81 0 
0 -9.81 0 
0 -9.81 0 
0 -9.81 0 
0 -9.81 0 
0 -9.81 0 
0 -9.81 0 
0 -9.81 0 
0 -9.81 0 
0 -9.81 0 
0 -9.81 0 
0 -9.81 0 
0 -9.81 0 
0 -9.81 0 
0 -9.81 0 
0 -9.81 0 
0 -9.81 0 
0 -9.81 0 
0 -9.81 0 
0 -9.81 0 
0 -9.81 0 
0 -9.81 0 
0 -9.81 0 
TENSORS cauchy_stress double
1313.18 377.935 0
377.935 554.713 0
0 0 560.368

-1950.32 1392.54 0
1392.54 1277.53 0
0 0 -201.836

3338.52 -2769.77 0
-2769.77 1715.15 0
0 0 1516.1

-3212.67 1250.31 0
1250.31 6509.46 0
0 0 989.038

-380.063 -546.899 0
-546.899 779.681 0
0 0 119.885

2892.52 -97.232 0
-97.232 -555.31 0
0 0 701.163

5694.43 -1964.66 0
-1964.66 -4114.65 0
0 0 473.934

5452.39 655.161 0
655.161 3339.88 0
0 0 2637.68

2812.12 -1031.65 0
-1031.65 918.861 0
0 0 1119.29

6306.64 -1420.09 0
-1420.09 -424.201 0
0 0 1764.73

4650.16 1278.95 0
1278.95 -1136 0
0 0 1054.25

-93.6336 -2371.04 0
-2371.04 -4378.02 0
0 0 -1341.5

1806.53 288.135 0
288.135 5290.62 0
0 0 2129.14

-8883.75 4790.6 0
4790.6 -959.226 0
0 0 -2952.89

-826.619 -1049.44 0
-1049.44 101.457 0
0 0 -217.549

9497.72 -503.925 0
-503.925 3477.71 0
0 0 3892.63

-345.771 -839.439 0
-839.439 -2008.13 0
0 0 -706.171

-3733.54 826.199 0
826.199 -2071.59 0
0 0 -1741.54

-537.706 -1694.74 0
-1694.74 -1014.86 0
0 0 -465.769

3559.14 3573.84 0
3573.84 -829.859 0
0 0 818.784

5913.13 2218.94 0
2218.94 -3571.3 0
0 0 702.548

3052.4 1628.45 0
1628.45 3310.14 0
0 0 1908.76

5203.27 365.073 0
365.073 3386.15 0
0 0 2576.83

9259.11 -701.15 0
-701.15 -208.349 0
0 0 2715.23

-2040.97 -529.506 0
-529.506 -3222.07 0
0 0 -1578.91

6009.41 -4757.83 0
-4757.83 -9033.72 0
0 0 -907.293

10698.6 -503.906 0
-503.906 4196.5 0
0 0 4468.54

14280.3 1057.58 0
1057.58 2166.11 0
0 0 4933.92

1366.58 -1021.93 0
-1021.93 618.852 0
0 0 595.63

1964.9 -2450.69 0
-2450.69 5346.33 0
0 0 2193.37

3717.7 1516.54 0
1516.54 2100.87 0
0 0 1745.57

-2240.41 -2748.12 0
-2748.12 3764.93 0
0 0 457.355

1523.83 840.12 0
840.12 -570.254 0
0 0 286.071

3874.33 2747.8 0
2747.8 4641.8 0
0 0 2554.84

2105.49 1474.45 0
1474.45 3172.02 0
0 0 1583.25

-807.737 -3346.57 0
-3346.57 6974.74 0
0 0 1850.1

2889.18 -5673.57 0
-5673.57 174.276 0
0 0 919.037

6244.93 -1528.51 0
-1528.51 2912.04 0
0 0 2747.09

1414.6 2032.02 0
2032.02 622.528 0
0 0 611.138

6495.04 4186.44 0
4186.44 -95.3543 0
0 0 1919.91

3873.42 -3056.29 0
-3056.29 -4579.62 0
0 0 -211.862

-2216.54 -1500.27 0
-1500.27 -6769.1 0
0 0 -2695.69

-1254.1 -2885.7 0
-2885.7 4445.31 0
0 0 957.363

-459.006 820.079 0
820.079 -6305.84 0
0 0 -2029.45

5366.88 697.595 0
697.595 309.953 0
0 0 1703.05

1410.03 -544.416 0
-544.416 -3548.44 0
0 0 -641.522

6570.57 -1472.36 0
-1472.36 2492.73 0
0 0 2718.99

-120.825 -3133.95 0
-3133.95 620.09 0
0 0 149.779

3932.29 1069.86 0
1069.86 -1916.77 0
0 0 604.656

2408.21 -1512.19 0
-1512.19 -127.994 0
0 0 684.066

-1548.76 -465.152 0
-465.152 869.677 0
0 0 -203.726

-6000.68 2530.17 0
2530.17 1110.34 0
0 0 -1467.1

2635.5 -1906.45 0
-1906.45 3885.12 0
0 0 1956.18

135.555 -4190.23 0
-4190.23 -537.895 0
0 0 -120.702

3620.74 -1278.73 0
-1278.73 6061.47 0
0 0 2904.66

2771.73 -804.108 0
-804.108 5554.85 0
0 0 2497.98

7477.54 -2174.13 0
-2174.13 -725.314 0
0 0 2025.67

5324.96 1778.05 0
1778.05 1940.18 0
0 0 2179.54

133.8 -449.554 0
-449.554 3872.56 0
0 0 1201.91

835.388 -46.7452 0
-46.7452 -862.207 0
0 0 -8.04565

2423.5 2725.27 0
2725.27 158.11 0
0 0 774.484

-1518.85 932.212 0
932.212 1696.09 0
0 0 53.171

-3054.62 387.99 0
387.99 4077.4 0
0 0 306.836

-175.125 -361.271 0
-361.271 233.042 0
0 0 17.3751

TENSORS velocity_gradient double
-0.713804 18.2655 0
-18.862 1.0569 0
0 0 0

0.624328 17.6508 0
-20.1063 1.62853 0
0 0 0

-1.43523 19.1473 0
-21.0186 0.0930529 0
0 0 0

0.534758 18.6103 0
-20.8139 0.171956 0
0 0 0

1.39804 18.3224 0
-20.6192 -1.76307 0
0 0 0

-4.00594 17.0167 0
-14.4751 -1.53246 0
0 0 0

1.2481 18.0431 0
-20.1161 -0.826127 0
0 0 0

0.97763 18.2023 0
-19.2085 -1.36033 0
0 0 0

-0.318436 11.8432 0
-14.9318 -0.0557473 0
0 0 0

0.452705 10.7818 0
-16.9439 1.10498 0
0 0 0

0.0239458 10.1539 0
-19.6862 -1.77822 0
0 0 0

0.110666 10.6843 0
-18.4816 -0.83894 0
0 0 0

0.433716 12.3699 0
-18.6978 2.10418 0
0 0 0

-11.7418 17.9844 0
19.4758 1.42532 0
0 0 0

0.446514 19.5341 0
-18.9877 2.28017 0
0 0 0

0.52448 19.5002 0
-18.3878 2.01942 0
0 0 0

-1.47172 19.0845 0
-21.2105 -0.237471 0
0 0 0

-1.46492 17.9614 0
-21.9715 -1.41471 0
0 0 0

-1.26882 18.3716 0
-18.4505 -1.66507 0
0 0 0

-1.40141 18.092 0
-22.6929 -2.8983 0
0 0 0

-1.34103 17.8978 0
-23.3786 -0.692134 0
0 0 0

0.429501 11.2896 0
-19.7372 -2.66117 0
0 0 0

-1.27381 18.0365 0
-24.142 -2.26755 0
0 0 0

-0.74116 8.3101 0
-21.9621 -0.781718 0
0 0 0

-0.646615 8.69768 0
-20.3426 -3.20348 0
0 0 0

-1.89995 10.8041 0
-21.5762 -1.79415 0
0 0 0

0.0103645 7.88402 0
-17.9236 -3.0714 0
0 0 0

-2.4644 18.2303 0
-22.1888 1.02679 0
0 0 0

-2.71953 19.3939 0
-22.5074 2.46769 0
0 0 0

-0.188049 19.5377 0
-19.1045 2.54117 0
0 0 0

-3.13248 18.6584 0
-23.017 1.55745 0
0 0 0

-3.03177 15.8225 0
-22.4127 -5.36584 0
0 0 0

-1.71748 18.9423 0
-17.5962 -0.650905 0
0 0 0

-0.953532 18.6928 0
-15.0299 -1.48932 0
0 0 0

-0.80953 19.4025 0
-15.941 1.42118 0
0 0 0

-0.582564 19.4151 0
-13.7837 0.937237 0
0 0 0

-0.633495 11.0439 0
-14.1769 2.80647 0
0 0 0

-0.327545 9.10006 0
-19.7394 3.4633 0
0 0 0

-1.0498 8.13818 0
-14.3324 2.52205 0
0 0 0

-2.01264 8.63272 0
-16.1757 3.46885 0
0 0 0

0.161958 11.8836 0
-16.3029 0.422366 0
0 0 0

-0.846451 16.9754 0
-16.4591 0.0157528 0
0 0 0

-1.97203 14.8812 0
-16.2149 -1.01576 0
0 0 0

-1.54995 15.5072 0
-16.9578 -1.0251 0
0 0 0

-2.55258 17.757 0
-19.0039 0.597198 0
0 0 0

-1.61255 18.2347 0
-19.6728 -1.16025 0
0 0 0

-2.85671 17.9845 0
-17.6789 1.30411 0
0 0 0

-3.88926 19.0361 0
-17.4742 1.68375 0
0 0 0

-1.11213 18.097 0
-16.2584 0.490274 0
0 0 0

-2.23682 9.86384 0
-17.5238 0.600715 0
0 0 0

-1.28833 16.1052 0
-15.58 -1.0359 0
0 0 0

-1.94712 8.4938 0
-17.7446 0.123641 0
0 0 0

-1.51043 7.39916 0
-16.6986 0.816225 0
0 0 0

-2.47209 11.7651 0
-16.6609 1.90059 0
0 0 0

-1.0443 8.04754 0
-18.0724 0.285658 0
0 0 0

-2.30418 13.0147 0
-17.6397 3.71068 0
0 0 0

-2.705 14.6506 0
-15.0173 0.827226 0
0 0 0

-2.80621 15.0309 0
-13.0561 -0.225848 0
0 0 0

-3.66269 14.2135 0
-14.9701 2.93401 0
0 0 0

-2.51966 19.1559 0
-12.6513 1.4463 0
0 0 0

-2.84616 17.7683 0
-15.4799 2.03303 0
0 0 0

-4.40341 18.1045 0
-17.3261 1.95218 0
0 0 0

-1.4567 18.5037 0
-13.0869 1.71357 0
0 0 0

-0.543833 9.75987 0
-12.3069 0.138741 0
0 0 0

SCALARS active double 1
LOOKUP_TABLE default
1
1
1
1
1
1
1
1
1
1
1
1
1
1
1
1
1
1
1
1
1
1
1
1
1
1
1
1
1
1
1
1
1
1
1
1
1
1
1
1
1
1
1
1
1
1
1
1
1
1
1
1
1
1
1
1
1
1
1
1
1
1
1
1
SCALARS extent double 1
LOOKUP_TABLE default
0.0125
0.0125
0.0125
0.0125
0.0125
0.0125
0.0125
0.0125
0.0125
0.0125
0.0125
0.0125
0.0125
0.0125
0.0125
0.0125
0.0125
0.0125
0.0125
0.0125
0.0125
0.0125
0.0125
0.0125
0.0125
0.0125
0.0125
0.0125
0.0125
0.0125
0.0125
0.0125
0.0125
0.0125
0.0125
0.0125
0.0125
0.0125
0.0125
0.0125
0.0125
0.0125
0.0125
0.0125
0.0125
0.0125
0.0125
0.0125
0.0125
0.0125
0.0125
0.0125
0.0125
0.0125
0.0125
0.0125
0.0125
0.0125
0.0125
0.0125
0.0125
0.0125
0.0125
0.0125
SCALARS pressure double 1
LOOKUP_TABLE default
-809.42
291.541
-2189.92
-1428.61
-173.168
-1012.79
-684.571
-3809.99
-1616.76
-2549.06
-1522.8
1937.72
-3075.43
4265.29
314.237
-5622.69
1020.03
2515.56
672.777
-1182.69
-1014.79
-2757.1
-3722.08
-3922
2280.65
1310.53
-6454.56
-7126.78
-860.354
-3168.2
-2521.38
-660.624
-413.214
-3690.32
-2286.92
-2672.37
-1327.5
-3968.02
-882.755
-2773.2
306.023
3893.78
-1382.86
2931.43
-2459.96
926.643
-3927.43
-216.348
-873.392
-988.096
294.271
2119.15
-2825.6
174.348
-4195.62
-3608.19
-2925.96
-3148.23
-1736.09
11.6215
-1118.7
-76.8025
-443.208
-25.0974
SCALARS density double 1
LOOKUP_TABLE default
990.334
1003.5
974.063
983.003
997.924
987.92
991.819
955.31
980.786
969.874
981.892
1023.53
963.768
1052.52
1003.78
934.754
1012.32
1030.65
1008.11
985.908
987.896
967.456
956.318
954.026
1027.75
1015.85
925.469
918.034
989.729
962.695
970.197
992.104
995.054
956.682
972.93
968.44
984.196
953.5
989.463
967.269
1003.68
1047.83
983.543
1035.8
970.912
1011.18
953.964
997.407
989.574
988.213
1003.54
1025.76
966.661
1002.09
950.899
957.626
965.498
962.926
979.382
1000.14
986.665
999.079
994.696
999.699
