# vtk DataFile Version 3.0
Frame: 38, Time: 0.634
ASCII
DATASET UNSTRUCTURED_GRID
POINTS 64 double
0.806902 0.504028 0 
0.81187 0.47877 0 
0.780489 0.49905 0 
0.784709 0.473316 0 
0.815488 0.453913 0 
0.822084 0.428179 0 
0.789888 0.448554 0 
0.796747 0.422738 0 
0.829759 0.403708 0 
0.834616 0.379054 0 
0.803407 0.398584 0 
0.809259 0.374726 0 
0.842902 0.354475 0 
0.852489 0.332021 0 
0.818192 0.350304 0 
0.825448 0.325929 0 
0.754843 0.493184 0 
0.75901 0.46848 0 
0.729865 0.48713 0 
0.734959 0.460512 0 
0.765915 0.443685 0 
0.773202 0.41883 0 
0.742301 0.43586 0 
0.749801 0.411818 0 
0.77867 0.392989 0 
0.785065 0.368078 0 
0.755546 0.385662 0 
0.761668 0.360111 0 
0.793866 0.34345 0 
0.801912 0.318014 0 
0.769649 0.336391 0 
0.777818 0.310662 0 
0.70444 0.479948 0 
0.708867 0.453867 0 
0.680189 0.470536 0 
0.685394 0.444584 0 
0.719063 0.429968 0 
0.724833 0.404273 0 
0.696225 0.420745 0 
0.700032 0.396535 0 
0.730949 0.378394 0 
0.738463 0.353804 0 
0.705996 0.371528 0 
0.714415 0.348082 0 
0.745448 0.329059 0 
0.753973 0.303179 0 
0.720552 0.322447 0 
0.730862 0.296825 0 
0.657489 0.460768 0 
0.663104 0.435855 0 
0.63113 0.454502 0 
0.636612 0.429982 0 
0.671989 0.412085 0 
0.67573 0.385448 0 
0.645189 0.405487 0 
0.650141 0.378575 0 
0.681498 0.360708 0 
0.690288 0.336299 0 
0.65688 0.35417 0 
0.666197 0.328068 0 
0.697675 0.310662 0 
0.708112 0.287059 0 
0.674649 0.302412 0 
0.685702 0.278877 0 
CELLS 64 128
1 0
1 1
1 2
1 3
1 4
1 5
1 6
1 7
1 8
1 9
1 10
1 11
1 12
1 13
1 14
1 15
1 16
1 17
1 18
1 19
1 20
1 21
1 22
1 23
1 24
1 25
1 26
1 27
1 28
1 29
1 30
1 31
1 32
1 33
1 34
1 35
1 36
1 37
1 38
1 39
1 40
1 41
1 42
1 43
1 44
1 45
1 46
1 47
1 48
1 49
1 50
1 51
1 52
1 53
1 54
1 55
1 56
1 57
1 58
1 59
1 60
1 61
1 62
1 63
CELL_TYPES 64
1
1
1
1
1
1
1
1
1
1
1
1
1
1
1
1
1
1
1
1
1
1
1
1
1
1
1
1
1
1
1
1
1
1
1
1
1
1
1
1
1
1
1
1
1
1
1
1
1
1
1
1
1
1
1
1
1
1
1
1
1
1
1
1
POINT_DATA 64
VECTORS displacement double
0.294402 -0.108472 0 
0.29937 -0.15873 0 
0.242989 -0.11345 0 
0.247209 -0.164184 0 
0.302988 -0.208587 0 
0.309584 -0.259321 0 
0.252388 -0.213946 0 
0.259247 -0.264762 0 
0.317259 -0.308792 0 
0.322116 -0.358446 0 
0.265907 -0.313916 0 
0.271759 -0.362774 0 
0.330402 -0.408025 0 
0.339989 -0.455479 0 
0.280692 -0.412196 0 
0.287948 -0.461571 0 
0.192343 -0.119316 0 
0.19651 -0.16902 0 
0.142365 -0.12537 0 
0.147459 -0.176988 0 
0.203415 -0.218815 0 
0.210702 -0.26867 0 
0.154801 -0.22664 0 
0.162301 -0.275682 0 
0.21617 -0.319511 0 
0.222565 -0.369422 0 
0.168046 -0.326838 0 
0.174168 -0.377389 0 
0.231366 -0.41905 0 
0.239412 -0.469486 0 
0.182149 -0.426109 0 
0.190318 -0.476838 0 
0.0919403 -0.132552 0 
0.0963668 -0.183633 0 
0.0426891 -0.141964 0 
0.0478944 -0.192916 0 
0.106563 -0.232532 0 
0.112333 -0.283227 0 
0.058725 -0.241755 0 
0.0625321 -0.290965 0 
0.118449 -0.334106 0 
0.125963 -0.383696 0 
0.0684964 -0.340972 0 
0.0769146 -0.389418 0 
0.132948 -0.433441 0 
0.141473 -0.484321 0 
0.083052 -0.440053 0 
0.0933619 -0.490675 0 
-0.00501125 -0.151732 0 
0.000603785 -0.201645 0 
-0.0563697 -0.157998 0 
-0.0508877 -0.207518 0 
0.00948884 -0.250415 0 
0.0132302 -0.302052 0 
-0.0423112 -0.257013 0 
-0.0373587 -0.308925 0 
0.0189983 -0.351792 0 
0.0277884 -0.401201 0 
-0.0306203 -0.35833 0 
-0.0213028 -0.409432 0 
0.0351745 -0.451838 0 
0.0456115 -0.500441 0 
-0.0128513 -0.460088 0 
-0.00179755 -0.508623 0 
VECTORS velocity double
-1.34627 -0.0466537 0 
-0.869049 0.401826 0 
-1.50303 -0.162552 0 
-1.02519 0.339744 0 
-1.44313 0.489407 0 
-0.947056 0.0293265 0 
-1.70493 0.565409 0 
-1.33824 0.246095 0 
-0.489011 0.6613 0 
-1.34305 0.592111 0 
-1.12975 0.685475 0 
-1.31924 0.512075 0 
-0.9468 0.624708 0 
-0.645978 0.574409 0 
-0.145861 0.582367 0 
-1.24158 1.07982 0 
-1.38633 -0.565017 0 
-1.16993 -1.02267 0 
-1.88761 0.100906 0 
-1.59325 -0.134449 0 
-1.21775 -0.322326 0 
-1.07701 -0.504808 0 
-2.03036 0.370682 0 
-1.96568 0.355967 0 
-1.15706 -0.0882268 0 
-1.18 0.260887 0 
-1.31368 0.209373 0 
-1.3211 0.736436 0 
-0.665929 0.216 0 
-0.501933 -0.148018 0 
-1.17583 0.979353 0 
-1.378 1.11155 0 
-1.71434 -0.575345 0 
-1.14212 -0.386646 0 
-2.09855 -0.892934 0 
-1.36851 -0.304907 0 
-1.56326 -0.221296 0 
-1.57139 -0.0210545 0 
-1.80156 -0.785645 0 
-1.6868 -0.491247 0 
-0.29987 0.137529 0 
-1.0808 0.394742 0 
-0.966783 -0.777147 0 
-1.59874 -0.269644 0 
-1.04719 0.407227 0 
-1.0358 0.886913 0 
-0.903412 -0.163794 0 
-0.672171 0.281231 0 
-1.80146 -0.180963 0 
-1.35801 0.00901366 0 
-1.99039 -1.09975 0 
-1.36469 -1.02915 0 
-1.46912 0.165512 0 
-1.47689 0.351142 0 
-1.58038 -0.575032 0 
-1.5621 -0.422698 0 
-1.65911 -0.0192763 0 
-2.13277 -0.108772 0 
-1.20838 -0.257674 0 
-1.11956 -0.533493 0 
-0.978929 0.0344542 0 
-0.571724 0.160833 0 
-1.3147 -0.174435 0 
-0.790324 0.246367 0 
SCALARS mass double 1
LOOKUP_TABLE default
0.625
0.625
0.625
0.625
0.625
0.625
0.625
0.625
0.625
0.625
0.625
0.625
0.625
0.625
0.625
0.625
0.625
0.625
0.625
0.625
0.625
0.625
0.625
0.625
0.625
0.625
0.625
0.625
0.625
0.625
0.625
0.625
0.625
0.625
0.625
0.625
0.625
0.625
0.625
0.625
0.625
0.625
0.625
0.625
0.625
0.625
0.625
0.625
0.625
0.625
0.625
0.625
0.625
0.625
0.625
0.625
0.625
0.625
0.625
0.625
0.625
0.625
0.625
0.625
SCALARS volume double 1
LOOKUP_TABLE default
0.000625656
0.000616325
0.000642781
0.000622949
0.000639476
0.000629773
0.000639778
0.000611565
0.000609454
0.000625083
0.000620307
0.000607208
0.0006394
0.000631006
0.000596388
0.000604361
0.000614909
0.000621899
0.000678525
0.000640793
0.000637097
0.000603148
0.000601253
0.000618233
0.000631174
0.000636129
0.000634139
0.000598642
0.000613715
0.000618372
0.000621826
0.000609066
0.000620071
0.000623314
0.000639106
0.000625195
0.000605651
0.00065794
0.000621398
0.000620093
0.000642462
0.000559138
0.000645955
0.000616846
0.000620537
0.000578527
0.000676536
0.000629911
0.000627973
0.000609431
0.000630637
0.000608658
0.000654972
0.000617515
0.000632981
0.000627891
0.000651037
0.000650484
0.000614584
0.000621022
0.000583563
0.000602394
0.000643653
0.000615749
VECTORS momentum double
-0.841421 -0.0291586 0 
-0.543156 0.251141 0 
-0.939395 -0.101595 0 
-0.640746 0.21234 0 
-0.901953 0.305879 0 
-0.59191 0.018329 0 
-1.06558 0.35338 0 
-0.836401 0.153809 0 
-0.305632 0.413312 0 
-0.839404 0.370069 0 
-0.706092 0.428422 0 
-0.824523 0.320047 0 
-0.59175 0.390443 0 
-0.403736 0.359005 0 
-0.0911632 0.363979 0 
-0.77599 0.674887 0 
-0.866456 -0.353135 0 
-0.731207 -0.639167 0 
-1.17975 0.0630664 0 
-0.995781 -0.0840309 0 
-0.761094 -0.201454 0 
-0.673132 -0.315505 0 
-1.26897 0.231676 0 
-1.22855 0.222479 0 
-0.72316 -0.0551417 0 
-0.737503 0.163054 0 
-0.821049 0.130858 0 
-0.825685 0.460272 0 
-0.416206 0.135 0 
-0.313708 -0.0925113 0 
-0.734895 0.612096 0 
-0.861253 0.694717 0 
-1.07147 -0.359591 0 
-0.713828 -0.241654 0 
-1.31159 -0.558084 0 
-0.85532 -0.190567 0 
-0.977036 -0.13831 0 
-0.98212 -0.0131591 0 
-1.12598 -0.491028 0 
-1.05425 -0.307029 0 
-0.187419 0.0859557 0 
-0.675501 0.246714 0 
-0.60424 -0.485717 0 
-0.999211 -0.168528 0 
-0.654495 0.254517 0 
-0.647372 0.554321 0 
-0.564632 -0.102371 0 
-0.420107 0.175769 0 
-1.12591 -0.113102 0 
-0.848756 0.00563353 0 
-1.244 -0.687345 0 
-0.852934 -0.643216 0 
-0.918197 0.103445 0 
-0.923058 0.219464 0 
-0.987737 -0.359395 0 
-0.976314 -0.264186 0 
-1.03695 -0.0120477 0 
-1.33298 -0.0679823 0 
-0.75524 -0.161046 0 
-0.699727 -0.333433 0 
-0.611831 0.0215339 0 
-0.357327 0.100521 0 
-0.821687 -0.109022 0 
-0.493952 0.153979 0 
VECTORS body_force double
0 -9.81 0 
0 -9.81 0 
0 -9.81 0 
0 -9.81 0 
0 -9.81 0 
0 -9.81 0 
0 -9.81 0 
0 -9.81 0 
0 -9.81 0 
0 -9.81 0 
0 -9.81 0 
0 -9.81 0 
0 -9.81 0 
0 -9.81 0 
0 -9.81 0 
0 -9.81 0 
0 -9.81 0 
0 -9.81 0 
0 -9.81 0 
0 -9.81 0 
0 -9.81 0 
0 -9.81 0 
0 -9.81 0 
0 -9.81 0 
0 -9.81 0 
0 -9.81 0 
0 -9.81 0 
0 -9.81 0 
0 -9.81 0 
0 -9.81 0 
0 -9.81 0 
0 -9.81 0 
0 -9.81 0 
0 -9.81 0 
0 -9.81 0 
0 -9.81 0 
0 -9.81 0 
0 -9.81 0 
0 -9.81 0 
0 -9.81 0 
0 -9.81 0 
0 -9.81 0 
0 -9.81 0 
0 -9.81 0 
0 -9.81 0 
0 -9.81 0 
0 -9.81 0 
0 -9.81 0 
0 -9.81 0 
0 -9.81 0 
0 -9.81 0 
0 -9.81 0 
0 -9.81 0 
0 -9.81 0 
0 -9.81 0 
0 -9.81 0 
0 -9.81 0 
0 -9.81 0 
0 -9.81 0 
0 -9.81 0 
0 -9.81 0 
0 -9.81 0 
0 -9.81 0 
0 -9.81 0 
TENSORS cauchy_stress double
1579.96 292.914 0
292.914 -1378.19 0
0 0 60.5313

256.647 -2113.86 0
-2113.86 -2944.53 0
0 0 -806.365

3245.81 2279.89 0
2279.89 2149.01 0
0 0 1618.45

43.6363 2238.48 0
2238.48 -675.668 0
0 0 -189.61

348.727 988.789 0
988.789 4054.69 0
0 0 1321.03

495.874 258.267 0
258.267 967.153 0
0 0 438.908

36.105 -4273.07 0
-4273.07 4458.13 0
0 0 1348.27

-3321.14 -145.945 0
-145.945 -857.672 0
0 0 -1253.64

-1112.75 -4342.8 0
-4342.8 -3731.09 0
0 0 -1453.15

-77.5912 -910.995 0
-910.995 103.092 0
0 0 7.6503

3208.77 -235.605 0
-235.605 -4658.15 0
0 0 -434.814

-2927.08 -729.047 0
-729.047 -2626.85 0
0 0 -1666.18

2024.01 -983.789 0
-983.789 2356.42 0
0 0 1314.13

454.05 -1672.15 0
-1672.15 1384.98 0
0 0 551.711

-5042.3 -1230.5 0
-1230.5 -3969.2 0
0 0 -2703.45

-825.348 -2457.99 0
-2457.99 -5632.21 0
0 0 -1937.27

1548 2527.44 0
2527.44 -4678.16 0
0 0 -939.046

1795.19 -571.157 0
-571.157 -2751.66 0
0 0 -286.94

7160.28 3220.91 0
3220.91 8641.71 0
0 0 4740.6

5035.24 460.27 0
460.27 -236.376 0
0 0 1439.66

831.595 -1054.43 0
-1054.43 2854.96 0
0 0 1105.97

-6036.85 -285.32 0
-285.32 -807.038 0
0 0 -2053.17

-6635.85 -1006.63 0
-1006.63 -813.307 0
0 0 -2234.75

-1229.68 -2515.06 0
-2515.06 -863.976 0
0 0 -628.096

-2680.43 1892.78 0
1892.78 4570.85 0
0 0 567.129

1877.28 -2437.57 0
-2437.57 1516.86 0
0 0 1018.24

-2821.68 -1900.44 0
-1900.44 5613.32 0
0 0 837.493

-4536.37 -1193.79 0
-1193.79 -3749.71 0
0 0 -2485.82

-4470.29 357.442 0
357.442 966.154 0
0 0 -1051.24

-7649.41 2734.01 0
2734.01 5599.16 0
0 0 -615.075

896.739 -2375.11 0
-2375.11 -1875.97 0
0 0 -293.769

-2942.68 -1873.95 0
-1873.95 -2023.79 0
0 0 -1489.94

-2171.61 1777.51 0
1777.51 648.99 0
0 0 -456.787

-319.607 406.594 0
406.594 -199.752 0
0 0 -155.808

121.407 2150.2 0
2150.2 4170.75 0
0 0 1287.65

-1910.96 -2375.19 0
-2375.19 1970.86 0
0 0 17.9708

-6463.67 -4713.37 0
-4713.37 416.122 0
0 0 -1814.26

1427.28 3563.95 0
3563.95 8450.17 0
0 0 2963.23

-1658.74 4610.71 0
4610.71 547.127 0
0 0 -333.485

1604.94 10377.3 0
10377.3 -3120.76 0
0 0 -454.747

3145.14 -3534.67 0
-3534.67 2154.21 0
0 0 1589.8

-14031.9 1811.93 0
1811.93 -7382.52 0
0 0 -6424.34

814.262 1787.31 0
1787.31 5527.72 0
0 0 1902.59

-2149.97 4145.03 0
4145.03 -375.472 0
0 0 -757.632

-3687.69 -1834.55 0
-1834.55 2309.42 0
0 0 -413.482

-11059.7 823.237 0
823.237 -3799.09 0
0 0 -4457.64

8773.59 -2489.28 0
-2489.28 6463.84 0
0 0 4571.23

-2462.27 -3111.66 0
-3111.66 3967.49 0
0 0 451.566

714.481 431.882 0
431.882 198.003 0
0 0 273.745

-153.397 -584.976 0
-584.976 -4697.89 0
0 0 -1455.39

884.987 827.063 0
827.063 841.554 0
0 0 517.962

-1530.22 -377.438 0
-377.438 -3565.04 0
0 0 -1528.58

2578.29 2928.4 0
2928.4 6429.44 0
0 0 2702.32

-4024.71 3351.38 0
3351.38 1707.72 0
0 0 -695.096

3787.41 -1136.24 0
-1136.24 -1347.19 0
0 0 732.066

-2785.37 236.665 0
236.665 3673 0
0 0 266.291

4661.4 -576.777 0
-576.777 3187.47 0
0 0 2354.66

-1502.92 4460.44 0
4460.44 9188.61 0
0 0 2305.71

-6220.21 -2494.65 0
-2494.65 2988.19 0
0 0 -969.606

-855.861 -1363.26 0
-1363.26 -371.959 0
0 0 -368.346

-8023.2 -551.165 0
-551.165 -5168.87 0
0 0 -3957.62

-9473.37 5121.5 0
5121.5 2388.84 0
0 0 -2125.36

4867.52 -2827.88 0
-2827.88 787.827 0
0 0 1696.6

1035.86 -503.908 0
-503.908 -3903.74 0
0 0 -860.363

TENSORS velocity_gradient double
1.00422 -4.15058 0
4.8004 -1.26103 0
0 0 0

2.27052 -0.244256 0
3.79598 -4.18575 0
0 0 0

5.15159 -1.81565 0
6.44103 -2.5598 0
0 0 0

4.56305 0.0128349 0
7.49891 -4.27221 0
0 0 0

3.48447 -0.976042 0
2.52379 -3.60716 0
0 0 0

3.79938 -3.08251 0
3.49593 -2.57568 0
0 0 0

4.11362 -1.59335 0
8.17351 -2.86764 0
0 0 0

4.64761 -2.8399 0
5.51388 -1.64325 0
0 0 0

3.80157 -3.00705 0
4.83687 -2.87861 0
0 0 0

2.93233 -2.48509 0
4.50757 -2.24846 0
0 0 0

3.98287 -3.55019 0
4.85536 -2.63084 0
0 0 0

2.7455 -3.60325 0
4.37748 -3.02702 0
0 0 0

1.86591 -1.66743 0
3.72394 -1.61363 0
0 0 0

2.26868 0.638108 0
3.58884 0.00693205 0
0 0 0

1.72353 -1.73442 0
3.55937 -1.96816 0
0 0 0

1.0533 -0.180052 0
2.38856 -0.873278 0
0 0 0

5.15875 -0.865624 0
6.54498 -2.86547 0
0 0 0

4.42534 -0.743597 0
7.71943 -3.06088 0
0 0 0

4.34887 -2.23835 0
3.40156 -2.54623 0
0 0 0

2.64164 -1.91735 0
3.43008 -2.55159 0
0 0 0

4.14796 -1.59456 0
8.09131 -3.82887 0
0 0 0

5.23298 -1.90753 0
6.06693 -3.24494 0
0 0 0

1.75591 -0.933327 0
4.33732 -4.83258 0
0 0 0

3.87136 -1.04155 0
5.65473 -4.76797 0
0 0 0

5.66691 -5.10491 0
4.15669 -4.43911 0
0 0 0

4.36208 -4.77974 0
2.79208 -4.09904 0
0 0 0

5.2879 -6.30549 0
3.76032 -5.69471 0
0 0 0

3.94807 -5.99612 0
2.35909 -5.37116 0
0 0 0

3.19128 -0.902595 0
1.7932 -2.31023 0
0 0 0

1.44916 -0.749354 0
1.73005 -2.01192 0
0 0 0

3.25383 -1.22736 0
1.48719 -2.90747 0
0 0 0

2.91334 -1.12033 0
0.863427 -2.7114 0
0 0 0

3.88907 -3.85835 0
3.4125 -2.52121 0
0 0 0

2.27228 -3.22649 0
3.50123 -2.55462 0
0 0 0

2.86483 -5.36769 0
3.44438 -3.02827 0
0 0 0

1.48657 -2.14732 0
2.67822 -2.51523 0
0 0 0

1.66841 -1.26605 0
4.70255 -3.35693 0
0 0 0

1.39093 -1.70421 0
6.3776 -3.72674 0
0 0 0

1.14572 -1.62152 0
2.9794 -2.31473 0
0 0 0

1.24587 -2.44997 0
4.78666 -1.79238 0
0 0 0

3.07537 -5.15641 0
8.73483 -4.34097 0
0 0 0

4.91738 -5.10951 0
10.9757 -4.77425 0
0 0 0

3.64144 -3.0407 0
9.38399 -1.91467 0
0 0 0

4.84505 -4.77535 0
11.1549 -3.88791 0
0 0 0

3.11817 -2.02342 0
8.70724 -3.52906 0
0 0 0

3.31438 -5.21345 0
1.48254 -1.54431 0
0 0 0

2.39577 -4.65519 0
10.6083 -4.31464 0
0 0 0

0.653835 -8.48113 0
9.36269 -0.804331 0
0 0 0

2.26395 -6.7702 0
3.16737 -3.67485 0
0 0 0

1.27995 -2.29905 0
2.39545 -3.20654 0
0 0 0

1.97085 -6.6857 0
10.7597 -4.26077 0
0 0 0

0.0234576 -3.91386 0
11.6231 -3.05513 0
0 0 0

0.781432 -2.1147 0
1.61252 -2.91702 0
0 0 0

0.57021 -2.33607 0
0.991661 -1.53549 0
0 0 0

-1.86095 -3.03887 0
10.1757 -3.37663 0
0 0 0

1.41343 -1.58107 0
3.48072 -2.47479 0
0 0 0

0.653543 -2.35526 0
0.621145 -1.45017 0
0 0 0

1.37567 -6.64296 0
1.82644 -4.15836 0
0 0 0

0.71929 -2.67134 0
0.630973 -1.66679 0
0 0 0

1.79027 -5.42444 0
2.65438 -1.72498 0
0 0 0

2.04556 -6.60039 0
6.76223 -4.55129 0
0 0 0

1.49109 -7.11452 0
8.35292 -2.60133 0
0 0 0

2.96373 -6.02824 0
5.04182 -2.97925 0
0 0 0

2.84241 -6.26625 0
5.25247 -3.82252 0
0 0 0

SCALARS active double 1
LOOKUP_TABLE default
1
1
1
1
1
1
1
1
1
1
1
1
1
1
1
1
1
1
1
1
1
1
1
1
1
1
1
1
1
1
1
1
1
1
1
1
1
1
1
1
1
1
1
1
1
1
1
1
1
1
1
1
1
1
1
1
1
1
1
1
1
1
1
1
SCALARS extent double 1
LOOKUP_TABLE default
0.0125
0.0125
0.0125
0.0125
0.0125
0.0125
0.0125
0.0125
0.0125
0.0125
0.0125
0.0125
0.0125
0.0125
0.0125
0.0125
0.0125
0.0125
0.0125
0.0125
0.0125
0.0125
0.0125
0.0125
0.0125
0.0125
0.0125
0.0125
0.0125
0.0125
0.0125
0.0125
0.0125
0.0125
0.0125
0.0125
0.0125
0.0125
0.0125
0.0125
0.0125
0.0125
0.0125
0.0125
0.0125
0.0125
0.0125
0.0125
0.0125
0.0125
0.0125
0.0125
0.0125
0.0125
0.0125
0.0125
0.0125
0.0125
0.0125
0.0125
0.0125
0.0125
0.0125
0.0125
SCALARS pressure double 1
LOOKUP_TABLE default
-87.4342
1164.75
-2337.76
273.881
-1908.15
-633.979
-1947.5
1810.82
2099
-11.0504
628.064
2406.7
-1898.19
-796.915
3904.99
2798.27
1356.4
414.469
-6847.53
-2079.51
-1597.51
2965.69
3227.97
907.25
-819.186
-1470.79
-1209.71
3590.63
1518.46
888.441
424.333
2152.14
659.804
225.056
-1859.93
-25.9578
2620.6
-4280.23
481.7
656.857
-2296.38
9279.6
-2748.19
1094.36
597.252
6438.81
-6602.89
-652.261
-395.41
2102.23
-748.168
2207.94
-3903.35
1004.03
-1057.43
-384.643
-3401.18
-3330.46
1400.54
532.055
5716.57
3069.96
-2450.65
1242.75
SCALARS density double 1
LOOKUP_TABLE default
998.951
1014.08
972.337
1003.29
977.362
992.421
976.901
1021.97
1025.51
999.867
1007.57
1029.3
977.479
990.483
1047.98
1034.15
1016.41
1004.99
921.115
975.355
981.012
1036.23
1039.5
1010.95
990.218
982.505
985.588
1044.03
1018.39
1010.72
1005.1
1026.16
1007.95
1002.7
977.928
999.689
1031.95
949.934
1005.8
1007.91
972.82
1117.79
967.56
1013.22
1007.19
1080.33
923.823
992.203
995.266
1025.55
991.062
1026.85
954.24
1012.12
987.391
995.395
960.008
960.823
1016.95
1006.41
1071.01
1037.53
971.02
1015.02
