# vtk DataFile Version 3.0
Frame: 36, Time: 0.6
ASCII
DATASET UNSTRUCTURED_GRID
POINTS 64 double
0.442662 0.0443201 0 
0.41736 0.0481977 0 
0.444461 0.0691713 0 
0.41988 0.0739915 0 
0.392978 0.0512447 0 
0.367788 0.0540604 0 
0.397061 0.0760551 0 
0.372311 0.0783176 0 
0.343785 0.0581235 0 
0.317892 0.0590577 0 
0.347183 0.083571 0 
0.321767 0.0842984 0 
0.291343 0.065683 0 
0.267562 0.070416 0 
0.295692 0.0899977 0 
0.271954 0.0940761 0 
0.445775 0.0943967 0 
0.421307 0.0988614 0 
0.453819 0.116286 0 
0.427918 0.121097 0 
0.397595 0.101259 0 
0.374069 0.103813 0 
0.403651 0.125683 0 
0.3802 0.129057 0 
0.349454 0.1073 0 
0.325132 0.1071 0 
0.355893 0.132394 0 
0.33074 0.133405 0 
0.301267 0.113894 0 
0.275923 0.121697 0 
0.306738 0.139112 0 
0.282829 0.145519 0 
0.460338 0.140191 0 
0.43477 0.143114 0 
0.464938 0.164296 0 
0.440134 0.168143 0 
0.410715 0.148304 0 
0.386961 0.154211 0 
0.417564 0.173089 0 
0.393222 0.180101 0 
0.362603 0.158257 0 
0.338306 0.159265 0 
0.366867 0.183068 0 
0.343802 0.18566 0 
0.31357 0.163606 0 
0.288825 0.168847 0 
0.319044 0.190491 0 
0.292726 0.194167 0 
0.472085 0.187074 0 
0.446842 0.191735 0 
0.475124 0.211948 0 
0.451171 0.217875 0 
0.424019 0.198516 0 
0.398191 0.203209 0 
0.427071 0.224545 0 
0.401327 0.228156 0 
0.371785 0.206276 0 
0.34835 0.211245 0 
0.376813 0.232904 0 
0.35322 0.237783 0 
0.324053 0.214848 0 
0.297602 0.217644 0 
0.328098 0.239429 0 
0.302472 0.242338 0 
CELLS 64 128
1 0
1 1
1 2
1 3
1 4
1 5
1 6
1 7
1 8
1 9
1 10
1 11
1 12
1 13
1 14
1 15
1 16
1 17
1 18
1 19
1 20
1 21
1 22
1 23
1 24
1 25
1 26
1 27
1 28
1 29
1 30
1 31
1 32
1 33
1 34
1 35
1 36
1 37
1 38
1 39
1 40
1 41
1 42
1 43
1 44
1 45
1 46
1 47
1 48
1 49
1 50
1 51
1 52
1 53
1 54
1 55
1 56
1 57
1 58
1 59
1 60
1 61
1 62
1 63
CELL_TYPES 64
1
1
1
1
1
1
1
1
1
1
1
1
1
1
1
1
1
1
1
1
1
1
1
1
1
1
1
1
1
1
1
1
1
1
1
1
1
1
1
1
1
1
1
1
1
1
1
1
1
1
1
1
1
1
1
1
1
1
1
1
1
1
1
1
POINT_DATA 64
VECTORS displacement double
0.0301619 -0.36818 0 
0.00485983 -0.389302 0 
0.00696101 -0.343329 0 
-0.0176205 -0.363508 0 
-0.0195218 -0.411255 0 
-0.044712 -0.43344 0 
-0.0404395 -0.386445 0 
-0.0651894 -0.409182 0 
-0.0687154 -0.454376 0 
-0.0946082 -0.478442 0 
-0.0903171 -0.428929 0 
-0.115733 -0.453202 0 
-0.121157 -0.496817 0 
-0.144938 -0.517084 0 
-0.141808 -0.472502 0 
-0.165546 -0.493424 0 
-0.0167246 -0.318103 0 
-0.0411929 -0.338639 0 
-0.0336806 -0.296214 0 
-0.0595824 -0.316403 0 
-0.0649053 -0.361241 0 
-0.0884307 -0.383687 0 
-0.0838493 -0.336817 0 
-0.1073 -0.358443 0 
-0.113046 -0.4052 0 
-0.137368 -0.4304 0 
-0.131607 -0.380106 0 
-0.15676 -0.404095 0 
-0.161233 -0.448606 0 
-0.186577 -0.465803 0 
-0.180762 -0.423388 0 
-0.204671 -0.441981 0 
-0.0521625 -0.272309 0 
-0.0777303 -0.294386 0 
-0.0725622 -0.248204 0 
-0.0973658 -0.269357 0 
-0.101785 -0.314196 0 
-0.125539 -0.333289 0 
-0.119936 -0.289411 0 
-0.144278 -0.307399 0 
-0.149897 -0.354243 0 
-0.174194 -0.378235 0 
-0.170633 -0.329432 0 
-0.193698 -0.35184 0 
-0.19893 -0.398894 0 
-0.223675 -0.418653 0 
-0.218456 -0.372009 0 
-0.244774 -0.393333 0 
-0.0904146 -0.225426 0 
-0.115658 -0.245765 0 
-0.112376 -0.200552 0 
-0.136329 -0.219625 0 
-0.138481 -0.263984 0 
-0.164309 -0.284291 0 
-0.160429 -0.237955 0 
-0.186173 -0.259344 0 
-0.190715 -0.306224 0 
-0.21415 -0.326255 0 
-0.210687 -0.279596 0 
-0.23428 -0.299717 0 
-0.238447 -0.347652 0 
-0.264898 -0.369856 0 
-0.259402 -0.323071 0 
-0.285028 -0.345162 0 
VECTORS velocity double
0.60394 -0.540154 0 
-0.291123 -0.608986 0 
0.415496 -0.54946 0 
-0.356318 -0.829544 0 
0.61354 -1.00771 0 
-0.648314 -1.16152 0 
0.56687 -1.40917 0 
0.174078 -0.954387 0 
0.59335 -1.58888 0 
0.754054 -1.48936 0 
0.619693 -0.829631 0 
0.0560458 -1.04961 0 
0.429966 -1.65612 0 
0.566945 -2.1232 0 
-0.0792949 -1.55464 0 
-0.307229 -2.13426 0 
0.0184492 -0.218384 0 
-0.401723 -0.842484 0 
-0.200681 -0.152406 0 
-0.541022 -1.1658 0 
0.201205 -1.07783 0 
-0.009784 -0.968126 0 
-0.296793 -1.06839 0 
-0.780181 -1.04507 0 
-0.385097 -1.18287 0 
-0.729183 -1.58473 0 
-0.728536 -1.30501 0 
-0.792095 -1.34954 0 
-0.265498 -1.51937 0 
-0.199027 -1.91934 0 
-0.241509 -0.786772 0 
-0.764409 -1.66071 0 
-0.244441 -0.265351 0 
-0.519721 -0.960855 0 
-0.652096 -0.685017 0 
-0.627603 -0.491982 0 
-0.392302 -0.970172 0 
-0.449315 -0.940165 0 
-1.09217 -1.11525 0 
-1.23215 -1.05159 0 
0.102373 -1.06554 0 
-0.129573 -1.35615 0 
-0.762311 -0.763554 0 
-1.19773 -1.24226 0 
-0.69829 -1.6365 0 
-1.03993 -2.01605 0 
-1.06983 -1.12255 0 
-0.646277 -1.25923 0 
-0.507569 -0.63511 0 
-0.589559 -0.785338 0 
-0.784818 -0.595453 0 
-0.966885 -1.04106 0 
-0.739323 -1.48861 0 
-0.662002 -1.13824 0 
-0.888698 -0.940386 0 
-0.902829 -1.02559 0 
-0.715729 -0.925545 0 
-0.960303 -1.59927 0 
-1.11269 -1.16348 0 
-0.930946 -1.00368 0 
-0.234732 -1.43 0 
-0.927039 -1.74571 0 
-1.06615 -1.21431 0 
-1.15264 -1.46105 0 
SCALARS mass double 1
LOOKUP_TABLE default
0.625
0.625
0.625
0.625
0.625
0.625
0.625
0.625
0.625
0.625
0.625
0.625
0.625
0.625
0.625
0.625
0.625
0.625
0.625
0.625
0.625
0.625
0.625
0.625
0.625
0.625
0.625
0.625
0.625
0.625
0.625
0.625
0.625
0.625
0.625
0.625
0.625
0.625
0.625
0.625
0.625
0.625
0.625
0.625
0.625
0.625
0.625
0.625
0.625
0.625
0.625
0.625
0.625
0.625
0.625
0.625
0.625
0.625
0.625
0.625
0.625
0.625
0.625
0.625
SCALARS volume double 1
LOOKUP_TABLE default
0.000623635
0.000578727
0.000643644
0.000623314
0.000613082
0.000646343
0.000589977
0.000626091
0.000623232
0.000652829
0.000612896
0.000612728
0.000637952
0.000612363
0.000632252
0.000628205
0.000588759
0.000611643
0.000636026
0.000639483
0.000614949
0.00066551
0.000588279
0.000595424
0.000654601
0.000594894
0.000619005
0.000636815
0.000643623
0.000618275
0.000607214
0.000616
0.000627021
0.000620592
0.000623646
0.000606862
0.000642173
0.000646136
0.000633615
0.00060381
0.000666289
0.000666139
0.000606905
0.000605556
0.00063376
0.000628689
0.00064678
0.000617688
0.000626598
0.000646626
0.000631166
0.00062761
0.00063636
0.000622114
0.000633387
0.000613006
0.000626905
0.000627156
0.000638609
0.000611002
0.000627373
0.000608068
0.000638609
0.000628329
VECTORS momentum double
0.377463 -0.337596 0 
-0.181952 -0.380617 0 
0.259685 -0.343413 0 
-0.222699 -0.518465 0 
0.383463 -0.629817 0 
-0.405196 -0.725949 0 
0.354294 -0.880733 0 
0.108799 -0.596492 0 
0.370844 -0.993052 0 
0.471284 -0.93085 0 
0.387308 -0.518519 0 
0.0350287 -0.656007 0 
0.268729 -1.03507 0 
0.354341 -1.327 0 
-0.0495593 -0.971651 0 
-0.192018 -1.33391 0 
0.0115307 -0.13649 0 
-0.251077 -0.526552 0 
-0.125426 -0.0952535 0 
-0.338139 -0.728627 0 
0.125753 -0.673643 0 
-0.006115 -0.605079 0 
-0.185496 -0.667746 0 
-0.487613 -0.653168 0 
-0.240686 -0.739292 0 
-0.455739 -0.990457 0 
-0.455335 -0.81563 0 
-0.49506 -0.843463 0 
-0.165936 -0.949608 0 
-0.124392 -1.19959 0 
-0.150943 -0.491733 0 
-0.477756 -1.03795 0 
-0.152776 -0.165845 0 
-0.324826 -0.600534 0 
-0.40756 -0.428136 0 
-0.392252 -0.307489 0 
-0.245189 -0.606358 0 
-0.280822 -0.587603 0 
-0.682604 -0.697033 0 
-0.770096 -0.657243 0 
0.0639829 -0.665965 0 
-0.0809832 -0.847594 0 
-0.476444 -0.477222 0 
-0.74858 -0.776413 0 
-0.436432 -1.02281 0 
-0.649954 -1.26003 0 
-0.668643 -0.701596 0 
-0.403923 -0.787019 0 
-0.31723 -0.396944 0 
-0.368474 -0.490836 0 
-0.490511 -0.372158 0 
-0.604303 -0.650662 0 
-0.462077 -0.930382 0 
-0.413751 -0.7114 0 
-0.555436 -0.587741 0 
-0.564268 -0.640991 0 
-0.447331 -0.578465 0 
-0.600189 -0.999544 0 
-0.695431 -0.727178 0 
-0.581841 -0.627301 0 
-0.146707 -0.893753 0 
-0.5794 -1.09107 0 
-0.666345 -0.758942 0 
-0.720398 -0.913158 0 
VECTORS body_force double
0 -9.81 0 
0 -9.81 0 
0 -9.81 0 
0 -9.81 0 
0 -9.81 0 
0 -9.81 0 
0 -9.81 0 
0 -9.81 0 
0 -9.81 0 
0 -9.81 0 
0 -9.81 0 
0 -9.81 0 
0 -9.81 0 
0 -9.81 0 
0 -9.81 0 
0 -9.81 0 
0 -9.81 0 
0 -9.81 0 
0 -9.81 0 
0 -9.81 0 
0 -9.81 0 
0 -9.81 0 
0 -9.81 0 
0 -9.81 0 
0 -9.81 0 
0 -9.81 0 
0 -9.81 0 
0 -9.81 0 
0 -9.81 0 
0 -9.81 0 
0 -9.81 0 
0 -9.81 0 
0 -9.81 0 
0 -9.81 0 
0 -9.81 0 
0 -9.81 0 
0 -9.81 0 
0 -9.81 0 
0 -9.81 0 
0 -9.81 0 
0 -9.81 0 
0 -9.81 0 
0 -9.81 0 
0 -9.81 0 
0 -9.81 0 
0 -9.81 0 
0 -9.81 0 
0 -9.81 0 
0 -9.81 0 
0 -9.81 0 
0 -9.81 0 
0 -9.81 0 
0 -9.81 0 
0 -9.81 0 
0 -9.81 0 
0 -9.81 0 
0 -9.81 0 
0 -9.81 0 
0 -9.81 0 
0 -9.81 0 
0 -9.81 0 
0 -9.81 0 
0 -9.81 0 
0 -9.81 0 
TENSORS cauchy_stress double
9181.24 7332.04 0
7332.04 -9601.65 0
0 0 -126.122

-9601.9 -1574.19 0
-1574.19 -5190.45 0
0 0 -4437.71

28.8628 626.457 0
626.457 5623.88 0
0 0 1695.82

-3936.84 1277.84 0
1277.84 3417.38 0
0 0 -155.836

-1998.68 3923.9 0
3923.9 -1703.74 0
0 0 -1110.73

4156.25 -1029.18 0
-1029.18 2301.13 0
0 0 1937.21

-7199.02 6160.41 0
6160.41 -3890.84 0
0 0 -3326.96

-1241.57 -8380.68 0
-8380.68 1576.98 0
0 0 100.624

-2479.99 -237.716 0
-237.716 1935.11 0
0 0 -163.463

6195.07 -812.829 0
-812.829 2182.65 0
0 0 2513.31

-611.763 -848.52 0
-848.52 -3149.07 0
0 0 -1128.25

-1280.68 -183.416 0
-183.416 -2532.88 0
0 0 -1144.07

3028.67 -1901.46 0
-1901.46 915.77 0
0 0 1183.33

-3082.6 -1524.21 0
-1524.21 -845.623 0
0 0 -1178.47

787.878 -2622.3 0
-2622.3 1430.76 0
0 0 665.592

-1446.28 911.334 0
911.334 2430.04 0
0 0 295.127

-9424.3 2142.83 0
2142.83 -2063.24 0
0 0 -3446.26

72.6118 -4083.03 0
-4083.03 -4227.08 0
0 0 -1246.34

2109.91 403.838 0
403.838 1253.19 0
0 0 1008.93

6886.98 -3862.96 0
-3862.96 -2481.67 0
0 0 1321.59

-3926.09 4652.2 0
4652.2 808.205 0
0 0 -935.366

-1895.09 -5404.5 0
-5404.5 13972.5 0
0 0 3623.21

-2877.95 6029.7 0
6029.7 -8766.18 0
0 0 -3493.24

-6290.49 2530.59 0
2530.59 -3032.28 0
0 0 -2796.83

543.478 -3141.18 0
-3141.18 8355.39 0
0 0 2669.66

-8721.1 5064.66 0
5064.66 -772.687 0
0 0 -2848.14

-305.508 10518.8 0
10518.8 -1548.15 0
0 0 -556.098

4147.84 6092.34 0
6092.34 -546.492 0
0 0 1080.4

3417.82 -1532.33 0
-1532.33 2228.71 0
0 0 1693.96

-915.463 1871.69 0
1871.69 -1164.88 0
0 0 -624.102

-2847.62 2219.11 0
2219.11 -2704.37 0
0 0 -1665.6

186.629 1094.6 0
1094.6 -2975.94 0
0 0 -836.794

-2082.39 -1102.89 0
-1102.89 2703.11 0
0 0 186.216

-69.8544 -1381.98 0
-1381.98 -1291.13 0
0 0 -408.295

-1575.93 -88.6487 0
-88.6487 1158.89 0
0 0 -125.11

-4729.99 1446.67 0
1446.67 -933.542 0
0 0 -1699.06

3253.21 954.471 0
954.471 1959.45 0
0 0 1563.8

-3534.24 -1128.28 0
-1128.28 9930.08 0
0 0 1918.75

865.199 1846.67 0
1846.67 1767.33 0
0 0 789.759

1493.24 2848.75 0
2848.75 -8126.44 0
0 0 -1989.96

6332.54 -687.894 0
-687.894 5969.81 0
0 0 3690.71

2017.78 -3013.29 0
-3013.29 10241.2 0
0 0 3677.7

2787.66 7756.35 0
7756.35 -8437.4 0
0 0 -1694.92

-4796.9 4987.1 0
4987.1 -1280.92 0
0 0 -1823.35

-972.869 -1069.47 0
-1069.47 3649.66 0
0 0 803.037

2492.32 266.7 0
266.7 -1360.55 0
0 0 339.53

7550.71 3944.85 0
3944.85 -963.367 0
0 0 1976.2

-424.09 -1019.49 0
-1019.49 -1839.13 0
0 0 -678.967

-97.0721 335.287 0
335.287 588.194 0
0 0 147.337

3189.06 628.473 0
628.473 3352.64 0
0 0 1962.51

-545.423 -577.544 0
-577.544 2433.25 0
0 0 566.349

184.526 -1073.73 0
-1073.73 616.803 0
0 0 240.399

2908.21 -110.994 0
-110.994 555.841 0
0 0 1039.21

-1687.39 -3924.55 0
-3924.55 797.228 0
0 0 -267.048

2609.12 -72.6515 0
-72.6515 -45.616 0
0 0 769.051

-2827.96 -729.427 0
-729.427 -898.357 0
0 0 -1117.89

2309.64 795.821 0
795.821 -1724.4 0
0 0 175.571

-5488.33 -3492.88 0
-3492.88 6150.43 0
0 0 198.63

3766.94 6491.31 0
6491.31 375.549 0
0 0 1242.75

-798.641 2449.42 0
2449.42 -3557.33 0
0 0 -1306.79

938.247 -1556.39 0
-1556.39 -209.363 0
0 0 218.665

-2153.98 -1334.18 0
-1334.18 -3127.67 0
0 0 -1584.49

2938.3 3774.55 0
3774.55 1204.28 0
0 0 1242.77

982.715 120.522 0
120.522 38.8283 0
0 0 306.463

TENSORS velocity_gradient double
2.40123 3.73171 0
6.23379 -11.31 0
0 0 0

2.33871 -0.261823 0
6.62532 -9.87184 0
0 0 0

1.43152 -7.89552 0
7.76446 0.165253 0
0 0 0

0.631141 -5.72834 0
8.29995 -1.16144 0
0 0 0

-1.05971 -1.95775 0
6.24167 -7.35105 0
0 0 0

-1.05913 -4.12869 0
6.31312 -1.27743 0
0 0 0

-0.28722 -4.27697 0
5.49869 -1.69745 0
0 0 0

-0.487911 -4.70493 0
4.24047 0.308613 0
0 0 0

-4.03151 -5.98416 0
6.31031 1.98714 0
0 0 0

-3.90591 -8.95815 0
6.3688 0.602223 0
0 0 0

-0.915995 -5.73135 0
6.59187 1.93014 0
0 0 0

-1.02275 -8.48836 0
7.71141 0.820994 0
0 0 0

0.0512237 -10.4983 0
9.60054 -0.282759 0
0 0 0

-0.214989 -9.2248 0
9.57003 -0.136793 0
0 0 0

-1.11019 -10.5816 0
9.22879 -0.253109 0
0 0 0

-1.39539 -9.71342 0
9.36565 0.572769 0
0 0 0

-0.539715 -8.06827 0
8.92287 0.109952 0
0 0 0

-1.11729 -7.01163 0
9.30271 -0.952015 0
0 0 0

0.690986 -6.78688 0
7.00327 -2.65065 0
0 0 0

-0.530175 -7.96963 0
8.54978 -1.14382 0
0 0 0

-0.4165 -7.5982 0
4.7608 -0.517686 0
0 0 0

-0.0477755 -8.5621 0
2.56935 -0.318773 0
0 0 0

-0.294155 -9.02125 0
7.34937 -0.0411063 0
0 0 0

-0.253809 -9.09031 0
3.08843 -0.223521 0
0 0 0

0.416851 -8.92664 0
5.40841 -0.653287 0
0 0 0

0.834621 -9.45797 0
7.90755 0.709379 0
0 0 0

-0.284763 -8.87022 0
3.16907 -0.796908 0
0 0 0

1.51974 -9.30536 0
6.14916 0.317681 0
0 0 0

0.144816 -10.0803 0
7.82562 2.28828 0
0 0 0

-1.0747 -10.755 0
7.97132 3.85443 0
0 0 0

1.67222 -9.92934 0
5.75782 1.91917 0
0 0 0

-0.423694 -8.89196 0
6.56779 2.57831 0
0 0 0

2.06494 -6.48754 0
4.33752 -3.23796 0
0 0 0

0.479275 -7.62633 0
7.4738 -1.50725 0
0 0 0

2.26911 -5.42166 0
3.9693 -3.92013 0
0 0 0

1.15522 -5.3986 0
6.0504 -3.90234 0
0 0 0

0.658548 -7.54582 0
7.18284 -1.12103 0
0 0 0

-0.458487 -6.4111 0
3.42222 -1.12633 0
0 0 0

1.26083 -5.86525 0
5.74796 -2.56604 0
0 0 0

-0.558705 -6.21002 0
2.9274 -1.35797 0
0 0 0

-0.481268 -6.05752 0
3.35539 -0.693627 0
0 0 0

1.43757 -5.48318 0
5.10456 -0.389727 0
0 0 0

-0.606363 -6.07978 0
2.82268 -0.788447 0
0 0 0

0.176572 -5.72516 0
4.90985 -0.408101 0
0 0 0

1.23308 -4.35372 0
5.09614 -0.343253 0
0 0 0

0.381269 -4.0855 0
5.62095 0.0577449 0
0 0 0

0.00360564 -4.60955 0
5.04555 -0.35378 0
0 0 0

1.3027 -3.86896 0
4.74704 0.0407281 0
0 0 0

1.95216 -5.52241 0
4.75328 -3.67094 0
0 0 0

1.71879 -5.32323 0
4.7295 -4.1285 0
0 0 0

1.92362 -1.54725 0
4.79506 -2.37389 0
0 0 0

1.88544 -1.77503 0
4.28548 -1.66552 0
0 0 0

1.71138 -3.86766 0
4.32265 -1.99481 0
0 0 0

0.427307 -2.34806 0
3.13404 -0.372012 0
0 0 0

1.6425 -1.69835 0
3.45348 -0.955543 0
0 0 0

1.12859 -1.60731 0
2.913 -0.22411 0
0 0 0

-0.486706 -2.26067 0
2.36299 0.313704 0
0 0 0

-0.307196 -2.82145 0
3.82801 0.639539 0
0 0 0

0.226398 -2.12436 0
1.92948 0.230833 0
0 0 0

0.286737 -2.73606 0
2.38162 0.598201 0
0 0 0

-0.243841 -3.06152 0
5.02326 0.693234 0
0 0 0

1.23687 -3.3703 0
4.67559 0.722809 0
0 0 0

-0.0537809 -3.02961 0
5.01269 0.69146 0
0 0 0

0.650039 -3.26634 0
4.8588 0.708123 0
0 0 0

SCALARS active double 1
LOOKUP_TABLE default
1
1
1
1
1
1
1
1
1
1
1
1
1
1
1
1
1
1
1
1
1
1
1
1
1
1
1
1
1
1
1
1
1
1
1
1
1
1
1
1
1
1
1
1
1
1
1
1
1
1
1
1
1
1
1
1
1
1
1
1
1
1
1
1
SCALARS extent double 1
LOOKUP_TABLE default
0.0125
0.0125
0.0125
0.0125
0.0125
0.0125
0.0125
0.0125
0.0125
0.0125
0.0125
0.0125
0.0125
0.0125
0.0125
0.0125
0.0125
0.0125
0.0125
0.0125
0.0125
0.0125
0.0125
0.0125
0.0125
0.0125
0.0125
0.0125
0.0125
0.0125
0.0125
0.0125
0.0125
0.0125
0.0125
0.0125
0.0125
0.0125
0.0125
0.0125
0.0125
0.0125
0.0125
0.0125
0.0125
0.0125
0.0125
0.0125
0.0125
0.0125
0.0125
0.0125
0.0125
0.0125
0.0125
0.0125
0.0125
0.0125
0.0125
0.0125
0.0125
0.0125
0.0125
0.0125
SCALARS pressure double 1
LOOKUP_TABLE default
182.176
6410.02
-2449.52
225.097
1604.38
-2798.2
4805.61
-145.346
236.114
-3630.34
1629.69
1652.54
-1709.26
1702.23
-961.411
-426.294
4977.94
1800.27
-1457.34
-1908.97
1351.08
-5233.53
5045.79
4039.87
-3856.17
4113.98
803.252
-1560.58
-2446.83
901.48
2405.87
1208.7
-268.979
589.759
180.715
2454.2
-2258.82
-2771.53
-1140.76
2874.39
-5331.02
-5312.23
2448.22
2633.72
-1159.94
-490.432
-2854.51
980.73
-212.82
-2834.74
-818.06
-347.242
-1501.09
385.735
-1110.85
1614.74
-253.603
-286.909
-1795.08
1887.59
-315.849
2288.71
-1795.12
-442.669
SCALARS density double 1
LOOKUP_TABLE default
1002.19
1079.96
971.034
1002.7
1019.44
966.979
1059.36
998.257
1002.84
957.371
1019.75
1020.03
979.698
1020.64
988.529
994.898
1061.56
1021.84
982.664
977.353
1016.35
939.129
1062.42
1049.67
954.78
1050.61
1009.69
981.447
971.065
1010.88
1029.29
1014.61
996.777
1007.1
1002.17
1029.89
973.258
967.289
986.404
1035.09
938.031
938.243
1029.81
1032.11
986.177
994.132
966.326
1011.84
997.449
966.555
990.231
995.842
982.148
1004.64
986.758
1019.57
996.961
996.563
978.689
1022.91
996.217
1027.85
978.689
994.702
