# vtk DataFile Version 3.0
Frame: 24, Time: 0.4
ASCII
DATASET UNSTRUCTURED_GRID
POINTS 64 double
0.630724 0.373909 0 
0.655994 0.373768 0 
0.631501 0.348229 0 
0.658253 0.348053 0 
0.68071 0.375329 0 
0.705965 0.378321 0 
0.683248 0.350066 0 
0.708207 0.353114 0 
0.731353 0.38209 0 
0.756655 0.385989 0 
0.732883 0.35612 0 
0.757364 0.360117 0 
0.781485 0.388224 0 
0.806375 0.389458 0 
0.782087 0.362616 0 
0.80781 0.363808 0 
0.633545 0.323281 0 
0.659391 0.323436 0 
0.633524 0.298376 0 
0.659428 0.297905 0 
0.684361 0.324153 0 
0.708521 0.327063 0 
0.684449 0.297423 0 
0.709683 0.300546 0 
0.733396 0.329653 0 
0.757576 0.33357 0 
0.734984 0.304042 0 
0.759655 0.307991 0 
0.783368 0.336711 0 
0.809087 0.338999 0 
0.784502 0.310776 0 
0.810383 0.313672 0 
0.632755 0.27352 0 
0.657678 0.271417 0 
0.631103 0.247269 0 
0.657236 0.245732 0 
0.683339 0.272283 0 
0.708928 0.274165 0 
0.682987 0.246568 0 
0.706301 0.248166 0 
0.734337 0.278045 0 
0.75954 0.283002 0 
0.731908 0.251762 0 
0.758127 0.256231 0 
0.784502 0.284887 0 
0.810069 0.28658 0 
0.783656 0.259118 0 
0.810386 0.26129 0 
0.633054 0.221361 0 
0.658093 0.220898 0 
0.634107 0.194625 0 
0.658453 0.194894 0 
0.683433 0.220549 0 
0.709128 0.223293 0 
0.685035 0.195056 0 
0.71247 0.198137 0 
0.73553 0.227782 0 
0.761099 0.230096 0 
0.737139 0.202549 0 
0.762826 0.204125 0 
0.786662 0.233037 0 
0.812244 0.237012 0 
0.788574 0.208088 0 
0.815071 0.212241 0 
CELLS 64 128
1 0
1 1
1 2
1 3
1 4
1 5
1 6
1 7
1 8
1 9
1 10
1 11
1 12
1 13
1 14
1 15
1 16
1 17
1 18
1 19
1 20
1 21
1 22
1 23
1 24
1 25
1 26
1 27
1 28
1 29
1 30
1 31
1 32
1 33
1 34
1 35
1 36
1 37
1 38
1 39
1 40
1 41
1 42
1 43
1 44
1 45
1 46
1 47
1 48
1 49
1 50
1 51
1 52
1 53
1 54
1 55
1 56
1 57
1 58
1 59
1 60
1 61
1 62
1 63
CELL_TYPES 64
1
1
1
1
1
1
1
1
1
1
1
1
1
1
1
1
1
1
1
1
1
1
1
1
1
1
1
1
1
1
1
1
1
1
1
1
1
1
1
1
1
1
1
1
1
1
1
1
1
1
1
1
1
1
1
1
1
1
1
1
1
1
1
1
POINT_DATA 64
VECTORS displacement double
0.118224 -0.238591 0 
0.143494 -0.263732 0 
0.0940014 -0.264271 0 
0.120753 -0.289447 0 
0.16821 -0.287171 0 
0.193465 -0.309179 0 
0.145748 -0.312434 0 
0.170707 -0.334386 0 
0.218853 -0.33041 0 
0.244155 -0.351511 0 
0.195383 -0.35638 0 
0.219864 -0.377383 0 
0.268985 -0.374276 0 
0.293875 -0.398042 0 
0.244587 -0.399884 0 
0.27031 -0.423692 0 
0.0710452 -0.289219 0 
0.0968908 -0.314064 0 
0.0460238 -0.314124 0 
0.0719284 -0.339595 0 
0.121861 -0.338347 0 
0.146021 -0.360437 0 
0.096949 -0.365077 0 
0.122183 -0.386954 0 
0.170896 -0.382847 0 
0.195076 -0.40393 0 
0.147484 -0.408458 0 
0.172155 -0.429509 0 
0.220868 -0.425789 0 
0.246587 -0.448501 0 
0.197002 -0.451724 0 
0.222883 -0.473828 0 
0.0202552 -0.33898 0 
0.0451783 -0.366083 0 
-0.00639704 -0.365231 0 
0.0197359 -0.391768 0 
0.0708387 -0.390217 0 
0.0964281 -0.413335 0 
0.0454868 -0.415932 0 
0.0688014 -0.439334 0 
0.121837 -0.434455 0 
0.14704 -0.454498 0 
0.0944085 -0.460738 0 
0.120627 -0.481269 0 
0.172002 -0.477613 0 
0.197569 -0.50092 0 
0.146156 -0.503382 0 
0.172886 -0.52621 0 
-0.0294456 -0.391139 0 
-0.00440721 -0.416602 0 
-0.0533934 -0.417875 0 
-0.0290473 -0.442606 0 
0.0209332 -0.441951 0 
0.046628 -0.464207 0 
-0.00246499 -0.467444 0 
0.0249699 -0.489363 0 
0.0730301 -0.484718 0 
0.0985987 -0.507404 0 
0.0496389 -0.509951 0 
0.0753264 -0.533375 0 
0.124162 -0.529463 0 
0.149744 -0.550488 0 
0.101074 -0.554412 0 
0.127571 -0.575259 0 
VECTORS velocity double
3.88769 3.03667 0 
4.46197 1.70489 0 
2.28617 2.80368 0 
2.70279 1.07326 0 
4.06063 1.15656 0 
3.87841 1.01309 0 
2.28413 0.718758 0 
2.19949 0.509606 0 
3.90164 0.318538 0 
3.94123 -0.0506499 0 
2.53597 0.196696 0 
2.93609 0.0841966 0 
3.79728 0.566837 0 
3.87912 -0.895576 0 
2.89743 0.0781639 0 
3.03632 -1.89701 0 
2.26596 3.27692 0 
2.51616 0.948969 0 
1.46488 3.47305 0 
1.66073 0.947366 0 
2.43773 1.01423 0 
2.58803 0.901006 0 
1.47041 0.519716 0 
1.46795 0.806033 0 
2.62887 0.660317 0 
2.76677 0.704279 0 
1.49453 0.458871 0 
1.79297 0.508716 0 
2.69478 0.552386 0 
2.74135 -1.42859 0 
1.97093 0.531525 0 
2.47019 -1.40229 0 
0.800669 2.98145 0 
0.896634 0.925056 0 
0.404087 3.3153 0 
0.679523 1.32211 0 
0.867362 0.42644 0 
0.613601 1.07421 0 
0.744689 0.784787 0 
0.454225 1.27637 0 
0.966273 0.538462 0 
1.08839 0.134811 0 
0.385897 0.4848 0 
0.454403 0.0422279 0 
0.899574 -0.0582225 0 
1.65339 -1.63196 0 
0.274343 0.0265876 0 
0.933119 -1.32132 0 
0.504641 3.41711 0 
0.574148 1.45522 0 
-0.869429 2.8591 0 
-0.860975 1.68886 0 
0.804203 1.04614 0 
0.959398 1.4662 0 
-0.72425 1.53539 0 
-0.463425 0.91746 0 
1.0038 1.29198 0 
0.735536 0.7969 0 
-0.0914002 0.259583 0 
0.177147 -0.131206 0 
0.557025 0.578759 0 
1.08211 -0.975349 0 
-0.32619 0.0655567 0 
0.113525 -1.42025 0 
SCALARS mass double 1
LOOKUP_TABLE default
0.625
0.625
0.625
0.625
0.625
0.625
0.625
0.625
0.625
0.625
0.625
0.625
0.625
0.625
0.625
0.625
0.625
0.625
0.625
0.625
0.625
0.625
0.625
0.625
0.625
0.625
0.625
0.625
0.625
0.625
0.625
0.625
0.625
0.625
0.625
0.625
0.625
0.625
0.625
0.625
0.625
0.625
0.625
0.625
0.625
0.625
0.625
0.625
0.625
0.625
0.625
0.625
0.625
0.625
0.625
0.625
0.625
0.625
0.625
0.625
0.625
0.625
0.625
0.625
SCALARS volume double 1
LOOKUP_TABLE default
0.000635366
0.000635266
0.00061093
0.000638738
0.000622086
0.000633674
0.000608531
0.000620106
0.000647819
0.000634854
0.000640001
0.00062523
0.000635515
0.000635255
0.000617149
0.000626772
0.000629186
0.000634065
0.000641186
0.000644275
0.000631836
0.00064752
0.000632417
0.000654864
0.000614505
0.000651626
0.000668275
0.000615916
0.000653983
0.000629107
0.000665048
0.000650877
0.000618263
0.000662095
0.000661198
0.000661539
0.000621243
0.000653463
0.000618473
0.000612071
0.000643666
0.000606392
0.000654833
0.000665308
0.000633219
0.000631243
0.000669482
0.00062098
0.000643566
0.000626709
0.000636176
0.000618389
0.00065183
0.000641431
0.000656608
0.000647712
0.000618041
0.000655818
0.000646763
0.000622317
0.000654171
0.000634824
0.000603885
0.000627257
VECTORS momentum double
2.42981 1.89792 0 
2.78873 1.06556 0 
1.42886 1.7523 0 
1.68925 0.670786 0 
2.53789 0.722851 0 
2.42401 0.633182 0 
1.42758 0.449224 0 
1.37468 0.318503 0 
2.43852 0.199086 0 
2.46327 -0.0316562 0 
1.58498 0.122935 0 
1.83506 0.0526229 0 
2.3733 0.354273 0 
2.42445 -0.559735 0 
1.8109 0.0488525 0 
1.8977 -1.18563 0 
1.41623 2.04808 0 
1.5726 0.593106 0 
0.915553 2.17066 0 
1.03795 0.592103 0 
1.52358 0.633893 0 
1.61752 0.563129 0 
0.919005 0.324823 0 
0.917471 0.503771 0 
1.64304 0.412698 0 
1.72923 0.440174 0 
0.934081 0.286794 0 
1.12061 0.317948 0 
1.68424 0.345241 0 
1.71334 -0.89287 0 
1.23183 0.332203 0 
1.54387 -0.87643 0 
0.500418 1.86341 0 
0.560396 0.57816 0 
0.252554 2.07206 0 
0.424702 0.826319 0 
0.542101 0.266525 0 
0.383501 0.671379 0 
0.46543 0.490492 0 
0.283891 0.797731 0 
0.603921 0.336539 0 
0.680242 0.0842567 0 
0.241186 0.303 0 
0.284002 0.0263924 0 
0.562234 -0.0363891 0 
1.03337 -1.01998 0 
0.171465 0.0166172 0 
0.583199 -0.825824 0 
0.315401 2.1357 0 
0.358843 0.909515 0 
-0.543393 1.78694 0 
-0.538109 1.05554 0 
0.502627 0.653838 0 
0.599624 0.916376 0 
-0.452656 0.959617 0 
-0.289641 0.573412 0 
0.627374 0.807489 0 
0.45971 0.498063 0 
-0.0571251 0.162239 0 
0.110717 -0.0820039 0 
0.348141 0.361724 0 
0.676318 -0.609593 0 
-0.203869 0.0409729 0 
0.070953 -0.887655 0 
VECTORS body_force double
0 -9.81 0 
0 -9.81 0 
0 -9.81 0 
0 -9.81 0 
0 -9.81 0 
0 -9.81 0 
0 -9.81 0 
0 -9.81 0 
0 -9.81 0 
0 -9.81 0 
0 -9.81 0 
0 -9.81 0 
0 -9.81 0 
0 -9.81 0 
0 -9.81 0 
0 -9.81 0 
0 -9.81 0 
0 -9.81 0 
0 -9.81 0 
0 -9.81 0 
0 -9.81 0 
0 -9.81 0 
0 -9.81 0 
0 -9.81 0 
0 -9.81 0 
0 -9.81 0 
0 -9.81 0 
0 -9.81 0 
0 -9.81 0 
0 -9.81 0 
0 -9.81 0 
0 -9.81 0 
0 -9.81 0 
0 -9.81 0 
0 -9.81 0 
0 -9.81 0 
0 -9.81 0 
0 -9.81 0 
0 -9.81 0 
0 -9.81 0 
0 -9.81 0 
0 -9.81 0 
0 -9.81 0 
0 -9.81 0 
0 -9.81 0 
0 -9.81 0 
0 -9.81 0 
0 -9.81 0 
0 -9.81 0 
0 -9.81 0 
0 -9.81 0 
0 -9.81 0 
0 -9.81 0 
0 -9.81 0 
0 -9.81 0 
0 -9.81 0 
0 -9.81 0 
0 -9.81 0 
0 -9.81 0 
0 -9.81 0 
0 -9.81 0 
0 -9.81 0 
0 -9.81 0 
0 -9.81 0 
TENSORS cauchy_stress double
-238.377 -874.697 0
-874.697 3401.78 0
0 0 949.02

2011.09 -1839.98 0
-1839.98 1122.06 0
0 0 939.944

-395.107 1690.88 0
1690.88 -3983.64 0
0 0 -1313.62

5525.44 -6197.83 0
-6197.83 -1344.01 0
0 0 1254.43

-1181.83 -86.7778 0
-86.7778 283.056 0
0 0 -269.632

1066.36 2149.84 0
2149.84 1584.09 0
0 0 795.137

-3226.3 2933.19 0
2933.19 -1909.19 0
0 0 -1540.65

-1170.48 752.814 0
752.814 -341.34 0
0 0 -453.546

3275.99 5526.16 0
5526.16 3620.09 0
0 0 2068.82

-611.465 5318.2 0
5318.2 3619.72 0
0 0 902.477

-922.327 2211.9 0
2211.9 5483.49 0
0 0 1368.35

-2130.53 1434.04 0
1434.04 2201.24 0
0 0 21.2108

-380.702 245.875 0
245.875 3589.27 0
0 0 962.57

-456.514 368.841 0
368.841 3586.15 0
0 0 938.89

-1567.23 -965.766 0
-965.766 -863.731 0
0 0 -729.287

1016.21 2798.82 0
2798.82 -471.623 0
0 0 163.375

-508.59 1574.11 0
1574.11 1792.15 0
0 0 385.068

3426.08 -1247.96 0
-1247.96 -656.796 0
0 0 830.784

4521.82 2105.28 0
2105.28 395.003 0
0 0 1475.05

-137.031 -389.005 0
-389.005 5978.3 0
0 0 1752.38

-5255.49 2858.72 0
2858.72 7347.31 0
0 0 627.546

244.406 1198.27 0
1198.27 6562.78 0
0 0 2042.16

2170.33 884.971 0
884.971 98.4378 0
0 0 680.629

1464.98 3649.67 0
3649.67 7511.26 0
0 0 2692.87

-3724.78 1731.91 0
1731.91 468.268 0
0 0 -976.954

1457.7 5694.78 0
5694.78 6565.08 0
0 0 2406.83

4690.56 5205.44 0
5205.44 8184 0
0 0 3862.37

-3043.02 3100.74 0
3100.74 227.483 0
0 0 -844.661

4194.2 2465.75 0
2465.75 4523.11 0
0 0 2615.19

1767.15 2939.45 0
2939.45 -507.656 0
0 0 377.848

4778.26 2148.69 0
2148.69 7165.61 0
0 0 3583.16

2248.09 4062.33 0
4062.33 5553.51 0
0 0 2340.48

-2760.45 2370.57 0
2370.57 676.138 0
0 0 -625.295

5325.01 814.379 0
814.379 5762.82 0
0 0 3326.35

5952.86 -409.901 0
-409.901 4874.39 0
0 0 3248.17

8649.86 260.727 0
260.727 2276.59 0
0 0 3277.93

195.902 6409.45 0
6409.45 -1355.33 0
0 0 -347.829

3196.53 8091.3 0
8091.3 5367.83 0
0 0 2569.31

-5340.57 1615.8 0
1615.8 3321.69 0
0 0 -605.664

-8055.77 4827.65 0
4827.65 4035.86 0
0 0 -1205.97

746.671 9979.81 0
9979.81 4912.59 0
0 0 1697.78

-4045.83 7149.58 0
7149.58 -1766.7 0
0 0 -1743.76

7736.05 4804.23 0
4804.23 1231.05 0
0 0 2690.13

1573.49 5765.54 0
5765.54 10445.5 0
0 0 3605.71

1242.14 2050.65 0
2050.65 1270.44 0
0 0 753.775

-2416.13 3916.2 0
3916.2 4327.62 0
0 0 573.447

7264.83 4838.12 0
4838.12 5956.94 0
0 0 3966.53

3149.03 3576.87 0
3576.87 -4389.89 0
0 0 -372.256

565.086 -1710.84 0
-1710.84 5064.44 0
0 0 1688.86

-1827.31 -604.796 0
-604.796 2352.52 0
0 0 157.562

-1640.61 -1143.31 0
-1143.31 5049.02 0
0 0 1022.52

-1356.49 -2947.39 0
-2947.39 -688.629 0
0 0 -613.535

3125.35 -762.314 0
-762.314 4957.84 0
0 0 2424.96

6004.08 4463.05 0
4463.05 -1013.58 0
0 0 1497.15

9598.25 -2269.5 0
-2269.5 -110.607 0
0 0 2846.29

4483.99 3270.28 0
3270.28 2380.41 0
0 0 2059.32

1464.51 -339.701 0
-339.701 -3617.65 0
0 0 -645.942

4857.51 -171.242 0
-171.242 4398.63 0
0 0 2776.84

4051.24 -1769.3 0
-1769.3 2531.25 0
0 0 1974.75

-743.617 -287.429 0
-287.429 -83.754 0
0 0 -248.211

2634.71 1528.99 0
1528.99 6137.73 0
0 0 2631.73

953.94 -191.56 0
-191.56 2045.3 0
0 0 899.772

1416.5 2930.1 0
2930.1 -8025.55 0
0 0 -1982.72

3121.31 -1201.89 0
-1201.89 -2428.2 0
0 0 207.931

TENSORS velocity_gradient double
4.68107 22.6754 0
-22.7419 -0.0579061 0
0 0 0

-3.04119 22.7995 0
-20.6084 3.03601 0
0 0 0

3.85913 24.3864 0
-26.7201 -2.12597 0
0 0 0

-3.87559 25.2266 0
-19.6376 1.12689 0
0 0 0

-6.46992 21.0434 0
-19.7719 2.88953 0
0 0 0

-2.08783 18.9258 0
-13.8838 1.77573 0
0 0 0

-4.60499 23.0939 0
-19.2031 0.88368 0
0 0 0

1.68001 20.3713 0
-8.53901 0.655853 0
0 0 0

-0.662638 16.2346 0
-12.156 -2.07455 0
0 0 0

0.443389 14.1551 0
-14.2704 -4.51632 0
0 0 0

2.09694 16.5293 0
-7.99604 -2.32308 0
0 0 0

0.400027 14.1127 0
-17.8597 -4.50391 0
0 0 0

1.01261 14.6824 0
-14.2382 -0.449237 0
0 0 0

-1.12516 15.7007 0
-17.0095 4.13495 0
0 0 0

0.254477 14.7114 0
-18.9778 -0.268188 0
0 0 0

-3.70435 15.812 0
-22.2654 4.47198 0
0 0 0

2.16716 24.9331 0
-30.8024 -2.17933 0
0 0 0

-3.18636 25.8812 0
-18.0424 0.55648 0
0 0 0

0.754298 19.9232 0
-33.444 -0.76741 0
0 0 0

-1.97715 20.0706 0
-16.98 -2.16032 0
0 0 0

-3.24447 24.638 0
-18.0956 -0.581205 0
0 0 0

1.04569 24.2119 0
-7.2892 -1.32213 0
0 0 0

-1.97467 19.0291 0
-16.978 -2.92019 0
0 0 0

-0.602722 20.4669 0
-7.69097 -2.47949 0
0 0 0

1.24696 26.0101 0
-7.25897 -1.05204 0
0 0 0

1.52653 26.7791 0
-19.5809 -1.04451 0
0 0 0

-0.493751 24.0378 0
-7.58629 -1.33644 0
0 0 0

4.04835 26.6026 0
-19.9293 -1.11267 0
0 0 0

1.1614 24.3402 0
-20.9174 -1.88704 0
0 0 0

-3.78308 21.2965 0
-25.3579 -2.56658 0
0 0 0

3.72407 24.1664 0
-20.0403 -1.94651 0
0 0 0

0.721948 20.9704 0
-25.2383 -2.57523 0
0 0 0

0.563445 18.7515 0
-30.7386 -0.42579 0
0 0 0

-0.957451 18.5869 0
-16.2728 -2.84015 0
0 0 0

0.680624 18.274 0
-27.3171 -2.20356 0
0 0 0

0.375526 16.8947 0
-15.9454 -5.25103 0
0 0 0

-1.00613 17.6175 0
-16.3058 -3.49781 0
0 0 0

-0.503021 16.8404 0
-8.79638 -3.59527 0
0 0 0

0.291507 14.7683 0
-15.9434 -4.43303 0
0 0 0

-0.0114079 13.6782 0
-10.5775 -3.47574 0
0 0 0

-0.558992 16.4953 0
-8.60827 -2.43566 0
0 0 0

3.19769 17.0387 0
-19.724 -1.63915 0
0 0 0

-0.127594 14.3902 0
-9.98429 -1.71958 0
0 0 0

0.708999 16.761 0
-19.798 -1.56275 0
0 0 0

3.4198 19.3576 0
-19.7163 -1.55862 0
0 0 0

3.31416 20.9219 0
-23.0988 -2.89894 0
0 0 0

1.0094 19.3253 0
-19.8 -1.55975 0
0 0 0

3.35233 20.9206 0
-18.9593 -3.03684 0
0 0 0

1.6243 18.135 0
-23.234 -2.78451 0
0 0 0

2.77532 16.7351 0
-16.6572 -5.26643 0
0 0 0

1.51732 17.0756 0
-20.5113 -5.01058 0
0 0 0

4.94682 18.3014 0
-17.1453 -4.51235 0
0 0 0

2.76838 14.2962 0
-16.6551 -4.5381 0
0 0 0

0.969345 12.3052 0
-12.9543 -3.07613 0
0 0 0

4.91782 17.061 0
-17.1507 -4.74312 0
0 0 0

2.51891 13.8612 0
-15.4345 -3.92205 0
0 0 0

0.767974 11.208 0
-12.4154 -0.139486 0
0 0 0

0.0755841 10.6214 0
-18.4739 0.813404 0
0 0 0

2.05648 11.008 0
-15.0721 -1.1391 0
0 0 0

0.229954 9.80669 0
-16.7638 -0.0911974 0
0 0 0

0.0870591 10.7072 0
-18.7034 -0.901593 0
0 0 0

2.33298 11.7326 0
-17.0773 -1.76514 0
0 0 0

0.00328154 10.7145 0
-17.0281 -1.04801 0
0 0 0

0.249527 11.9949 0
-17.2232 -1.74676 0
0 0 0

SCALARS active double 1
LOOKUP_TABLE default
1
1
1
1
1
1
1
1
1
1
1
1
1
1
1
1
1
1
1
1
1
1
1
1
1
1
1
1
1
1
1
1
1
1
1
1
1
1
1
1
1
1
1
1
1
1
1
1
1
1
1
1
1
1
1
1
1
1
1
1
1
1
1
1
SCALARS extent double 1
LOOKUP_TABLE default
0.0125
0.0125
0.0125
0.0125
0.0125
0.0125
0.0125
0.0125
0.0125
0.0125
0.0125
0.0125
0.0125
0.0125
0.0125
0.0125
0.0125
0.0125
0.0125
0.0125
0.0125
0.0125
0.0125
0.0125
0.0125
0.0125
0.0125
0.0125
0.0125
0.0125
0.0125
0.0125
0.0125
0.0125
0.0125
0.0125
0.0125
0.0125
0.0125
0.0125
0.0125
0.0125
0.0125
0.0125
0.0125
0.0125
0.0125
0.0125
0.0125
0.0125
0.0125
0.0125
0.0125
0.0125
0.0125
0.0125
0.0125
0.0125
0.0125
0.0125
0.0125
0.0125
0.0125
0.0125
SCALARS pressure double 1
LOOKUP_TABLE default
-1370.81
-1357.7
1897.46
-1811.96
389.469
-1148.53
2225.38
655.122
-2988.3
-1303.58
-1976.5
-30.6379
-1390.38
-1356.17
1053.41
-235.986
-556.209
-1200.02
-2130.62
-2531.22
-906.455
-2949.78
-983.131
-3889.71
1411.16
-3476.54
-5578.98
1220.07
-3777.5
-545.781
-5175.67
-3380.7
903.204
-4804.73
-4691.8
-4734.79
502.42
-3711.22
874.849
1741.96
-2452.35
2518.76
-3885.74
-5208.24
-1088.79
-828.312
-5729.43
537.703
-2439.46
-227.59
-1476.98
886.218
-3502.71
-2162.55
-4111.31
-2974.57
933.028
-4011
-2852.41
358.527
-3801.39
-1299.67
2863.92
-300.345
SCALARS density double 1
LOOKUP_TABLE default
983.685
983.84
1023.03
978.491
1004.68
986.312
1027.06
1007.89
964.776
984.479
976.561
999.632
983.454
983.858
1012.72
997.172
993.348
985.703
974.757
970.082
989.181
965.222
988.272
954.396
1017.08
959.14
935.244
1014.75
955.682
993.472
939.781
960.244
1010.9
943.974
945.254
944.766
1006.05
956.442
1010.55
1021.12
971.001
1030.69
954.442
939.414
987.02
990.109
933.557
1006.47
971.151
997.273
982.432
1010.69
958.839
974.383
951.862
964.935
1011.26
953.008
966.35
1004.31
955.408
984.525
1034.96
996.402
