# vtk DataFile Version 3.0
Frame: 23, Time: 0.384
ASCII
DATASET UNSTRUCTURED_GRID
POINTS 64 double
0.373161 0.0670094 0 
0.373455 0.0935036 0 
0.39704 0.0700867 0 
0.39781 0.096249 0 
0.375718 0.12099 0 
0.375699 0.142916 0 
0.40119 0.12191 0 
0.401169 0.145031 0 
0.37397 0.165854 0 
0.368636 0.189095 0 
0.399337 0.17003 0 
0.39341 0.193838 0 
0.366509 0.215977 0 
0.363678 0.241116 0 
0.391386 0.219938 0 
0.388005 0.244547 0 
0.419747 0.0745297 0 
0.42182 0.100674 0 
0.443415 0.07413 0 
0.444305 0.100649 0 
0.426247 0.126273 0 
0.425334 0.15038 0 
0.45089 0.126082 0 
0.449484 0.150544 0 
0.422332 0.175574 0 
0.417426 0.198718 0 
0.446537 0.176888 0 
0.443684 0.20179 0 
0.415662 0.222754 0 
0.413268 0.249629 0 
0.441046 0.226521 0 
0.438714 0.251651 0 
0.466841 0.0727504 0 
0.466499 0.0991336 0 
0.489884 0.0731856 0 
0.490672 0.100292 0 
0.473651 0.125001 0 
0.473412 0.150415 0 
0.497306 0.125575 0 
0.498768 0.150617 0 
0.471205 0.177935 0 
0.46892 0.203447 0 
0.497709 0.178354 0 
0.495848 0.20271 0 
0.465689 0.229197 0 
0.464427 0.253866 0 
0.492263 0.227303 0 
0.489856 0.254374 0 
0.513316 0.0701555 0 
0.512831 0.0970749 0 
0.537698 0.0731608 0 
0.538778 0.0967119 0 
0.519557 0.120486 0 
0.521518 0.14631 0 
0.544608 0.118703 0 
0.546098 0.145935 0 
0.521885 0.175652 0 
0.52079 0.202386 0 
0.546772 0.177198 0 
0.545662 0.205079 0 
0.517021 0.228609 0 
0.514481 0.256272 0 
0.541858 0.231197 0 
0.542011 0.255589 0 
CELLS 64 128
1 0
1 1
1 2
1 3
1 4
1 5
1 6
1 7
1 8
1 9
1 10
1 11
1 12
1 13
1 14
1 15
1 16
1 17
1 18
1 19
1 20
1 21
1 22
1 23
1 24
1 25
1 26
1 27
1 28
1 29
1 30
1 31
1 32
1 33
1 34
1 35
1 36
1 37
1 38
1 39
1 40
1 41
1 42
1 43
1 44
1 45
1 46
1 47
1 48
1 49
1 50
1 51
1 52
1 53
1 54
1 55
1 56
1 57
1 58
1 59
1 60
1 61
1 62
1 63
CELL_TYPES 64
1
1
1
1
1
1
1
1
1
1
1
1
1
1
1
1
1
1
1
1
1
1
1
1
1
1
1
1
1
1
1
1
1
1
1
1
1
1
1
1
1
1
1
1
1
1
1
1
1
1
1
1
1
1
1
1
1
1
1
1
1
1
1
1
POINT_DATA 64
VECTORS displacement double
-0.0393389 -0.345491 0 
-0.0390449 -0.343996 0 
-0.04046 -0.342413 0 
-0.0396902 -0.341251 0 
-0.0367821 -0.34151 0 
-0.0368011 -0.344584 0 
-0.0363099 -0.34059 0 
-0.0363315 -0.342469 0 
-0.0385304 -0.346646 0 
-0.0438638 -0.348405 0 
-0.0381634 -0.34247 0 
-0.0440904 -0.343662 0 
-0.0459906 -0.346523 0 
-0.0488216 -0.346384 0 
-0.0461138 -0.342562 0 
-0.0494951 -0.342953 0 
-0.0427529 -0.33797 0 
-0.0406803 -0.336826 0 
-0.0440854 -0.33837 0 
-0.0431948 -0.336851 0 
-0.0362528 -0.336227 0 
-0.0371658 -0.33712 0 
-0.0366098 -0.336418 0 
-0.038016 -0.336956 0 
-0.0401683 -0.336926 0 
-0.0450737 -0.338782 0 
-0.0409631 -0.335612 0 
-0.0438159 -0.33571 0 
-0.0468375 -0.339746 0 
-0.0492321 -0.337871 0 
-0.0464543 -0.335979 0 
-0.048786 -0.335849 0 
-0.0456594 -0.33975 0 
-0.0460009 -0.338366 0 
-0.0476158 -0.339314 0 
-0.0468285 -0.337208 0 
-0.0388488 -0.337499 0 
-0.0390884 -0.337085 0 
-0.0401939 -0.336925 0 
-0.0387323 -0.336883 0 
-0.0412946 -0.334565 0 
-0.0435805 -0.334053 0 
-0.0397906 -0.334146 0 
-0.0416522 -0.33479 0 
-0.0468108 -0.333303 0 
-0.0480727 -0.333634 0 
-0.0452372 -0.335197 0 
-0.0476439 -0.333126 0 
-0.049184 -0.342344 0 
-0.0496693 -0.340425 0 
-0.0498024 -0.339339 0 
-0.0487217 -0.340788 0 
-0.0429425 -0.342014 0 
-0.0409819 -0.34119 0 
-0.0428922 -0.343797 0 
-0.041402 -0.341565 0 
-0.0406149 -0.336848 0 
-0.0417099 -0.335114 0 
-0.0407283 -0.335302 0 
-0.041838 -0.332421 0 
-0.0454786 -0.333891 0 
-0.0480188 -0.331228 0 
-0.0456421 -0.331303 0 
-0.0454888 -0.331911 0 
VECTORS velocity double
-0.897754 1.39357 0 
-0.525505 1.14631 0 
-0.232875 1.10344 0 
-0.151131 1.64378 0 
0.00187082 0.638389 0 
-0.0317522 0.357755 0 
0.387494 0.904926 0 
0.191267 1.05023 0 
-0.0113288 0.0302586 0 
-0.701012 -0.76555 0 
-0.0952801 1.36215 0 
-0.451731 0.687708 0 
-0.729851 -0.952222 0 
-0.764617 -1.03774 0 
-0.516291 0.43425 0 
-1.42028 0.654649 0 
-0.25792 1.07863 0 
-0.166088 1.4612 0 
-0.133887 0.978298 0 
-0.159241 1.38629 0 
0.695407 0.815001 0 
0.252706 1.18745 0 
0.880703 0.853463 0 
0.0116751 0.988633 0 
-0.68258 1.34125 0 
-0.543709 0.612567 0 
-1.53929 0.985859 0 
-1.08321 0.16443 0 
-0.127903 0.440891 0 
-1.35286 0.766809 0 
0.111876 0.560318 0 
-1.40255 0.385989 0 
-0.142341 1.9483 0 
0.201692 1.82792 0 
-0.259276 1.9699 0 
0.344387 2.17307 0 
1.27535 1.17774 0 
0.176014 1.0457 0 
1.13537 1.04617 0 
-0.240819 0.627723 0 
-1.34961 0.883837 0 
-1.12132 0.149249 0 
-1.20187 0.815792 0 
-0.671383 0.516925 0 
-0.526381 0.0225027 0 
-1.62003 0.704235 0 
-0.584259 0.428424 0 
-2.07697 1.80691 0 
0.549454 0.448031 0 
0.418405 1.43999 0 
0.175093 0.804097 0 
0.314843 1.30202 0 
0.95824 0.795803 0 
-0.220367 1.05722 0 
0.819669 1.13 0 
-0.367495 1.39269 0 
-1.1359 1.85234 0 
-0.590966 1.785 0 
-1.24103 2.23556 0 
-0.935105 2.19215 0 
-0.520957 1.19981 0 
-2.40165 1.58708 0 
-1.24162 1.40958 0 
-1.57099 2.09558 0 
SCALARS mass double 1
LOOKUP_TABLE default
0.625
0.625
0.625
0.625
0.625
0.625
0.625
0.625
0.625
0.625
0.625
0.625
0.625
0.625
0.625
0.625
0.625
0.625
0.625
0.625
0.625
0.625
0.625
0.625
0.625
0.625
0.625
0.625
0.625
0.625
0.625
0.625
0.625
0.625
0.625
0.625
0.625
0.625
0.625
0.625
0.625
0.625
0.625
0.625
0.625
0.625
0.625
0.625
0.625
0.625
0.625
0.625
0.625
0.625
0.625
0.625
0.625
0.625
0.625
0.625
0.625
0.625
0.625
0.625
SCALARS volume double 1
LOOKUP_TABLE default
0.000596084
0.000710653
0.000570643
0.000656057
0.000606455
0.000588048
0.000600908
0.000593279
0.000609084
0.000613543
0.000605077
0.000601258
0.000698924
0.000566485
0.000649299
0.000590393
0.000587559
0.000662882
0.000601314
0.000646723
0.000625
0.00063976
0.000568481
0.000604004
0.000630384
0.00058935
0.000608177
0.000634382
0.000657004
0.000631747
0.000620071
0.000639395
0.000613374
0.00066
0.000572854
0.000628645
0.000603767
0.000682214
0.000562474
0.000608548
0.000714468
0.00066156
0.000658893
0.000594258
0.000641015
0.000620446
0.000651326
0.000645452
0.000650949
0.000645367
0.000631564
0.000581997
0.000587829
0.000654097
0.000607502
0.000727061
0.000703997
0.0006431
0.000714762
0.000630109
0.000673589
0.000666979
0.000651174
0.000609412
VECTORS momentum double
-0.561096 0.87098 0 
-0.328441 0.716441 0 
-0.145547 0.68965 0 
-0.0944568 1.02736 0 
0.00116927 0.398993 0 
-0.0198451 0.223597 0 
0.242184 0.565578 0 
0.119542 0.656393 0 
-0.00708047 0.0189116 0 
-0.438133 -0.478469 0 
-0.05955 0.851341 0 
-0.282332 0.429817 0 
-0.456157 -0.595139 0 
-0.477886 -0.64859 0 
-0.322682 0.271406 0 
-0.887677 0.409155 0 
-0.1612 0.674141 0 
-0.103805 0.913251 0 
-0.0836791 0.611436 0 
-0.0995255 0.866432 0 
0.434629 0.509376 0 
0.157941 0.742153 0 
0.550439 0.533414 0 
0.00729691 0.617896 0 
-0.426612 0.838279 0 
-0.339818 0.382854 0 
-0.962054 0.616162 0 
-0.677007 0.102769 0 
-0.0799393 0.275557 0 
-0.845537 0.479256 0 
0.0699226 0.350199 0 
-0.876595 0.241243 0 
-0.088963 1.21768 0 
0.126058 1.14245 0 
-0.162048 1.23119 0 
0.215242 1.35817 0 
0.797091 0.736086 0 
0.110009 0.65356 0 
0.709604 0.653854 0 
-0.150512 0.392327 0 
-0.843508 0.552398 0 
-0.700823 0.0932808 0 
-0.751172 0.50987 0 
-0.419614 0.323078 0 
-0.328988 0.0140642 0 
-1.01252 0.440147 0 
-0.365162 0.267765 0 
-1.29811 1.12932 0 
0.343409 0.28002 0 
0.261503 0.899993 0 
0.109433 0.502561 0 
0.196777 0.813762 0 
0.5989 0.497377 0 
-0.137729 0.660764 0 
0.512293 0.706251 0 
-0.229684 0.870434 0 
-0.709936 1.15771 0 
-0.369354 1.11562 0 
-0.775644 1.39723 0 
-0.584441 1.37009 0 
-0.325598 0.749881 0 
-1.50103 0.991925 0 
-0.776013 0.880987 0 
-0.981867 1.30974 0 
VECTORS body_force double
0 -9.81 0 
0 -9.81 0 
0 -9.81 0 
0 -9.81 0 
0 -9.81 0 
0 -9.81 0 
0 -9.81 0 
0 -9.81 0 
0 -9.81 0 
0 -9.81 0 
0 -9.81 0 
0 -9.81 0 
0 -9.81 0 
0 -9.81 0 
0 -9.81 0 
0 -9.81 0 
0 -9.81 0 
0 -9.81 0 
0 -9.81 0 
0 -9.81 0 
0 -9.81 0 
0 -9.81 0 
0 -9.81 0 
0 -9.81 0 
0 -9.81 0 
0 -9.81 0 
0 -9.81 0 
0 -9.81 0 
0 -9.81 0 
0 -9.81 0 
0 -9.81 0 
0 -9.81 0 
0 -9.81 0 
0 -9.81 0 
0 -9.81 0 
0 -9.81 0 
0 -9.81 0 
0 -9.81 0 
0 -9.81 0 
0 -9.81 0 
0 -9.81 0 
0 -9.81 0 
0 -9.81 0 
0 -9.81 0 
0 -9.81 0 
0 -9.81 0 
0 -9.81 0 
0 -9.81 0 
0 -9.81 0 
0 -9.81 0 
0 -9.81 0 
0 -9.81 0 
0 -9.81 0 
0 -9.81 0 
0 -9.81 0 
0 -9.81 0 
0 -9.81 0 
0 -9.81 0 
0 -9.81 0 
0 -9.81 0 
0 -9.81 0 
0 -9.81 0 
0 -9.81 0 
0 -9.81 0 
TENSORS cauchy_stress double
9.9842 -4704.39 0
-4704.39 -9119.52 0
0 0 -2732.86

8418.95 15341.3 0
15341.3 16279.6 0
0 0 7409.58

-5882.14 -4087.55 0
-4087.55 -11615.4 0
0 0 -5249.26

383.533 13224.7 0
13224.7 8942.49 0
0 0 2797.81

257.205 -689.193 0
-689.193 -6049.87 0
0 0 -1737.8

-532.535 4764.27 0
4764.27 -11187.3 0
0 0 -3515.94

-828.316 1445.98 0
1445.98 -6731.25 0
0 0 -2267.87

-4596.79 8843.19 0
8843.19 -5420.01 0
0 0 -3005.04

4347.4 -389.704 0
-389.704 -9308.17 0
0 0 -1488.23

-147.011 -647.313 0
-647.313 -3411.05 0
0 0 -1067.42

-7353.61 3141.88 0
3141.88 1123.49 0
0 0 -1869.04

-3818.05 3125.3 0
3125.3 -3629.53 0
0 0 -2234.27

8770.31 -391.545 0
-391.545 12727.9 0
0 0 6449.45

-8400.79 1157.9 0
1157.9 -10503.4 0
0 0 -5671.25

382.66 2498.46 0
2498.46 6952.29 0
0 0 2200.49

-1198.71 -928.002 0
-928.002 -9755.8 0
0 0 -3286.35

-2912.82 -4429.86 0
-4429.86 -8966.97 0
0 0 -3563.94

1738.64 19165.1 0
19165.1 9577.72 0
0 0 3394.91

-2804.36 -8845.33 0
-8845.33 -4625.42 0
0 0 -2228.93

-2025.08 18139.9 0
18139.9 8595.69 0
0 0 1971.18

3536.12 5496.86 0
5496.86 -3536.11 0
0 0 0.00380855

3042.82 6151.25 0
6151.25 1445.79 0
0 0 1346.58

-9259.69 -1092.97 0
-1092.97 -8967.81 0
0 0 -5468.25

-6691.22 -3384.19 0
-3384.19 119.998 0
0 0 -1971.37

-576.224 3409.71 0
3409.71 2225.7 0
0 0 494.843

3117.14 -1575.46 0
-1575.46 -14411.7 0
0 0 -3388.37

-5903.66 -694.34 0
-694.34 656.434 0
0 0 -1574.17

3528.44 -3666.24 0
-3666.24 -662.99 0
0 0 859.636

4638.64 3151.24 0
3151.24 4964.97 0
0 0 2881.08

363.37 -2576.4 0
-2576.4 1701.6 0
0 0 619.491

-130.57 -698.353 0
-698.353 -1392.16 0
0 0 -456.82

2096.83 1086.79 0
1086.79 2282.24 0
0 0 1313.72

1108.44 -3158.32 0
-3158.32 -4719.26 0
0 0 -1083.25

1851.8 16833.6 0
16833.6 8626.69 0
0 0 3143.55

-10806.2 -8453.99 0
-8453.99 -5947.87 0
0 0 -5026.22

-3371.96 15397.5 0
15397.5 4490.22 0
0 0 335.477

-5443.07 5834.4 0
5834.4 -1203.83 0
0 0 -1994.07

7463.85 2537.08 0
2537.08 9380.63 0
0 0 5053.34

-14816.5 1896.18 0
1896.18 -5454.16 0
0 0 -6081.19

-7371.58 -6413.2 0
-6413.2 2241.7 0
0 0 -1538.96

10555.9 5972.1 0
5972.1 15172.3 0
0 0 7718.45

4124.16 2701.28 0
2701.28 6808.31 0
0 0 3279.74

1868.78 -8645.8 0
-8645.8 8286.92 0
0 0 3046.71

-14.9066 -11881.8 0
-11881.8 -9684.6 0
0 0 -2909.85

173.949 -1723.25 0
-1723.25 4691.66 0
0 0 1459.68

7570.27 1557.57 0
1557.57 -8976.64 0
0 0 -421.91

3854.85 -10586.7 0
-10586.7 4079.35 0
0 0 2380.26

-1707.15 -930.653 0
-930.653 7899.38 0
0 0 1857.67

3008.32 -10507.1 0
-10507.1 4814.63 0
0 0 2346.88

1951.59 7677.99 0
7677.99 4215.23 0
0 0 1850.05

1714.13 4952.61 0
4952.61 294.91 0
0 0 602.712

297.971 10922.3 0
10922.3 -14006.7 0
0 0 -4112.63

-7575.33 -2248.75 0
-2248.75 -4216.17 0
0 0 -3537.45

-2516.67 -1604.39 0
-1604.39 11267.5 0
0 0 2625.26

-1854.93 3500.65 0
3500.65 -3605.99 0
0 0 -1638.28

5413.81 1538.7 0
1538.7 23674.4 0
0 0 8726.46

4179.89 876.03 0
876.03 18709 0
0 0 6866.68

721.748 1214.02 0
1214.02 4768.35 0
0 0 1647.03

2311.02 -121.399 0
-121.399 23496.2 0
0 0 7742.17

-3848.57 -6080.13 0
-6080.13 5414.18 0
0 0 469.685

2127.43 1411.54 0
1411.54 12270.2 0
0 0 4319.3

2260.72 6389.92 0
6389.92 10240.6 0
0 0 3750.4

2723.41 -8795.77 0
-8795.77 5166.08 0
0 0 2366.85

5642.95 857.878 0
857.878 -10500.1 0
0 0 -1457.14

TENSORS velocity_gradient double
6.43867 4.56607 0
-3.40874 -3.37038 0
0 0 0

5.30905 4.55877 0
-0.0352308 -3.34859 0
0 0 0

5.84045 3.71324 0
-0.703692 -0.651727 0
0 0 0

5.36078 3.55041 0
1.64631 -1.22461 0
0 0 0

3.73656 3.73655 0
5.237 -10.4397 0
0 0 0

2.35943 3.74286 0
9.98566 -10.4615 0
0 0 0

3.31707 1.85362 0
4.1929 -5.91074 0
0 0 0

0.753847 1.49013 0
5.8209 -6.00069 0
0 0 0

1.69941 -9.5824 0
13.69 -11.546 0
0 0 0

1.42867 -9.52389 0
16.8058 -12.2193 0
0 0 0

-0.635753 -10.1658 0
8.31125 -8.7387 0
0 0 0

1.31888 -9.8133 0
17.2427 -8.95701 0
0 0 0

0.644115 -7.95089 0
19.1576 -3.90945 0
0 0 0

-0.387083 -7.84362 0
20.5753 -4.05692 0
0 0 0

0.501705 -8.96579 0
19.3534 -2.51424 0
0 0 0

-0.467592 -8.61492 0
20.4118 -1.79289 0
0 0 0

4.85891 4.34153 0
4.9835 -0.768996 0
0 0 0

5.50493 2.00074 0
4.01901 -3.14204 0
0 0 0

4.83547 5.40763 0
5.00315 -1.66247 0
0 0 0

5.53074 1.1677 0
3.89602 -3.83182 0
0 0 0

2.45385 -1.53079 0
3.26405 -6.00651 0
0 0 0

-0.941549 -6.55917 0
2.50578 -7.60162 0
0 0 0

2.53427 -5.12349 0
1.92879 -6.53331 0
0 0 0

-0.937424 -9.64184 0
2.12193 -8.28454 0
0 0 0

-3.90424 -12.425 0
1.19101 -9.39085 0
0 0 0

-6.02004 -10.2325 0
0.141723 -6.26853 0
0 0 0

-3.32591 -14.9603 0
2.10853 -10.4254 0
0 0 0

-5.76185 -8.4599 0
0.611241 -3.96366 0
0 0 0

-4.16686 -7.40215 0
0.997873 -1.18661 0
0 0 0

-1.90601 -7.03688 0
2.73685 2.08471 0
0 0 0

-3.73738 -4.47393 0
1.19889 0.183944 0
0 0 0

-1.97772 -8.46322 0
2.94607 6.29241 0
0 0 0

6.23656 5.91017 0
-0.681313 -1.25111 0
0 0 0

6.20947 1.55542 0
0.320545 -2.92017 0
0 0 0

6.24207 6.19035 0
-0.663473 -0.345237 0
0 0 0

6.12338 -1.12651 0
0.35373 -2.65724 0
0 0 0

2.7467 -8.73812 0
0.878735 -6.25083 0
0 0 0

-0.903641 -11.6827 0
1.67321 -6.89059 0
0 0 0

1.21192 -12.3446 0
1.21767 -5.41867 0
0 0 0

-2.00367 -13.6861 0
4.49801 -4.63375 0
0 0 0

-1.24525 -15.3038 0
5.07175 -7.92218 0
0 0 0

-1.61312 -8.56509 0
8.68828 0.423707 0
0 0 0

-1.97744 -15.0523 0
8.48288 -4.11807 0
0 0 0

-1.8392 -11.1758 0
10.7281 3.17875 0
0 0 0

-4.53887 -5.59701 0
12.6973 3.24314 0
0 0 0

-8.07787 -13.8231 0
13.8671 5.03292 0
0 0 0

-4.26711 -8.86842 0
12.3488 7.4379 0
0 0 0

-8.10502 -19.2823 0
13.8471 -2.15081 0
0 0 0

1.57986 4.94293 0
-10.5414 2.70237 0
0 0 0

-1.19834 2.00881 0
-5.02787 1.74914 0
0 0 0

1.23693 2.36485 0
-9.8836 7.6475 0
0 0 0

-1.18143 -0.157388 0
-5.08139 7.33503 0
0 0 0

-2.49122 -13.797 0
0.772169 -0.743793 0
0 0 0

-3.50137 -13.9736 0
7.45784 -0.0768883 0
0 0 0

-2.80021 -14.9291 0
1.1266 5.55745 0
0 0 0

-6.80057 -15.233 0
6.76931 5.42388 0
0 0 0

-3.33038 -14.6778 0
13.8408 0.626563 0
0 0 0

-2.76154 -11.121 0
17.7032 1.95191 0
0 0 0

-5.00525 -13.359 0
11.9906 5.78409 0
0 0 0

-0.554398 -7.95236 0
16.2614 -0.856039 0
0 0 0

-1.54834 -8.77909 0
12.2797 3.88503 0
0 0 0

0.0965215 -21.5338 0
10.3083 1.89503 0
0 0 0

-1.43498 -7.54574 0
11.7021 -2.39904 0
0 0 0

0.0249859 -17.9601 0
10.1194 15.2482 0
0 0 0

SCALARS active double 1
LOOKUP_TABLE default
1
1
1
1
1
1
1
1
1
1
1
1
1
1
1
1
1
1
1
1
1
1
1
1
1
1
1
1
1
1
1
1
1
1
1
1
1
1
1
1
1
1
1
1
1
1
1
1
1
1
1
1
1
1
1
1
1
1
1
1
1
1
1
1
SCALARS extent double 1
LOOKUP_TABLE default
0.0125
0.0125
0.0125
0.0125
0.0125
0.0125
0.0125
0.0125
0.0125
0.0125
0.0125
0.0125
0.0125
0.0125
0.0125
0.0125
0.0125
0.0125
0.0125
0.0125
0.0125
0.0125
0.0125
0.0125
0.0125
0.0125
0.0125
0.0125
0.0125
0.0125
0.0125
0.0125
0.0125
0.0125
0.0125
0.0125
0.0125
0.0125
0.0125
0.0125
0.0125
0.0125
0.0125
0.0125
0.0125
0.0125
0.0125
0.0125
0.0125
0.0125
0.0125
0.0125
0.0125
0.0125
0.0125
0.0125
0.0125
0.0125
0.0125
0.0125
0.0125
0.0125
0.0125
0.0125
SCALARS pressure double 1
LOOKUP_TABLE default
3947.47
-10702.7
7582.26
-4041.28
2510.16
5078.58
3275.81
4340.61
2149.67
1541.83
2699.72
3227.28
-9315.87
8191.8
-3178.48
4746.95
5147.91
-4903.76
3219.57
-2847.27
-0.00550123
-1945.07
7898.59
2847.53
-714.773
4894.31
2273.8
-1241.7
-4161.56
-894.82
659.851
-1897.6
1564.69
-4540.68
7260.1
-484.578
2880.32
-7299.27
8783.95
2222.95
-11148.9
-4737.4
-4400.81
4203.12
-2108.43
609.425
-3438.16
-2683.3
-3389.94
-2672.29
-870.584
5940.47
5109.65
-3792.04
2366.4
-12604.9
-9918.54
-2379.04
-11183.1
-678.433
-6238.98
-5417.24
-3418.78
2104.76
SCALARS density double 1
LOOKUP_TABLE default
1048.51
879.473
1095.25
952.662
1030.58
1062.84
1040.09
1053.47
1026.13
1018.67
1032.93
1039.49
894.232
1103.3
962.576
1058.62
1063.72
942.853
1039.39
966.41
1000
976.93
1099.42
1034.76
991.459
1060.49
1027.66
985.21
951.288
989.32
1007.95
977.486
1018.95
946.97
1091.03
994.202
1035.17
916.135
1111.16
1027.03
874.777
944.737
948.561
1051.73
975.016
1007.34
959.582
968.313
960.137
968.441
989.607
1073.89
1063.23
955.515
1028.8
859.625
887.788
971.855
874.417
991.892
927.866
937.061
959.805
1025.58
