# vtk DataFile Version 3.0
Frame: 54, Time: 0.9
ASCII
DATASET UNSTRUCTURED_GRID
POINTS 64 double
0.285038 0.0486302 0 
0.258962 0.044627 0 
0.274396 0.0711673 0 
0.248477 0.0665145 0 
0.233937 0.0418834 0 
0.207139 0.0424076 0 
0.224871 0.0637822 0 
0.197931 0.063818 0 
0.185438 0.0407311 0 
0.165019 0.0355697 0 
0.173462 0.061854 0 
0.149053 0.0560908 0 
0.138742 0.0344702 0 
0.123086 0.0279382 0 
0.121216 0.0511192 0 
0.100917 0.0410514 0 
0.263825 0.0928654 0 
0.239949 0.0880984 0 
0.260973 0.11577 0 
0.235747 0.110757 0 
0.217451 0.0859464 0 
0.191746 0.0850193 0 
0.212113 0.108916 0 
0.186859 0.106247 0 
0.165493 0.0812435 0 
0.141036 0.0752659 0 
0.160131 0.102393 0 
0.133582 0.0981349 0 
0.113889 0.0707733 0 
0.0881952 0.063808 0 
0.10721 0.0931283 0 
0.0828418 0.0882981 0 
0.257849 0.140245 0 
0.23151 0.132863 0 
0.25281 0.163411 0 
0.226738 0.155978 0 
0.206843 0.130546 0 
0.181219 0.128269 0 
0.20303 0.154117 0 
0.177226 0.153193 0 
0.1557 0.124857 0 
0.131352 0.121433 0 
0.151392 0.148357 0 
0.127751 0.146013 0 
0.105108 0.115634 0 
0.0803542 0.111852 0 
0.100625 0.141034 0 
0.0745492 0.137625 0 
0.24869 0.186255 0 
0.222923 0.179313 0 
0.242032 0.208757 0 
0.218345 0.204841 0 
0.198996 0.180037 0 
0.173645 0.177159 0 
0.194103 0.20637 0 
0.168949 0.201747 0 
0.148031 0.172253 0 
0.123602 0.170646 0 
0.144427 0.197815 0 
0.120004 0.195199 0 
0.0983195 0.165557 0 
0.0727001 0.162164 0 
0.0961127 0.189368 0 
0.0716949 0.187463 0 
CELLS 64 128
1 0
1 1
1 2
1 3
1 4
1 5
1 6
1 7
1 8
1 9
1 10
1 11
1 12
1 13
1 14
1 15
1 16
1 17
1 18
1 19
1 20
1 21
1 22
1 23
1 24
1 25
1 26
1 27
1 28
1 29
1 30
1 31
1 32
1 33
1 34
1 35
1 36
1 37
1 38
1 39
1 40
1 41
1 42
1 43
1 44
1 45
1 46
1 47
1 48
1 49
1 50
1 51
1 52
1 53
1 54
1 55
1 56
1 57
1 58
1 59
1 60
1 61
1 62
1 63
CELL_TYPES 64
1
1
1
1
1
1
1
1
1
1
1
1
1
1
1
1
1
1
1
1
1
1
1
1
1
1
1
1
1
1
1
1
1
1
1
1
1
1
1
1
1
1
1
1
1
1
1
1
1
1
1
1
1
1
1
1
1
1
1
1
1
1
1
1
POINT_DATA 64
VECTORS displacement double
-0.127462 -0.36387 0 
-0.153538 -0.392873 0 
-0.163104 -0.341333 0 
-0.189023 -0.370986 0 
-0.178563 -0.420617 0 
-0.205361 -0.445092 0 
-0.212629 -0.398718 0 
-0.239569 -0.423682 0 
-0.227062 -0.471769 0 
-0.247481 -0.50193 0 
-0.264038 -0.450646 0 
-0.288447 -0.481409 0 
-0.273758 -0.52803 0 
-0.289414 -0.559562 0 
-0.316284 -0.511381 0 
-0.336583 -0.546449 0 
-0.198675 -0.319635 0 
-0.222551 -0.349402 0 
-0.226527 -0.29673 0 
-0.251753 -0.326743 0 
-0.245049 -0.376554 0 
-0.270754 -0.402481 0 
-0.275387 -0.353584 0 
-0.300641 -0.381253 0 
-0.297007 -0.431256 0 
-0.321464 -0.462234 0 
-0.327369 -0.410107 0 
-0.353918 -0.439365 0 
-0.348611 -0.491727 0 
-0.374305 -0.523692 0 
-0.38029 -0.469372 0 
-0.404658 -0.499202 0 
-0.254651 -0.272255 0 
-0.28099 -0.304637 0 
-0.28469 -0.249089 0 
-0.310762 -0.281522 0 
-0.305657 -0.331954 0 
-0.331281 -0.359231 0 
-0.33447 -0.308383 0 
-0.360274 -0.334307 0 
-0.3568 -0.387643 0 
-0.381148 -0.416067 0 
-0.386108 -0.364143 0 
-0.409749 -0.391487 0 
-0.407392 -0.446866 0 
-0.432146 -0.475648 0 
-0.436875 -0.421466 0 
-0.462951 -0.449875 0 
-0.31381 -0.226245 0 
-0.339577 -0.258187 0 
-0.345468 -0.203743 0 
-0.369155 -0.232659 0 
-0.363504 -0.282463 0 
-0.388855 -0.310341 0 
-0.393397 -0.25613 0 
-0.418551 -0.285753 0 
-0.414469 -0.340247 0 
-0.438898 -0.366854 0 
-0.443073 -0.314685 0 
-0.467496 -0.342301 0 
-0.46418 -0.396943 0 
-0.4898 -0.425336 0 
-0.491387 -0.373132 0 
-0.515805 -0.400037 0 
VECTORS velocity double
0.302164 0.937623 0 
-0.320636 0.576384 0 
-0.510386 0.84072 0 
-0.295238 0.893751 0 
-0.0717546 0.330277 0 
-0.70844 0.327805 0 
-0.186799 0.183009 0 
-0.977427 0.273235 0 
-0.0610605 -0.188188 0 
-0.887376 -0.10935 0 
-0.227527 0.0838897 0 
-0.953215 0.394936 0 
-0.165767 0.272905 0 
-0.274299 -0.117594 0 
-0.454675 0.643065 0 
-0.635323 -0.278788 0 
-0.724298 0.274513 0 
-0.675057 0.618187 0 
-0.657889 0.414442 0 
-0.845823 0.353876 0 
-0.416479 0.0916105 0 
-0.628911 -0.105861 0 
-0.819289 -0.0310991 0 
-0.995367 -0.0185194 0 
-0.423107 -0.279736 0 
-0.787165 -0.166353 0 
-0.803421 0.2485 0 
-1.04233 0.620939 0 
-0.625676 -0.227764 0 
-0.482799 -0.460481 0 
-0.657905 0.347177 0 
-0.617035 0.0465154 0 
-0.548685 0.35715 0 
-0.744571 0.00294539 0 
-0.798391 -0.14672 0 
-0.804875 -0.139073 0 
-0.595911 -0.0250263 0 
-0.357178 0.119123 0 
-0.992185 0.100528 0 
-0.927509 0.344404 0 
-0.139672 0.218413 0 
-0.348437 0.343672 0 
-0.864955 0.21065 0 
-1.18246 0.0180277 0 
-0.616961 -0.577812 0 
-0.628074 -0.5693 0 
-0.988515 -0.0647318 0 
-0.613165 0.100957 0 
-0.423852 -0.113123 0 
-0.581551 -0.230984 0 
-0.128012 -0.354813 0 
-0.253089 -0.0500897 0 
-0.578364 -0.0833595 0 
-0.391448 0.459549 0 
-0.239659 0.069047 0 
-0.294417 0.12454 0 
-0.543257 0.0970683 0 
-1.05558 -0.417786 0 
-0.515294 -0.236462 0 
-0.297968 0.160108 0 
-0.528005 -0.214112 0 
-0.724806 0.0744462 0 
-0.59226 -0.0831087 0 
-0.389519 0.010236 0 
SCALARS mass double 1
LOOKUP_TABLE default
0.625
0.625
0.625
0.625
0.625
0.625
0.625
0.625
0.625
0.625
0.625
0.625
0.625
0.625
0.625
0.625
0.625
0.625
0.625
0.625
0.625
0.625
0.625
0.625
0.625
0.625
0.625
0.625
0.625
0.625
0.625
0.625
0.625
0.625
0.625
0.625
0.625
0.625
0.625
0.625
0.625
0.625
0.625
0.625
0.625
0.625
0.625
0.625
0.625
0.625
0.625
0.625
0.625
0.625
0.625
0.625
0.625
0.625
0.625
0.625
0.625
0.625
0.625
0.625
SCALARS volume double 1
LOOKUP_TABLE default
0.000629394
0.000571116
0.000574113
0.000597656
0.000528647
0.000552747
0.000573639
0.000556214
0.000494822
0.000482596
0.000526095
0.000566045
0.000453611
0.000377775
0.000531398
0.000541001
0.000551336
0.000563079
0.000589815
0.000620304
0.000564905
0.000555798
0.000567232
0.000578261
0.000584481
0.000579607
0.00059047
0.000619149
0.000583809
0.000622145
0.000580111
0.000639567
0.000614278
0.00059551
0.000628043
0.000600108
0.000614867
0.000623766
0.000601614
0.000616481
0.000592864
0.000608855
0.000610725
0.000632333
0.000598259
0.000617662
0.00065663
0.000620672
0.000596076
0.000643843
0.00061411
0.000610297
0.000627738
0.000621819
0.000632062
0.0006255
0.000604473
0.000618559
0.000614339
0.000637398
0.000608662
0.000629865
0.000619055
0.000636087
VECTORS momentum double
0.188853 0.586015 0 
-0.200398 0.36024 0 
-0.318991 0.52545 0 
-0.184524 0.558594 0 
-0.0448467 0.206423 0 
-0.442775 0.204878 0 
-0.11675 0.114381 0 
-0.610892 0.170772 0 
-0.0381628 -0.117617 0 
-0.55461 -0.0683435 0 
-0.142204 0.0524311 0 
-0.595759 0.246835 0 
-0.103604 0.170566 0 
-0.171437 -0.0734964 0 
-0.284172 0.401915 0 
-0.397077 -0.174243 0 
-0.452686 0.171571 0 
-0.421911 0.386367 0 
-0.41118 0.259026 0 
-0.528639 0.221173 0 
-0.260299 0.0572566 0 
-0.39307 -0.0661634 0 
-0.512056 -0.0194369 0 
-0.622104 -0.0115746 0 
-0.264442 -0.174835 0 
-0.491978 -0.103971 0 
-0.502138 0.155312 0 
-0.651458 0.388087 0 
-0.391047 -0.142352 0 
-0.301749 -0.287801 0 
-0.41119 0.216986 0 
-0.385647 0.0290721 0 
-0.342928 0.223219 0 
-0.465357 0.00184087 0 
-0.498995 -0.0917 0 
-0.503047 -0.0869205 0 
-0.372444 -0.0156415 0 
-0.223236 0.0744518 0 
-0.620116 0.0628299 0 
-0.579693 0.215253 0 
-0.0872949 0.136508 0 
-0.217773 0.214795 0 
-0.540597 0.131656 0 
-0.739036 0.0112673 0 
-0.385601 -0.361133 0 
-0.392546 -0.355813 0 
-0.617822 -0.0404574 0 
-0.383228 0.063098 0 
-0.264907 -0.0707016 0 
-0.363469 -0.144365 0 
-0.0800075 -0.221758 0 
-0.158181 -0.0313061 0 
-0.361477 -0.0520997 0 
-0.244655 0.287218 0 
-0.149787 0.0431544 0 
-0.184011 0.0778376 0 
-0.339536 0.0606677 0 
-0.659738 -0.261117 0 
-0.322059 -0.147789 0 
-0.18623 0.100067 0 
-0.330003 -0.13382 0 
-0.453004 0.0465289 0 
-0.370162 -0.051943 0 
-0.243449 0.0063975 0 
VECTORS body_force double
0 -9.81 0 
0 -9.81 0 
0 -9.81 0 
0 -9.81 0 
0 -9.81 0 
0 -9.81 0 
0 -9.81 0 
0 -9.81 0 
0 -9.81 0 
0 -9.81 0 
0 -9.81 0 
0 -9.81 0 
0 -9.81 0 
0 -9.81 0 
0 -9.81 0 
0 -9.81 0 
0 -9.81 0 
0 -9.81 0 
0 -9.81 0 
0 -9.81 0 
0 -9.81 0 
0 -9.81 0 
0 -9.81 0 
0 -9.81 0 
0 -9.81 0 
0 -9.81 0 
0 -9.81 0 
0 -9.81 0 
0 -9.81 0 
0 -9.81 0 
0 -9.81 0 
0 -9.81 0 
0 -9.81 0 
0 -9.81 0 
0 -9.81 0 
0 -9.81 0 
0 -9.81 0 
0 -9.81 0 
0 -9.81 0 
0 -9.81 0 
0 -9.81 0 
0 -9.81 0 
0 -9.81 0 
0 -9.81 0 
0 -9.81 0 
0 -9.81 0 
0 -9.81 0 
0 -9.81 0 
0 -9.81 0 
0 -9.81 0 
0 -9.81 0 
0 -9.81 0 
0 -9.81 0 
0 -9.81 0 
0 -9.81 0 
0 -9.81 0 
0 -9.81 0 
0 -9.81 0 
0 -9.81 0 
0 -9.81 0 
0 -9.81 0 
0 -9.81 0 
0 -9.81 0 
0 -9.81 0 
TENSORS cauchy_stress double
4565.1 -4984.56 0
-4984.56 -3217.8 0
0 0 404.192

-492.621 -10071.8 0
-10071.8 -16845.6 0
0 0 -5201.47

-3054.68 -7157.94 0
-7157.94 -13277.2 0
0 0 -4899.55

-5.88245 -3893.68 0
-3893.68 -8597.29 0
0 0 -2580.95

-5478.16 -16086.4 0
-16086.4 -26720.1 0
0 0 -9659.46

3853.63 -19031.7 0
-19031.7 -27479 0
0 0 -7087.6

-4107.65 -5224.65 0
-5224.65 -12383.1 0
0 0 -4947.22

-2970.81 -13396 0
-13396 -19452 0
0 0 -6726.85

-8853.13 -23875.7 0
-23875.7 -36061.2 0
0 0 -13474.3

1928.74 -27250.7 0
-27250.7 -51653.9 0
0 0 -14917.6

-9457.78 -3720.19 0
-3720.19 -23671.2 0
0 0 -9938.68

2041.83 -7476.92 0
-7476.92 -21095.4 0
0 0 -5716.06

929.426 -21145.5 0
-21145.5 -62566.4 0
0 0 -18491.1

-9178.5 -12604.6 0
-12604.6 -87639.1 0
0 0 -29045.3

-7204.67 2259.86 0
2259.86 -23995.3 0
0 0 -9359.98

-2975.16 -3951.07 0
-3951.07 -24780.6 0
0 0 -8326.72

-13862.9 -7397.88 0
-7397.88 -10253.7 0
0 0 -7234.99

-4128.24 -6973.95 0
-6973.95 -15935.6 0
0 0 -6019.15

-5906.93 -5695.82 0
-5695.82 -5236.04 0
0 0 -3342.89

5486.61 -3505.95 0
-3505.95 -6936.94 0
0 0 -435.099

-5566.72 -5775.69 0
-5775.69 -13874.5 0
0 0 -5832.36

-3424.17 -8445.26 0
-8445.26 -19142.5 0
0 0 -6770

-5674.96 -3428.44 0
-3428.44 -12975.7 0
0 0 -5595.19

1042.79 -4072.9 0
-4072.9 -15990.3 0
0 0 -4484.25

5700.84 -8953.69 0
-8953.69 -18590.8 0
0 0 -3866.98

486.021 -7984.79 0
-7984.79 -14986.2 0
0 0 -4350.06

520.008 -684.217 0
-684.217 -11449.5 0
0 0 -3278.85

5887.43 3512.69 0
3512.69 -7696.2 0
0 0 -542.631

826.11 2147.13 0
2147.13 -13937.2 0
0 0 -3933.32

385.234 923.649 0
923.649 -1265.61 0
0 0 -264.113

-3657.88 5436 0
5436 -10675.4 0
0 0 -4299.98

668.184 863.916 0
863.916 3762.47 0
0 0 1329.2

-1316.34 -370.971 0
-370.971 -2011.28 0
0 0 -998.288

908.573 -369.954 0
-369.954 -10203.4 0
0 0 -2788.44

4972.19 -1112.82 0
-1112.82 -4038.14 0
0 0 280.214

-1333.28 -2492.71 0
-2492.71 -6482.39 0
0 0 -2344.7

3471.52 -5428.19 0
-5428.19 -6614.8 0
0 0 -942.984

4932.24 -10518 0
-10518 -5312.44 0
0 0 -114.06

-2204.72 -3521.73 0
-3521.73 -5129.16 0
0 0 -2200.16

1691.55 2462.39 0
2462.39 -4330.89 0
0 0 -791.801

3507.42 -8114.34 0
-8114.34 -13658.8 0
0 0 -3045.42

2611.19 -3481.93 0
-3481.93 -7644.08 0
0 0 -1509.87

-491.403 1946.5 0
1946.5 -3951.69 0
0 0 -1332.93

1288.42 3428.8 0
3428.8 954.86 0
0 0 672.985

119.401 487.266 0
487.266 -8528.47 0
0 0 -2522.72

-1444.23 2322.23 0
2322.23 -827.024 0
0 0 -681.377

9291.01 4640.59 0
4640.59 203.076 0
0 0 2848.22

-910.138 -2715.72 0
-2715.72 -426.103 0
0 0 -400.872

-4598.96 2414.35 0
2414.35 -4513.39 0
0 0 -2733.71

4424.18 83.8771 0
83.8771 1287.94 0
0 0 1713.63

-2185.41 1608.11 0
1608.11 -1194.86 0
0 0 -1014.08

-2988.17 -1840.7 0
-1840.7 -1590.01 0
0 0 -1373.46

355.548 -2973.9 0
-2973.9 485.141 0
0 0 252.207

-455.746 -4081.63 0
-4081.63 -525.527 0
0 0 -294.382

698.668 -1296.85 0
-1296.85 1461.98 0
0 0 648.194

1494.54 -88.5226 0
-88.5226 -1340.76 0
0 0 46.1355

-914.855 -2155.13 0
-2155.13 -5507.24 0
0 0 -1926.63

1561.11 238.444 0
238.444 -3553.2 0
0 0 -597.628

-2403.4 -7.8821 0
-7.8821 -905.183 0
0 0 -992.576

2251.68 1198.01 0
1198.01 1525.61 0
0 0 1133.19

-292.845 -848.809 0
-848.809 -4800.97 0
0 0 -1528.15

221.324 656.661 0
656.661 1269.89 0
0 0 447.363

-3325.35 -932.147 0
-932.147 1487.47 0
0 0 -551.361

2397.45 1184.5 0
1184.5 984.015 0
0 0 1014.44

TENSORS velocity_gradient double
3.30432 -5.08337 0
6.90413 8.60911 0
0 0 0

3.28697 -4.88654 0
6.8277 11.626 0
0 0 0

2.39884 -8.88475 0
5.41634 -5.25473 0
0 0 0

2.96264 -7.20924 0
6.99911 -2.54072 0
0 0 0

3.37743 -6.77315 0
6.95037 7.98772 0
0 0 0

3.43493 -8.94354 0
7.06869 3.5213 0
0 0 0

3.29354 -5.84012 0
7.8355 -1.42185 0
0 0 0

1.71461 -4.34935 0
2.99569 -0.414912 0
0 0 0

1.13011 -9.94821 0
0.363109 2.13743 0
0 0 0

0.987084 -10.5168 0
0.317153 1.95473 0
0 0 0

0.854682 -3.20744 0
0.123814 0.284615 0
0 0 0

0.266837 -2.47103 0
1.45837 0.798486 0
0 0 0

-0.398085 -10.8189 0
1.61901 1.30526 0
0 0 0

-0.322888 -10.637 0
1.31319 0.565406 0
0 0 0

-0.487026 -5.89773 0
2.32266 0.338198 0
0 0 0

-0.0225492 -10.451 0
2.63632 -0.578161 0
0 0 0

0.957733 -8.20077 0
2.88805 -4.05476 0
0 0 0

1.90707 -6.70881 0
6.88543 -2.01712 0
0 0 0

1.14305 -0.605063 0
3.20625 -6.69704 0
0 0 0

1.00723 -0.86579 0
4.73104 -5.43076 0
0 0 0

2.02141 -5.4241 0
6.96378 -1.13677 0
0 0 0

-0.201405 -4.04445 0
-0.51287 -0.219995 0
0 0 0

1.0399 -0.420617 0
5.00745 -1.66425 0
0 0 0

-0.800405 -0.38214 0
-0.827347 0.177068 0
0 0 0

-0.0287626 -2.84701 0
-0.408789 0.501904 0
0 0 0

-0.15758 -2.25258 0
2.98483 0.734087 0
0 0 0

-0.738996 -1.32326 0
-0.804912 0.0387507 0
0 0 0

0.240454 -1.98915 0
3.53647 0.13889 0
0 0 0

-0.231277 -2.70639 0
2.87386 0.050756 0
0 0 0

0.47956 -2.66809 0
4.6252 -0.384093 0
0 0 0

0.142555 -2.81693 0
3.43676 -0.115696 0
0 0 0

-0.131522 -2.53631 0
4.77968 -0.417407 0
0 0 0

2.24052 -0.743157 0
5.12062 -6.93793 0
0 0 0

0.588059 -0.78632 0
1.18451 -4.75838 0
0 0 0

0.925152 5.80372 0
2.94991 -5.17007 0
0 0 0

0.338041 5.9561 0
-1.86988 -3.55194 0
0 0 0

0.631239 -0.321488 0
1.54985 -0.825553 0
0 0 0

-0.49776 -0.430584 0
-0.479581 0.0897571 0
0 0 0

0.260041 4.73881 0
-1.35361 -2.01413 0
0 0 0

-0.0898643 3.76552 0
-0.136784 -1.62451 0
0 0 0

-0.545338 -0.785327 0
-0.534044 -0.31632 0
0 0 0

0.770765 -1.30557 0
3.9092 -0.66977 0
0 0 0

0.327871 1.09001 0
1.24994 -1.02168 0
0 0 0

1.33395 -0.342005 0
4.17041 -0.767818 0
0 0 0

0.559137 -1.91593 0
3.78948 -1.00429 0
0 0 0

-1.20676 -0.828188 0
3.22401 1.46316 0
0 0 0

-0.461867 -1.82341 0
2.26028 -0.733442 0
0 0 0

-2.89802 -0.446969 0
-0.277735 2.25247 0
0 0 0

-0.331451 6.03337 0
-1.08489 -4.83473 0
0 0 0

0.612756 6.08267 0
-3.12943 -3.33046 0
0 0 0

0.600031 3.93506 0
-4.1023 -0.602033 0
0 0 0

0.689448 4.77194 0
-4.11351 -1.15999 0
0 0 0

0.619073 5.74611 0
-1.46292 -2.25391 0
0 0 0

0.539391 5.10439 0
-0.0128066 -2.19935 0
0 0 0

1.30334 4.98568 0
-0.314049 -1.03817 0
0 0 0

1.21346 4.53207 0
-0.0223128 -1.07063 0
0 0 0

1.03088 4.51992 0
1.78538 -2.06213 0
0 0 0

1.43305 4.48104 0
3.04656 -0.729457 0
0 0 0

1.53199 4.07592 0
1.40954 -1.34468 0
0 0 0

1.46709 4.09546 0
1.60385 -0.512442 0
0 0 0

-0.991755 4.28734 0
0.572319 0.47646 0
0 0 0

-2.96297 2.88811 0
-1.5559 -0.10847 0
0 0 0

-0.666113 4.21851 0
-0.0687217 0.509759 0
0 0 0

-1.42293 2.82238 0
-0.737008 -0.143419 0
0 0 0

SCALARS active double 1
LOOKUP_TABLE default
1
1
1
1
1
1
1
1
1
1
1
1
1
1
1
1
1
1
1
1
1
1
1
1
1
1
1
1
1
1
1
1
1
1
1
1
1
1
1
1
1
1
1
1
1
1
1
1
1
1
1
1
1
1
1
1
1
1
1
1
1
1
1
1
SCALARS extent double 1
LOOKUP_TABLE default
0.0125
0.0125
0.0125
0.0125
0.0125
0.0125
0.0125
0.0125
0.0125
0.0125
0.0125
0.0125
0.0125
0.0125
0.0125
0.0125
0.0125
0.0125
0.0125
0.0125
0.0125
0.0125
0.0125
0.0125
0.0125
0.0125
0.0125
0.0125
0.0125
0.0125
0.0125
0.0125
0.0125
0.0125
0.0125
0.0125
0.0125
0.0125
0.0125
0.0125
0.0125
0.0125
0.0125
0.0125
0.0125
0.0125
0.0125
0.0125
0.0125
0.0125
0.0125
0.0125
0.0125
0.0125
0.0125
0.0125
0.0125
0.0125
0.0125
0.0125
0.0125
0.0125
0.0125
0.0125
SCALARS pressure double 1
LOOKUP_TABLE default
-583.834
7513.24
7077.13
3728.04
13952.6
10237.6
7145.99
9716.57
19462.9
21547.6
14355.9
8256.53
26709.3
41954.3
13520
12027.5
10450.5
8694.32
4828.62
628.476
8424.52
9778.89
8081.94
6477.25
5585.63
6283.41
4736.12
783.8
5681.46
381.497
6211.09
-1919.95
1441.97
4027.75
-404.753
3386.79
1362.09
164.753
3178.01
1143.71
4398.93
2180.92
1925.34
-972.089
3643.93
984.211
-4114.1
579.037
3948.69
-2475.25
1464.78
1983.88
-364.298
425.218
-936.281
-66.6401
2782.91
863.241
1433.72
-1636.83
2207.32
-646.191
796.411
-1465.3
SCALARS density double 1
LOOKUP_TABLE default
993.018
1094.35
1088.64
1045.75
1182.26
1130.72
1089.54
1123.67
1263.08
1295.08
1188
1104.15
1377.83
1654.42
1176.14
1155.27
1133.61
1109.97
1059.66
1007.57
1106.38
1124.51
1101.84
1080.83
1069.32
1078.32
1058.48
1009.45
1070.56
1004.59
1077.38
977.224
1017.45
1049.52
995.155
1041.48
1016.48
1001.98
1038.87
1013.82
1054.21
1026.52
1023.37
988.403
1044.7
1011.88
951.83
1006.97
1048.52
970.734
1017.73
1024.09
995.638
1005.12
988.828
999.201
1033.96
1010.41
1017.35
980.55
1026.84
992.276
1009.6
982.57
