# vtk DataFile Version 3.0
Frame: 8, Time: 0.134
ASCII
DATASET UNSTRUCTURED_GRID
POINTS 64 double
0.4125 0.322444 0 
0.4125 0.347444 0 
0.4375 0.322444 0 
0.4375 0.347444 0 
0.4125 0.372444 0 
0.4125 0.397444 0 
0.4375 0.372444 0 
0.4375 0.397444 0 
0.4125 0.422444 0 
0.4125 0.447444 0 
0.4375 0.422444 0 
0.4375 0.447444 0 
0.4125 0.472444 0 
0.4125 0.497444 0 
0.4375 0.472444 0 
0.4375 0.497444 0 
0.4625 0.322444 0 
0.4625 0.347444 0 
0.4875 0.322444 0 
0.4875 0.347444 0 
0.4625 0.372444 0 
0.4625 0.397444 0 
0.4875 0.372444 0 
0.4875 0.397444 0 
0.4625 0.422444 0 
0.4625 0.447444 0 
0.4875 0.422444 0 
0.4875 0.447444 0 
0.4625 0.472444 0 
0.4625 0.497444 0 
0.4875 0.472444 0 
0.4875 0.497444 0 
0.5125 0.322444 0 
0.5125 0.347444 0 
0.5375 0.322444 0 
0.5375 0.347444 0 
0.5125 0.372444 0 
0.5125 0.397444 0 
0.5375 0.372444 0 
0.5375 0.397444 0 
0.5125 0.422444 0 
0.5125 0.447444 0 
0.5375 0.422444 0 
0.5375 0.447444 0 
0.5125 0.472444 0 
0.5125 0.497444 0 
0.5375 0.472444 0 
0.5375 0.497444 0 
0.5625 0.322444 0 
0.5625 0.347444 0 
0.5875 0.322444 0 
0.5875 0.347444 0 
0.5625 0.372444 0 
0.5625 0.397444 0 
0.5875 0.372444 0 
0.5875 0.397444 0 
0.5625 0.422444 0 
0.5625 0.447444 0 
0.5875 0.422444 0 
0.5875 0.447444 0 
0.5625 0.472444 0 
0.5625 0.497444 0 
0.5875 0.472444 0 
0.5875 0.497444 0 
CELLS 64 128
1 0
1 1
1 2
1 3
1 4
1 5
1 6
1 7
1 8
1 9
1 10
1 11
1 12
1 13
1 14
1 15
1 16
1 17
1 18
1 19
1 20
1 21
1 22
1 23
1 24
1 25
1 26
1 27
1 28
1 29
1 30
1 31
1 32
1 33
1 34
1 35
1 36
1 37
1 38
1 39
1 40
1 41
1 42
1 43
1 44
1 45
1 46
1 47
1 48
1 49
1 50
1 51
1 52
1 53
1 54
1 55
1 56
1 57
1 58
1 59
1 60
1 61
1 62
1 63
CELL_TYPES 64
1
1
1
1
1
1
1
1
1
1
1
1
1
1
1
1
1
1
1
1
1
1
1
1
1
1
1
1
1
1
1
1
1
1
1
1
1
1
1
1
1
1
1
1
1
1
1
1
1
1
1
1
1
1
1
1
1
1
1
1
1
1
1
1
POINT_DATA 64
VECTORS displacement double
-4.31018e-17 -0.0900558 0 
-2.82121e-17 -0.0900558 0 
-3.9521e-17 -0.0900558 0 
-3.07313e-17 -0.0900558 0 
-2.31089e-17 -0.0900558 0 
-2.84422e-17 -0.0900558 0 
-2.66502e-17 -0.0900558 0 
-2.89842e-17 -0.0900558 0 
-3.15607e-17 -0.0900558 0 
-2.95615e-17 -0.0900558 0 
-3.08297e-17 -0.0900558 0 
-2.89853e-17 -0.0900558 0 
-2.36061e-17 -0.0900558 0 
-2.31197e-17 -0.0900558 0 
-2.53078e-17 -0.0900558 0 
-2.34257e-17 -0.0900558 0 
-3.77088e-17 -0.0900558 0 
-3.33558e-17 -0.0900558 0 
-3.76653e-17 -0.0900558 0 
-3.60858e-17 -0.0900558 0 
-3.05039e-17 -0.0900558 0 
-3.07215e-17 -0.0900558 0 
-3.46702e-17 -0.0900558 0 
-3.36539e-17 -0.0900558 0 
-3.13955e-17 -0.0900558 0 
-2.9729e-17 -0.0900558 0 
-3.32582e-17 -0.0900558 0 
-3.17926e-17 -0.0900558 0 
-2.77025e-17 -0.0900558 0 
-2.43451e-17 -0.0900558 0 
-3.07902e-17 -0.0900558 0 
-2.5878e-17 -0.0900558 0 
-3.73569e-17 -0.0900558 0 
-3.8059e-17 -0.0900558 0 
-3.67835e-17 -0.0900558 0 
-3.92755e-17 -0.0900558 0 
-3.78583e-17 -0.0900558 0 
-3.65556e-17 -0.0900558 0 
-4.00682e-17 -0.0900558 0 
-3.94268e-17 -0.0900558 0 
-3.52104e-17 -0.0900558 0 
-3.36091e-17 -0.0900558 0 
-3.72522e-17 -0.0900558 0 
-3.51785e-17 -0.0900558 0 
-3.30522e-17 -0.0900558 0 
-2.78338e-17 -0.0900558 0 
-3.44884e-17 -0.0900558 0 
-3.02125e-17 -0.0900558 0 
-3.50957e-17 -0.0900558 0 
-4.06968e-17 -0.0900558 0 
-3.22933e-17 -0.0900558 0 
-4.23229e-17 -0.0900558 0 
-4.19587e-17 -0.0900558 0 
-4.05214e-17 -0.0900558 0 
-4.35299e-17 -0.0900558 0 
-3.98397e-17 -0.0900558 0 
-3.77016e-17 -0.0900558 0 
-3.58821e-17 -0.0900558 0 
-3.65587e-17 -0.0900558 0 
-3.57197e-17 -0.0900558 0 
-3.57709e-17 -0.0900558 0 
-3.12153e-17 -0.0900558 0 
-3.68997e-17 -0.0900558 0 
-3.08424e-17 -0.0900558 0 
VECTORS velocity double
-4.46239e-16 -1.32435 0 
-7.65505e-16 -1.32435 0 
-2.08174e-16 -1.32435 0 
-4.81386e-16 -1.32435 0 
1.18656e-16 -1.32435 0 
-1.33823e-15 -1.32435 0 
2.54012e-18 -1.32435 0 
-8.38243e-16 -1.32435 0 
-2.21833e-15 -1.32435 0 
-1.50215e-15 -1.32435 0 
-1.19987e-15 -1.32435 0 
-6.78893e-16 -1.32435 0 
1.59682e-15 -1.32435 0 
3.69462e-15 -1.32435 0 
1.72713e-16 -1.32435 0 
2.07102e-15 -1.32435 0 
-2.64077e-16 -1.32435 0 
-3.3324e-16 -1.32435 0 
-6.13948e-16 -1.32435 0 
-3.21067e-16 -1.32435 0 
-1.79803e-16 -1.32435 0 
-5.97716e-16 -1.32435 0 
-4.28373e-16 -1.32435 0 
-6.16651e-16 -1.32435 0 
-5.81862e-16 -1.32435 0 
-2.48922e-16 -1.32435 0 
-3.64294e-16 -1.32435 0 
-2.12232e-16 -1.32435 0 
-5.58527e-16 -1.32435 0 
1.09922e-15 -1.32435 0 
-5.96904e-16 -1.32435 0 
7.79214e-16 -1.32435 0 
-9.55523e-16 -1.32435 0 
-4.75892e-16 -1.32435 0 
-1.2888e-15 -1.32435 0 
-7.97714e-16 -1.32435 0 
-6.89908e-16 -1.32435 0 
-7.2059e-16 -1.32435 0 
-9.64409e-16 -1.32435 0 
-9.09533e-16 -1.32435 0 
-3.00325e-16 -1.32435 0 
-2.35999e-16 -1.32435 0 
-3.89955e-16 -1.32435 0 
-3.20223e-16 -1.32435 0 
-3.65042e-16 -1.32435 0 
2.48306e-16 -1.32435 0 
1.37058e-16 -1.32435 0 
-4.93504e-16 -1.32435 0 
-1.38204e-15 -1.32435 0 
-8.12303e-16 -1.32435 0 
-1.23522e-15 -1.32435 0 
-5.19657e-16 -1.32435 0 
-1.00025e-15 -1.32435 0 
-5.90358e-16 -1.32435 0 
-7.97428e-16 -1.32435 0 
2.36933e-16 -1.32435 0 
1.00887e-17 -1.32435 0 
-1.38349e-16 -1.32435 0 
8.99805e-16 -1.32435 0 
3.09623e-16 -1.32435 0 
-5.21327e-16 -1.32435 0 
-1.94595e-15 -1.32435 0 
-2.3402e-15 -1.32435 0 
-4.10904e-15 -1.32435 0 
SCALARS mass double 1
LOOKUP_TABLE default
0.625
0.625
0.625
0.625
0.625
0.625
0.625
0.625
0.625
0.625
0.625
0.625
0.625
0.625
0.625
0.625
0.625
0.625
0.625
0.625
0.625
0.625
0.625
0.625
0.625
0.625
0.625
0.625
0.625
0.625
0.625
0.625
0.625
0.625
0.625
0.625
0.625
0.625
0.625
0.625
0.625
0.625
0.625
0.625
0.625
0.625
0.625
0.625
0.625
0.625
0.625
0.625
0.625
0.625
0.625
0.625
0.625
0.625
0.625
0.625
0.625
0.625
0.625
0.625
SCALARS volume double 1
LOOKUP_TABLE default
0.000625
0.000625
0.000625
0.000625
0.000625
0.000625
0.000625
0.000625
0.000625
0.000625
0.000625
0.000625
0.000625
0.000625
0.000625
0.000625
0.000625
0.000625
0.000625
0.000625
0.000625
0.000625
0.000625
0.000625
0.000625
0.000625
0.000625
0.000625
0.000625
0.000625
0.000625
0.000625
0.000625
0.000625
0.000625
0.000625
0.000625
0.000625
0.000625
0.000625
0.000625
0.000625
0.000625
0.000625
0.000625
0.000625
0.000625
0.000625
0.000625
0.000625
0.000625
0.000625
0.000625
0.000625
0.000625
0.000625
0.000625
0.000625
0.000625
0.000625
0.000625
0.000625
0.000625
0.000625
VECTORS momentum double
-2.789e-16 -0.827719 0 
-4.78441e-16 -0.827719 0 
-1.30109e-16 -0.827719 0 
-3.00866e-16 -0.827719 0 
7.41602e-17 -0.827719 0 
-8.36396e-16 -0.827719 0 
1.58757e-18 -0.827719 0 
-5.23902e-16 -0.827719 0 
-1.38645e-15 -0.827719 0 
-9.38841e-16 -0.827719 0 
-7.4992e-16 -0.827719 0 
-4.24308e-16 -0.827719 0 
9.9801e-16 -0.827719 0 
2.30914e-15 -0.827719 0 
1.07946e-16 -0.827719 0 
1.29439e-15 -0.827719 0 
-1.65048e-16 -0.827719 0 
-2.08275e-16 -0.827719 0 
-3.83717e-16 -0.827719 0 
-2.00667e-16 -0.827719 0 
-1.12377e-16 -0.827719 0 
-3.73572e-16 -0.827719 0 
-2.67733e-16 -0.827719 0 
-3.85407e-16 -0.827719 0 
-3.63664e-16 -0.827719 0 
-1.55576e-16 -0.827719 0 
-2.27684e-16 -0.827719 0 
-1.32645e-16 -0.827719 0 
-3.4908e-16 -0.827719 0 
6.87014e-16 -0.827719 0 
-3.73065e-16 -0.827719 0 
4.87009e-16 -0.827719 0 
-5.97202e-16 -0.827719 0 
-2.97433e-16 -0.827719 0 
-8.05502e-16 -0.827719 0 
-4.98572e-16 -0.827719 0 
-4.31192e-16 -0.827719 0 
-4.50369e-16 -0.827719 0 
-6.02755e-16 -0.827719 0 
-5.68458e-16 -0.827719 0 
-1.87703e-16 -0.827719 0 
-1.47499e-16 -0.827719 0 
-2.43722e-16 -0.827719 0 
-2.00139e-16 -0.827719 0 
-2.28152e-16 -0.827719 0 
1.55191e-16 -0.827719 0 
8.56615e-17 -0.827719 0 
-3.0844e-16 -0.827719 0 
-8.63772e-16 -0.827719 0 
-5.07689e-16 -0.827719 0 
-7.72013e-16 -0.827719 0 
-3.24786e-16 -0.827719 0 
-6.25155e-16 -0.827719 0 
-3.68974e-16 -0.827719 0 
-4.98393e-16 -0.827719 0 
1.48083e-16 -0.827719 0 
6.30542e-18 -0.827719 0 
-8.64681e-17 -0.827719 0 
5.62378e-16 -0.827719 0 
1.93514e-16 -0.827719 0 
-3.25829e-16 -0.827719 0 
-1.21622e-15 -0.827719 0 
-1.46262e-15 -0.827719 0 
-2.56815e-15 -0.827719 0 
VECTORS body_force double
0 -9.81 0 
0 -9.81 0 
0 -9.81 0 
0 -9.81 0 
0 -9.81 0 
0 -9.81 0 
0 -9.81 0 
0 -9.81 0 
0 -9.81 0 
0 -9.81 0 
0 -9.81 0 
0 -9.81 0 
0 -9.81 0 
0 -9.81 0 
0 -9.81 0 
0 -9.81 0 
0 -9.81 0 
0 -9.81 0 
0 -9.81 0 
0 -9.81 0 
0 -9.81 0 
0 -9.81 0 
0 -9.81 0 
0 -9.81 0 
0 -9.81 0 
0 -9.81 0 
0 -9.81 0 
0 -9.81 0 
0 -9.81 0 
0 -9.81 0 
0 -9.81 0 
0 -9.81 0 
0 -9.81 0 
0 -9.81 0 
0 -9.81 0 
0 -9.81 0 
0 -9.81 0 
0 -9.81 0 
0 -9.81 0 
0 -9.81 0 
0 -9.81 0 
0 -9.81 0 
0 -9.81 0 
0 -9.81 0 
0 -9.81 0 
0 -9.81 0 
0 -9.81 0 
0 -9.81 0 
0 -9.81 0 
0 -9.81 0 
0 -9.81 0 
0 -9.81 0 
0 -9.81 0 
0 -9.81 0 
0 -9.81 0 
0 -9.81 0 
0 -9.81 0 
0 -9.81 0 
0 -9.81 0 
0 -9.81 0 
0 -9.81 0 
0 -9.81 0 
0 -9.81 0 
0 -9.81 0 
TENSORS cauchy_stress double
1.13465e-11 8.24675e-13 0
8.24675e-13 -1.02518e-11 0
0 0 3.28421e-13

-2.58932e-11 6.59826e-12 0
6.59826e-12 -3.45795e-11 0
0 0 -1.81418e-11

1.69422e-11 -7.70755e-12 0
-7.70755e-12 2.80481e-12 0
0 0 5.92411e-12

-2.64072e-11 -5.25785e-12 0
-5.25785e-12 -3.57789e-11 0
0 0 -1.86558e-11

-1.52087e-11 -1.91928e-11 0
-1.91928e-11 8.33387e-13 0
0 0 -4.3126e-12

-1.63103e-11 -2.41843e-11 0
-2.41843e-11 -3.24978e-11 0
0 0 -1.46424e-11

-9.22594e-12 -1.52223e-11 0
-1.52223e-11 1.47932e-11 0
0 0 1.67019e-12

-1.70485e-11 -1.34106e-11 0
-1.34106e-11 -3.42203e-11 0
0 0 -1.53806e-11

-1.44129e-12 -5.09781e-14 0
-5.09781e-14 -1.08606e-11 0
0 0 -3.69056e-12

-1.60872e-11 4.63197e-12 0
4.63197e-12 -4.34465e-11 0
0 0 -1.78601e-11

-6.5658e-12 -2.89393e-12 0
-2.89393e-12 -2.28178e-11 0
0 0 -8.81507e-12

-1.04091e-11 1.26972e-12 0
1.26972e-12 -3.01975e-11 0
0 0 -1.2182e-11

1.45894e-11 1.69855e-13 0
1.69855e-13 5.14949e-11 0
0 0 1.98253e-11

2.5771e-11 4.65171e-13 0
4.65171e-13 6.32709e-11 0
0 0 2.67126e-11

1.95281e-11 6.70917e-13 0
6.70917e-13 6.30187e-11 0
0 0 2.4764e-11

2.53755e-11 5.62985e-12 0
5.62985e-12 6.23481e-11 0
0 0 2.63171e-11

-6.75843e-13 3.40481e-12 0
3.40481e-12 -2.02285e-12 0
0 0 -8.09606e-13

-2.01201e-11 1.08181e-12 0
1.08181e-12 -1.89474e-11 0
0 0 -1.17202e-11

8.35368e-13 8.75059e-13 0
8.75059e-13 1.50331e-12 0
0 0 7.01605e-13

-2.69304e-11 -3.9809e-12 0
-3.9809e-12 -3.4838e-11 0
0 0 -1.85305e-11

-9.39925e-12 -6.75695e-12 0
-6.75695e-12 2.07993e-11 0
0 0 3.42e-12

-3.30821e-11 -1.76438e-11 0
-1.76438e-11 -4.71157e-11 0
0 0 -2.40593e-11

-2.26202e-11 -2.4748e-12 0
-2.4748e-12 -1.00497e-11 0
0 0 -9.80099e-12

-2.83887e-11 -5.32602e-12 0
-5.32602e-12 -3.61645e-11 0
0 0 -1.9366e-11

-2.17022e-11 -9.09989e-12 0
-9.09989e-12 -3.15344e-11 0
0 0 -1.5971e-11

-2.37569e-11 -3.89725e-12 0
-3.89725e-12 -3.42679e-11 0
0 0 -1.74074e-11

-1.66982e-11 -1.30849e-11 0
-1.30849e-11 -1.98583e-11 0
0 0 -1.0967e-11

-1.74719e-11 -5.63275e-12 0
-5.63275e-12 -1.96028e-11 0
0 0 -1.11224e-11

1.08567e-11 -7.87561e-12 0
-7.87561e-12 5.70011e-11 0
0 0 2.03573e-11

2.18407e-11 -4.80138e-12 0
-4.80138e-12 6.66832e-11 0
0 0 2.65572e-11

1.63243e-11 -4.25619e-12 0
-4.25619e-12 6.97588e-11 0
0 0 2.58249e-11

1.90385e-11 -4.01343e-12 0
-4.01343e-12 6.01446e-11 0
0 0 2.37549e-11

-7.00959e-12 -4.22865e-12 0
-4.22865e-12 -2.22363e-11 0
0 0 -8.77376e-12

-2.34486e-11 -7.20374e-12 0
-7.20374e-12 -4.22367e-11 0
0 0 -1.97056e-11

1.91756e-12 -3.46783e-12 0
-3.46783e-12 -1.40626e-12 0
0 0 1.5339e-13

-2.04687e-11 -5.67238e-12 0
-5.67238e-12 -3.52834e-11 0
0 0 -1.67256e-11

-8.84584e-12 4.24251e-12 0
4.24251e-12 2.0254e-12 0
0 0 -2.04613e-12

-2.3841e-11 3.02993e-12 0
3.02993e-12 -2.61816e-11 0
0 0 -1.50068e-11

-8.08603e-12 7.72109e-12 0
7.72109e-12 3.79828e-12 0
0 0 -1.28633e-12

-3.28402e-11 9.3667e-13 0
9.3667e-13 -4.71798e-11 0
0 0 -2.4006e-11

-1.57169e-11 1.26539e-12 0
1.26539e-12 -1.57312e-11 0
0 0 -9.43444e-12

-2.74501e-11 1.10587e-12 0
1.10587e-12 -4.79533e-11 0
0 0 -2.2621e-11

-1.84467e-11 -7.67135e-13 0
-7.67135e-13 -2.21007e-11 0
0 0 -1.21642e-11

-1.74469e-11 -1.07559e-12 0
-1.07559e-12 -2.46125e-11 0
0 0 -1.26178e-11

1.65278e-11 2.0474e-12 0
2.0474e-12 5.32956e-11 0
0 0 2.0947e-11

1.43558e-11 3.95344e-12 0
3.95344e-12 5.78937e-11 0
0 0 2.16749e-11

1.50342e-11 2.3223e-12 0
2.3223e-12 4.98105e-11 0
0 0 1.94534e-11

2.28586e-11 6.43629e-12 0
6.43629e-12 7.77336e-11 0
0 0 3.01777e-11

1.92107e-11 8.0964e-12 0
8.0964e-12 1.60825e-11 0
0 0 1.0588e-11

-2.68601e-11 2.07083e-12 0
2.07083e-12 -4.59955e-11 0
0 0 -2.18567e-11

1.44429e-11 3.47016e-12 0
3.47016e-12 4.95759e-12 0
0 0 5.82015e-12

-2.70106e-11 -1.03152e-11 0
-1.03152e-11 -4.63467e-11 0
0 0 -2.20072e-11

2.99943e-12 1.05797e-11 0
1.05797e-11 2.31132e-11 0
0 0 7.8338e-12

-1.81288e-11 1.18932e-11 0
1.18932e-11 -4.9293e-11 0
0 0 -2.02265e-11

-3.09986e-12 2.02968e-11 0
2.02968e-11 8.88158e-12 0
0 0 1.73452e-12

-1.43466e-11 1.28538e-11 0
1.28538e-11 -4.04678e-11 0
0 0 -1.64443e-11

-1.21779e-12 6.58584e-12 0
6.58584e-12 -1.45636e-11 0
0 0 -4.73443e-12

-1.60913e-11 4.54728e-13 0
4.54728e-13 -3.92117e-11 0
0 0 -1.65909e-11

4.34387e-12 1.8543e-12 0
1.8543e-12 -1.58644e-12 0
0 0 8.27228e-13

-2.00609e-11 2.00534e-12 0
2.00534e-12 -4.84741e-11 0
0 0 -2.05605e-11

1.75306e-11 3.03626e-12 0
3.03626e-12 5.24817e-11 0
0 0 2.10037e-11

2.64951e-11 -2.47482e-12 0
-2.47482e-12 5.79966e-11 0
0 0 2.53475e-11

1.78436e-11 2.43722e-12 0
2.43722e-12 5.32122e-11 0
0 0 2.13167e-11

2.75616e-11 9.06305e-13 0
9.06305e-13 6.0485e-11 0
0 0 2.6414e-11

TENSORS velocity_gradient double
-1.58818e-15 -1.6028e-14 0
-3.01981e-14 4.08562e-14 0
0 0 0

8.22014e-15 -1.20527e-14 0
-1.84297e-14 -4.21885e-15 0
0 0 0

-1.58818e-15 -5.13617e-15 0
-3.19744e-14 5.32907e-14 0
0 0 0

8.22014e-15 -5.49507e-15 0
-3.9968e-14 2.66454e-15 0
0 0 0

9.93181e-15 -6.12645e-15 0
-3.55271e-15 -4.61853e-14 0
0 0 0

9.6102e-15 -2.24963e-16 0
1.9984e-14 -1.55431e-14 0
0 0 0

9.93181e-15 -6.0301e-15 0
-1.42109e-14 -1.42109e-14 0
0 0 0

9.6102e-15 -1.80046e-15 0
1.95399e-14 1.24345e-14 0
0 0 0

6.16547e-15 8.57274e-15 0
3.73035e-14 2.30926e-14 0
0 0 0

3.14601e-16 2.96868e-14 0
2.9976e-14 -2.68674e-14 0
0 0 0

6.16547e-15 4.50492e-15 0
3.19744e-14 4.61853e-14 0
0 0 0

3.14601e-16 1.84868e-14 0
1.33227e-14 -8.88178e-16 0
0 0 0

-1.88597e-14 6.11628e-14 0
7.10543e-15 -1.42109e-14 0
0 0 0

-3.86109e-14 4.35082e-14 0
2.22045e-16 4.28546e-14 0
0 0 0

-1.88597e-14 3.93304e-14 0
1.42109e-14 -1.42109e-14 0
0 0 0

-3.86109e-14 3.00007e-14 0
1.59872e-14 2.30926e-14 0
0 0 0

-6.919e-15 2.09671e-15 0
-1.24345e-14 5.86198e-14 0
0 0 0

-3.46398e-15 -6.6704e-16 0
7.77156e-15 3.61933e-14 0
0 0 0

-6.919e-15 5.67059e-15 0
-3.90799e-14 7.4607e-14 0
0 0 0

-3.46398e-15 2.43137e-15 0
1.15463e-14 2.57572e-14 0
0 0 0

-8.9718e-16 -4.78713e-15 0
1.59872e-14 -1.24345e-14 0
0 0 0

1.43094e-15 -1.51636e-15 0
-8.88178e-16 -8.88178e-16 0
0 0 0

-8.9718e-16 -2.39753e-15 0
-7.10543e-15 -7.10543e-15 0
0 0 0

1.43094e-15 6.27336e-16 0
7.99361e-15 1.5099e-14 0
0 0 0

3.2997e-15 3.35957e-15 0
-5.32907e-15 8.88178e-15 0
0 0 0

3.87657e-15 1.13748e-14 0
2.17604e-14 1.46549e-14 0
0 0 0

3.2997e-15 5.13669e-15 0
7.10543e-15 5.68434e-14 0
0 0 0

3.87657e-15 8.35096e-15 0
1.68754e-14 1.68754e-14 0
0 0 0

-4.51514e-15 2.33237e-14 0
1.95399e-14 -1.59872e-14 0
0 0 0

-1.42273e-14 1.90941e-14 0
9.54792e-15 3.79696e-14 0
0 0 0

-4.51514e-15 1.31427e-14 0
-3.55271e-15 -1.77636e-14 0
0 0 0

-1.42273e-14 1.07886e-14 0
1.59872e-14 4.44089e-14 0
0 0 0

-6.29727e-15 6.80342e-15 0
1.95399e-14 6.21725e-14 0
0 0 0

-7.05699e-15 4.42348e-15 0
6.88338e-15 2.10942e-14 0
0 0 0

-6.29727e-15 5.49519e-15 0
1.77636e-14 5.32907e-14 0
0 0 0

-7.05699e-15 5.30929e-15 0
-3.55271e-15 3.90799e-14 0
0 0 0

-3.7181e-15 8.7556e-16 0
1.77636e-15 1.59872e-14 0
0 0 0

5.45691e-17 3.00964e-15 0
-9.54792e-15 4.66294e-15 0
0 0 0

-3.7181e-15 5.03215e-15 0
0 -1.42109e-14 0
0 0 0

5.45691e-17 5.63056e-15 0
-3.55271e-15 1.06581e-14 0
0 0 0

9.58506e-16 6.19105e-15 0
-1.42109e-14 5.68434e-14 0
0 0 0

2.11575e-16 4.84775e-15 0
-8.88178e-16 -1.5099e-14 0
0 0 0

9.58506e-16 6.52266e-15 0
-3.55271e-15 6.75016e-14 0
0 0 0

2.11575e-16 8.65204e-16 0
-2.66454e-15 -2.66454e-15 0
0 0 0

-8.5945e-15 2.84523e-15 0
-1.06581e-14 -1.06581e-14 0
0 0 0

-1.88584e-14 1.72882e-15 0
-2.4647e-14 6.77236e-14 0
0 0 0

-8.5945e-15 -7.5687e-15 0
-1.77636e-14 -4.61853e-14 0
0 0 0

-1.88584e-14 -8.08516e-15 0
-2.4869e-14 4.61853e-14 0
0 0 0

-2.95653e-15 9.89835e-15 0
3.55271e-14 7.81597e-14 0
0 0 0

6.30109e-15 9.0956e-15 0
9.54792e-15 -4.66294e-15 0
0 0 0

-2.95653e-15 2.00129e-14 0
7.10543e-15 4.9738e-14 0
0 0 0

6.30109e-15 1.57824e-14 0
1.86517e-14 4.44089e-15 0
0 0 0

9.15549e-15 7.8989e-15 0
1.77636e-15 -1.24345e-14 0
0 0 0

9.90315e-15 6.07097e-15 0
-7.54952e-15 -7.54952e-15 0
0 0 0

9.15549e-15 9.47582e-15 0
1.06581e-14 -1.77636e-14 0
0 0 0

9.90315e-15 4.33085e-15 0
8.88178e-15 -1.24345e-14 0
0 0 0

4.45436e-15 3.34596e-15 0
-1.77636e-15 6.92779e-14 0
0 0 0

-4.12728e-15 -8.26185e-15 0
-1.42109e-14 -1.42109e-14 0
0 0 0

4.45436e-15 -3.33905e-15 0
-1.42109e-14 4.9738e-14 0
0 0 0

-4.12728e-15 -2.25334e-14 0
-2.39808e-14 1.15463e-14 0
0 0 0

-2.68811e-14 -2.55663e-14 0
-8.88178e-15 -3.73035e-14 0
0 0 0

-5.00994e-14 -2.10567e-14 0
3.9968e-15 3.95239e-14 0
0 0 0

-2.68811e-14 -5.11476e-14 0
0 -1.42109e-14 0
0 0 0

-5.00994e-14 -3.71859e-14 0
0 4.9738e-14 0
0 0 0

SCALARS active double 1
LOOKUP_TABLE default
1
1
1
1
1
1
1
1
1
1
1
1
1
1
1
1
1
1
1
1
1
1
1
1
1
1
1
1
1
1
1
1
1
1
1
1
1
1
1
1
1
1
1
1
1
1
1
1
1
1
1
1
1
1
1
1
1
1
1
1
1
1
1
1
SCALARS extent double 1
LOOKUP_TABLE default
0.0125
0.0125
0.0125
0.0125
0.0125
0.0125
0.0125
0.0125
0.0125
0.0125
0.0125
0.0125
0.0125
0.0125
0.0125
0.0125
0.0125
0.0125
0.0125
0.0125
0.0125
0.0125
0.0125
0.0125
0.0125
0.0125
0.0125
0.0125
0.0125
0.0125
0.0125
0.0125
0.0125
0.0125
0.0125
0.0125
0.0125
0.0125
0.0125
0.0125
0.0125
0.0125
0.0125
0.0125
0.0125
0.0125
0.0125
0.0125
0.0125
0.0125
0.0125
0.0125
0.0125
0.0125
0.0125
0.0125
0.0125
0.0125
0.0125
0.0125
0.0125
0.0125
0.0125
0.0125
SCALARS pressure double 1
LOOKUP_TABLE default
-4.74386e-13
2.62048e-11
-8.55704e-12
2.69473e-11
6.22932e-12
2.11502e-11
-2.4125e-12
2.22165e-11
5.33081e-12
2.57979e-11
1.27329e-11
1.75962e-11
-2.86365e-11
-3.85848e-11
-3.57703e-11
-3.80135e-11
1.16943e-12
1.69292e-11
-1.01343e-12
2.67663e-11
-4.94001e-12
3.47524e-11
1.4157e-11
2.79731e-11
2.30692e-11
2.51441e-11
1.58412e-11
1.60657e-11
-2.9405e-11
-3.83604e-11
-3.73027e-11
-3.43127e-11
1.26732e-11
2.84637e-11
-2.21563e-13
2.41592e-11
2.95553e-12
2.16765e-11
1.85803e-12
3.46753e-11
1.36275e-11
3.26748e-11
1.75706e-11
1.82257e-11
-3.02568e-11
-3.13081e-11
-2.80994e-11
-4.359e-11
-1.52937e-11
3.15707e-11
-8.40688e-12
3.17882e-11
-1.13155e-11
2.92161e-11
-2.50541e-12
2.37529e-11
6.83862e-12
2.39646e-11
-1.19488e-12
2.96985e-11
-3.03387e-11
-3.66131e-11
-3.07908e-11
-3.81535e-11
SCALARS density double 1
LOOKUP_TABLE default
1000
1000
1000
1000
1000
1000
1000
1000
1000
1000
1000
1000
1000
1000
1000
1000
1000
1000
1000
1000
1000
1000
1000
1000
1000
1000
1000
1000
1000
1000
1000
1000
1000
1000
1000
1000
1000
1000
1000
1000
1000
1000
1000
1000
1000
1000
1000
1000
1000
1000
1000
1000
1000
1000
1000
1000
1000
1000
1000
1000
1000
1000
1000
1000
