# vtk DataFile Version 3.0
Frame: 12, Time: 0.2
ASCII
DATASET UNSTRUCTURED_GRID
POINTS 64 double
0.4125 0.213347 0 
0.4125 0.238347 0 
0.4375 0.213347 0 
0.4375 0.238347 0 
0.4125 0.263347 0 
0.4125 0.288347 0 
0.4375 0.263347 0 
0.4375 0.288347 0 
0.4125 0.313347 0 
0.4125 0.338347 0 
0.4375 0.313347 0 
0.4375 0.338347 0 
0.4125 0.363347 0 
0.4125 0.388347 0 
0.4375 0.363347 0 
0.4375 0.388347 0 
0.4625 0.213347 0 
0.4625 0.238347 0 
0.4875 0.213347 0 
0.4875 0.238347 0 
0.4625 0.263347 0 
0.4625 0.288347 0 
0.4875 0.263347 0 
0.4875 0.288347 0 
0.4625 0.313347 0 
0.4625 0.338347 0 
0.4875 0.313347 0 
0.4875 0.338347 0 
0.4625 0.363347 0 
0.4625 0.388347 0 
0.4875 0.363347 0 
0.4875 0.388347 0 
0.5125 0.213347 0 
0.5125 0.238347 0 
0.5375 0.213347 0 
0.5375 0.238347 0 
0.5125 0.263347 0 
0.5125 0.288347 0 
0.5375 0.263347 0 
0.5375 0.288347 0 
0.5125 0.313347 0 
0.5125 0.338347 0 
0.5375 0.313347 0 
0.5375 0.338347 0 
0.5125 0.363347 0 
0.5125 0.388347 0 
0.5375 0.363347 0 
0.5375 0.388347 0 
0.5625 0.213347 0 
0.5625 0.238347 0 
0.5875 0.213347 0 
0.5875 0.238347 0 
0.5625 0.263347 0 
0.5625 0.288347 0 
0.5875 0.263347 0 
0.5875 0.288347 0 
0.5625 0.313347 0 
0.5625 0.338347 0 
0.5875 0.313347 0 
0.5875 0.338347 0 
0.5625 0.363347 0 
0.5625 0.388347 0 
0.5875 0.363347 0 
0.5875 0.388347 0 
CELLS 64 128
1 0
1 1
1 2
1 3
1 4
1 5
1 6
1 7
1 8
1 9
1 10
1 11
1 12
1 13
1 14
1 15
1 16
1 17
1 18
1 19
1 20
1 21
1 22
1 23
1 24
1 25
1 26
1 27
1 28
1 29
1 30
1 31
1 32
1 33
1 34
1 35
1 36
1 37
1 38
1 39
1 40
1 41
1 42
1 43
1 44
1 45
1 46
1 47
1 48
1 49
1 50
1 51
1 52
1 53
1 54
1 55
1 56
1 57
1 58
1 59
1 60
1 61
1 62
1 63
CELL_TYPES 64
1
1
1
1
1
1
1
1
1
1
1
1
1
1
1
1
1
1
1
1
1
1
1
1
1
1
1
1
1
1
1
1
1
1
1
1
1
1
1
1
1
1
1
1
1
1
1
1
1
1
1
1
1
1
1
1
1
1
1
1
1
1
1
1
POINT_DATA 64
VECTORS displacement double
-6.88731e-17 -0.199153 0 
-8.26394e-17 -0.199153 0 
-7.72838e-17 -0.199153 0 
-8.43366e-17 -0.199153 0 
-8.92196e-17 -0.199153 0 
-8.33388e-17 -0.199153 0 
-8.76085e-17 -0.199153 0 
-8.34601e-17 -0.199153 0 
-7.06036e-17 -0.199153 0 
-6.7894e-17 -0.199153 0 
-7.25922e-17 -0.199153 0 
-6.68623e-17 -0.199153 0 
-5.49687e-17 -0.199153 0 
-4.66537e-17 -0.199153 0 
-5.50083e-17 -0.199153 0 
-4.46463e-17 -0.199153 0 
-8.35123e-17 -0.199153 0 
-8.38285e-17 -0.199153 0 
-8.75584e-17 -0.199153 0 
-8.1115e-17 -0.199153 0 
-8.38607e-17 -0.199153 0 
-8.0648e-17 -0.199153 0 
-7.79763e-17 -0.199153 0 
-7.49025e-17 -0.199153 0 
-7.16386e-17 -0.199153 0 
-6.40842e-17 -0.199153 0 
-6.77427e-17 -0.199153 0 
-5.95598e-17 -0.199153 0 
-5.37821e-17 -0.199153 0 
-4.23024e-17 -0.199153 0 
-5.12901e-17 -0.199153 0 
-3.96221e-17 -0.199153 0 
-8.85461e-17 -0.199153 0 
-7.80005e-17 -0.199153 0 
-8.64752e-17 -0.199153 0 
-7.44849e-17 -0.199153 0 
-7.20942e-17 -0.199153 0 
-6.92401e-17 -0.199153 0 
-6.62143e-17 -0.199153 0 
-6.36606e-17 -0.199153 0 
-6.37163e-17 -0.199153 0 
-5.51921e-17 -0.199153 0 
-5.95594e-17 -0.199153 0 
-5.09812e-17 -0.199153 0 
-4.91841e-17 -0.199153 0 
-3.98997e-17 -0.199153 0 
-4.74641e-17 -0.199153 0 
-4.3135e-17 -0.199153 0 
-8.87839e-17 -0.199153 0 
-7.45682e-17 -0.199153 0 
-9.54722e-17 -0.199153 0 
-7.82502e-17 -0.199153 0 
-6.28931e-17 -0.199153 0 
-5.9769e-17 -0.199153 0 
-6.21304e-17 -0.199153 0 
-5.75651e-17 -0.199153 0 
-5.67831e-17 -0.199153 0 
-4.79069e-17 -0.199153 0 
-5.53875e-17 -0.199153 0 
-4.59691e-17 -0.199153 0 
-4.66932e-17 -0.199153 0 
-4.51989e-17 -0.199153 0 
-4.68715e-17 -0.199153 0 
-4.60915e-17 -0.199153 0 
VECTORS velocity double
-3.31429e-15 -1.97181 0 
1.81003e-15 -1.97181 0 
-2.10276e-15 -1.97181 0 
6.35494e-17 -1.97181 0 
1.35615e-15 -1.97181 0 
-7.58684e-16 -1.97181 0 
-6.94371e-16 -1.97181 0 
-1.81486e-15 -1.97181 0 
-2.82709e-15 -1.97181 0 
-2.8692e-15 -1.97181 0 
-2.7244e-15 -1.97181 0 
-2.04952e-15 -1.97181 0 
3.27497e-16 -1.97181 0 
-1.42882e-16 -1.97181 0 
-3.44979e-16 -1.97181 0 
3.28642e-16 -1.97181 0 
-1.55803e-15 -1.97181 0 
-8.2569e-16 -1.97181 0 
-1.68009e-15 -1.97181 0 
-8.57694e-16 -1.97181 0 
-1.45205e-15 -1.97181 0 
-1.87574e-15 -1.97181 0 
-9.16892e-16 -1.97181 0 
-9.41302e-16 -1.97181 0 
-2.01303e-15 -1.97181 0 
-1.2683e-15 -1.97181 0 
-6.92978e-16 -1.97181 0 
-5.25542e-16 -1.97181 0 
-4.29374e-16 -1.97181 0 
8.72694e-16 -1.97181 0 
7.43134e-17 -1.97181 0 
1.48928e-15 -1.97181 0 
-1.43882e-15 -1.97181 0 
-7.97103e-16 -1.97181 0 
-8.34218e-16 -1.97181 0 
-6.43918e-16 -1.97181 0 
-2.7779e-16 -1.97181 0 
-1.35901e-16 -1.97181 0 
4.65251e-16 -1.97181 0 
5.40467e-16 -1.97181 0 
2.86017e-16 -1.97181 0 
5.56019e-17 -1.97181 0 
9.23959e-16 -1.97181 0 
4.75133e-16 -1.97181 0 
4.59961e-16 -1.97181 0 
1.43075e-15 -1.97181 0 
7.2757e-16 -1.97181 0 
6.97109e-16 -1.97181 0 
2.11598e-16 -1.97181 0 
-1.64563e-15 -1.97181 0 
1.69862e-15 -1.97181 0 
-3.80225e-15 -1.97181 0 
-3.43043e-16 -1.97181 0 
5.5911e-16 -1.97181 0 
-2.70267e-15 -1.97181 0 
-7.99707e-17 -1.97181 0 
1.3387e-15 -1.97181 0 
1.08513e-15 -1.97181 0 
1.53024e-15 -1.97181 0 
1.88561e-15 -1.97181 0 
3.9021e-16 -1.97181 0 
5.11162e-16 -1.97181 0 
-5.52119e-16 -1.97181 0 
8.72904e-16 -1.97181 0 
SCALARS mass double 1
LOOKUP_TABLE default
0.625
0.625
0.625
0.625
0.625
0.625
0.625
0.625
0.625
0.625
0.625
0.625
0.625
0.625
0.625
0.625
0.625
0.625
0.625
0.625
0.625
0.625
0.625
0.625
0.625
0.625
0.625
0.625
0.625
0.625
0.625
0.625
0.625
0.625
0.625
0.625
0.625
0.625
0.625
0.625
0.625
0.625
0.625
0.625
0.625
0.625
0.625
0.625
0.625
0.625
0.625
0.625
0.625
0.625
0.625
0.625
0.625
0.625
0.625
0.625
0.625
0.625
0.625
0.625
SCALARS volume double 1
LOOKUP_TABLE default
0.000625
0.000625
0.000625
0.000625
0.000625
0.000625
0.000625
0.000625
0.000625
0.000625
0.000625
0.000625
0.000625
0.000625
0.000625
0.000625
0.000625
0.000625
0.000625
0.000625
0.000625
0.000625
0.000625
0.000625
0.000625
0.000625
0.000625
0.000625
0.000625
0.000625
0.000625
0.000625
0.000625
0.000625
0.000625
0.000625
0.000625
0.000625
0.000625
0.000625
0.000625
0.000625
0.000625
0.000625
0.000625
0.000625
0.000625
0.000625
0.000625
0.000625
0.000625
0.000625
0.000625
0.000625
0.000625
0.000625
0.000625
0.000625
0.000625
0.000625
0.000625
0.000625
0.000625
0.000625
VECTORS momentum double
-2.07143e-15 -1.23238 0 
1.13127e-15 -1.23238 0 
-1.31423e-15 -1.23238 0 
3.97184e-17 -1.23238 0 
8.47596e-16 -1.23238 0 
-4.74178e-16 -1.23238 0 
-4.33982e-16 -1.23238 0 
-1.13429e-15 -1.23238 0 
-1.76693e-15 -1.23238 0 
-1.79325e-15 -1.23238 0 
-1.70275e-15 -1.23238 0 
-1.28095e-15 -1.23238 0 
2.04685e-16 -1.23238 0 
-8.93014e-17 -1.23238 0 
-2.15612e-16 -1.23238 0 
2.05401e-16 -1.23238 0 
-9.73769e-16 -1.23238 0 
-5.16056e-16 -1.23238 0 
-1.05006e-15 -1.23238 0 
-5.36059e-16 -1.23238 0 
-9.07533e-16 -1.23238 0 
-1.17233e-15 -1.23238 0 
-5.73057e-16 -1.23238 0 
-5.88314e-16 -1.23238 0 
-1.25814e-15 -1.23238 0 
-7.92686e-16 -1.23238 0 
-4.33111e-16 -1.23238 0 
-3.28463e-16 -1.23238 0 
-2.68359e-16 -1.23238 0 
5.45434e-16 -1.23238 0 
4.64459e-17 -1.23238 0 
9.30797e-16 -1.23238 0 
-8.99264e-16 -1.23238 0 
-4.98189e-16 -1.23238 0 
-5.21386e-16 -1.23238 0 
-4.02449e-16 -1.23238 0 
-1.73619e-16 -1.23238 0 
-8.49382e-17 -1.23238 0 
2.90782e-16 -1.23238 0 
3.37792e-16 -1.23238 0 
1.78761e-16 -1.23238 0 
3.47512e-17 -1.23238 0 
5.77474e-16 -1.23238 0 
2.96958e-16 -1.23238 0 
2.87476e-16 -1.23238 0 
8.94217e-16 -1.23238 0 
4.54731e-16 -1.23238 0 
4.35693e-16 -1.23238 0 
1.32249e-16 -1.23238 0 
-1.02852e-15 -1.23238 0 
1.06164e-15 -1.23238 0 
-2.37641e-15 -1.23238 0 
-2.14402e-16 -1.23238 0 
3.49444e-16 -1.23238 0 
-1.68917e-15 -1.23238 0 
-4.99817e-17 -1.23238 0 
8.36687e-16 -1.23238 0 
6.78209e-16 -1.23238 0 
9.56399e-16 -1.23238 0 
1.1785e-15 -1.23238 0 
2.43881e-16 -1.23238 0 
3.19476e-16 -1.23238 0 
-3.45074e-16 -1.23238 0 
5.45565e-16 -1.23238 0 
VECTORS body_force double
0 -9.81 0 
0 -9.81 0 
0 -9.81 0 
0 -9.81 0 
0 -9.81 0 
0 -9.81 0 
0 -9.81 0 
0 -9.81 0 
0 -9.81 0 
0 -9.81 0 
0 -9.81 0 
0 -9.81 0 
0 -9.81 0 
0 -9.81 0 
0 -9.81 0 
0 -9.81 0 
0 -9.81 0 
0 -9.81 0 
0 -9.81 0 
0 -9.81 0 
0 -9.81 0 
0 -9.81 0 
0 -9.81 0 
0 -9.81 0 
0 -9.81 0 
0 -9.81 0 
0 -9.81 0 
0 -9.81 0 
0 -9.81 0 
0 -9.81 0 
0 -9.81 0 
0 -9.81 0 
0 -9.81 0 
0 -9.81 0 
0 -9.81 0 
0 -9.81 0 
0 -9.81 0 
0 -9.81 0 
0 -9.81 0 
0 -9.81 0 
0 -9.81 0 
0 -9.81 0 
0 -9.81 0 
0 -9.81 0 
0 -9.81 0 
0 -9.81 0 
0 -9.81 0 
0 -9.81 0 
0 -9.81 0 
0 -9.81 0 
0 -9.81 0 
0 -9.81 0 
0 -9.81 0 
0 -9.81 0 
0 -9.81 0 
0 -9.81 0 
0 -9.81 0 
0 -9.81 0 
0 -9.81 0 
0 -9.81 0 
0 -9.81 0 
0 -9.81 0 
0 -9.81 0 
0 -9.81 0 
TENSORS cauchy_stress double
-9.0026e-11 9.79552e-13 0
9.79552e-13 -1.23797e-10 0
0 0 -6.41468e-11

6.14534e-11 2.43859e-12 0
2.43859e-12 1.60799e-10 0
0 0 6.66758e-11

-8.57578e-11 1.31004e-11 0
1.31004e-11 -1.13838e-10 0
0 0 -5.98786e-11

3.53125e-11 1.01549e-12 0
1.01549e-12 9.98037e-11 0
0 0 4.05348e-11

5.58696e-11 -6.16457e-12 0
-6.16457e-12 1.13838e-10 0
0 0 5.09123e-11

-3.57003e-11 -1.17231e-12 0
-1.17231e-12 -8.20569e-11 0
0 0 -3.53272e-11

5.17844e-11 -6.07874e-12 0
-6.07874e-12 1.04306e-10 0
0 0 4.6827e-11

-3.46963e-11 -4.0423e-12 0
-4.0423e-12 -7.97142e-11 0
0 0 -3.43231e-11

1.56024e-11 3.39135e-12 0
3.39135e-12 5.68016e-11 0
0 0 2.17212e-11

1.37912e-12 -4.09317e-12 0
-4.09317e-12 -7.36352e-12 0
0 0 -1.79532e-12

5.04632e-12 7.14464e-12 0
7.14464e-12 3.21708e-11 0
0 0 1.11651e-11

1.78627e-11 3.35476e-12 0
3.35476e-12 3.10982e-11 0
0 0 1.46883e-11

6.47773e-12 1.20007e-11 0
1.20007e-11 1.55201e-11 0
0 0 6.59935e-12

1.31581e-11 -2.28659e-12 0
-2.28659e-12 1.01136e-11 0
0 0 6.98152e-12

-7.87898e-12 -1.14628e-12 0
-1.14628e-12 -1.79789e-11 0
0 0 -7.75736e-12

1.67914e-11 8.32494e-12 0
8.32494e-12 1.85914e-11 0
0 0 1.06148e-11

-8.07859e-11 -1.3386e-11 0
-1.3386e-11 -1.47001e-10 0
0 0 -6.83362e-11

7.01259e-11 -9.54566e-12 0
-9.54566e-12 1.35797e-10 0
0 0 6.17768e-11

-4.65677e-11 -1.09436e-11 0
-1.09436e-11 -6.71588e-11 0
0 0 -3.41179e-11

6.75335e-11 2.92173e-12 0
2.92173e-12 1.29748e-10 0
0 0 5.91843e-11

7.0081e-11 -6.02288e-12 0
-6.02288e-12 1.03169e-10 0
0 0 5.1975e-11

-2.4895e-11 8.46174e-12 0
8.46174e-12 -1.17016e-10 0
0 0 -4.25732e-11

6.23572e-11 3.74976e-12 0
3.74976e-12 8.5147e-11 0
0 0 4.42512e-11

-3.04434e-11 1.6148e-13 0
1.6148e-13 -1.29962e-10 0
0 0 -4.81217e-11

3.44623e-11 -1.1553e-12 0
-1.1553e-12 4.04541e-11 0
0 0 2.24749e-11

1.75904e-11 4.8713e-12 0
4.8713e-12 -5.36e-12 0
0 0 3.66911e-12

2.49611e-11 1.25138e-13 0
1.25138e-13 1.82846e-11 0
0 0 1.29737e-11

3.02613e-11 5.76096e-12 0
5.76096e-12 2.42056e-11 0
0 0 1.63401e-11

-2.272e-13 9.4449e-13 0
9.4449e-13 -2.60885e-11 0
0 0 -7.89471e-12

2.64691e-12 -7.51137e-12 0
-7.51137e-12 -2.13141e-11 0
0 0 -5.60015e-12

1.14798e-11 7.96836e-13 0
7.96836e-13 1.2278e-12 0
0 0 3.81228e-12

1.31833e-11 5.3283e-13 0
5.3283e-13 3.27096e-12 0
0 0 4.93629e-12

-4.3376e-11 1.21882e-11 0
1.21882e-11 -1.2245e-10 0
0 0 -4.9748e-11

6.73352e-11 -2.41382e-12 0
-2.41382e-12 1.21058e-10 0
0 0 5.6518e-11

-4.77932e-11 9.83653e-12 0
9.83653e-12 -1.32757e-10 0
0 0 -5.41651e-11

6.19725e-11 7.20568e-12 0
7.20568e-12 1.08545e-10 0
0 0 5.11554e-11

6.35237e-11 -8.72508e-12 0
-8.72508e-12 8.79161e-11 0
0 0 4.54319e-11

-1.79184e-11 -1.27447e-11 0
-1.27447e-11 -9.90348e-11 0
0 0 -3.50859e-11

4.69568e-11 5.02716e-12 0
5.02716e-12 4.92601e-11 0
0 0 2.88651e-11

-2.77983e-11 -1.32481e-11 0
-1.32481e-11 -1.22088e-10 0
0 0 -4.49659e-11

2.62485e-11 -4.52285e-12 0
-4.52285e-12 1.86115e-11 0
0 0 1.3458e-11

2.33709e-11 -5.69923e-12 0
-5.69923e-12 1.13429e-11 0
0 0 1.04141e-11

3.29375e-11 -5.36425e-12 0
-5.36425e-12 3.4219e-11 0
0 0 2.0147e-11

4.02212e-11 -5.09079e-12 0
-5.09079e-12 5.06602e-11 0
0 0 2.72644e-11

-2.88135e-12 5.35996e-13 0
5.35996e-13 -2.43643e-11 0
0 0 -8.17368e-12

-1.7911e-11 9.48716e-12 0
9.48716e-12 -8.60944e-12 0
0 0 -7.95612e-12

1.07342e-12 2.62821e-12 0
2.62821e-12 -1.51365e-11 0
0 0 -4.21891e-12

-1.04298e-11 8.5248e-12 0
8.5248e-12 8.84668e-12 0
0 0 -4.74926e-13

-6.10955e-11 -3.42807e-12 0
-3.42807e-12 -7.39584e-11 0
0 0 -4.05162e-11

3.43225e-11 -1.41516e-12 0
-1.41516e-12 1.17851e-10 0
0 0 4.56519e-11

-7.81724e-11 -1.57623e-12 0
-1.57623e-12 -1.13805e-10 0
0 0 -5.75931e-11

5.90015e-11 -7.99235e-12 0
-7.99235e-12 1.75435e-10 0
0 0 7.03309e-11

4.49251e-11 -1.91236e-12 0
-1.91236e-12 9.70028e-11 0
0 0 4.25784e-11

-4.04151e-11 -1.0883e-12 0
-1.0883e-12 -1.16905e-10 0
0 0 -4.71961e-11

5.02822e-11 7.03018e-12 0
7.03018e-12 1.09503e-10 0
0 0 4.79355e-11

-2.88891e-11 -1.75577e-12 0
-1.75577e-12 -9.00112e-11 0
0 0 -3.56701e-11

7.82736e-12 5.66435e-12 0
5.66435e-12 3.95011e-12 0
0 0 3.53324e-12

1.12586e-11 2.58801e-12 0
2.58801e-12 6.39591e-12 0
0 0 5.29636e-12

3.22057e-11 -7.67219e-13 0
-7.67219e-13 6.08329e-11 0
0 0 2.79116e-11

1.09496e-11 1.07313e-11 0
1.07313e-11 5.6748e-12 0
0 0 4.98731e-12

-4.29589e-12 2.1503e-12 0
2.1503e-12 -8.1959e-12 0
0 0 -3.74754e-12

-1.05004e-11 -3.48125e-12 0
-3.48125e-12 -1.53462e-11 0
0 0 -7.75397e-12

1.05856e-11 -4.21855e-12 0
-4.21855e-12 2.65277e-11 0
0 0 1.1134e-11

-3.07362e-12 -6.29719e-12 0
-6.29719e-12 1.9829e-12 0
0 0 -3.27216e-13

TENSORS velocity_gradient double
2.05294e-14 7.22179e-14 0
-1.59872e-14 -2.14939e-13 0
0 0 0

-1.88686e-14 7.22179e-14 0
-2.13163e-14 -2.20268e-13 0
0 0 0

2.05294e-14 3.28199e-14 0
-2.13163e-14 -1.91847e-13 0
0 0 0

-1.88686e-14 3.28199e-14 0
-2.84217e-14 -2.27374e-13 0
0 0 0

-2.2014e-14 -4.73685e-14 0
-5.32907e-15 1.36779e-13 0
0 0 0

-2.24903e-15 -4.73685e-14 0
1.77636e-14 1.45661e-13 0
0 0 0

-2.2014e-14 -2.76036e-14 0
-1.42109e-14 1.42109e-13 0
0 0 0

-2.24903e-15 -2.76036e-14 0
0 1.27898e-13 0
0 0 0

5.59687e-15 1.06167e-14 0
0 -1.42109e-14 0
0 0 0

5.91043e-15 1.06167e-14 0
2.13163e-14 2.13163e-14 0
0 0 0

5.59687e-15 1.09303e-14 0
-7.10543e-15 4.9738e-14 0
0 0 0

5.91043e-15 1.09303e-14 0
0 4.26326e-14 0
0 0 0

5.12023e-15 2.84208e-14 0
2.30926e-14 2.30926e-14 0
0 0 0

3.63248e-15 2.84208e-14 0
-2.4869e-14 3.19744e-14 0
0 0 0

5.12023e-15 2.6933e-14 0
7.10543e-15 -2.13163e-14 0
0 0 0

3.63248e-15 2.6933e-14 0
-1.42109e-14 0 0
0 0 0

1.81843e-15 1.10566e-14 0
1.24345e-14 -1.58096e-13 0
0 0 0

-2.3101e-15 1.10566e-14 0
1.42109e-14 -1.84741e-13 0
0 0 0

1.81843e-15 6.92807e-15 0
1.77636e-14 -1.66978e-13 0
0 0 0

-2.3101e-15 6.92807e-15 0
4.26326e-14 -1.42109e-13 0
0 0 0

4.56222e-15 -1.08089e-14 0
4.08562e-14 1.1191e-13 0
0 0 0

1.83866e-14 -1.08089e-14 0
0 1.13687e-13 0
0 0 0

4.56222e-15 3.01551e-15 0
2.13163e-14 1.06581e-13 0
0 0 0

1.83866e-14 3.01551e-15 0
0 1.13687e-13 0
0 0 0

2.3172e-14 1.06236e-14 0
1.59872e-14 4.44089e-14 0
0 0 0

2.2245e-14 1.06236e-14 0
-3.55271e-15 3.90799e-14 0
0 0 0

2.3172e-14 9.69655e-15 0
-7.10543e-15 4.9738e-14 0
0 0 0

2.2245e-14 9.69655e-15 0
1.42109e-14 7.10543e-14 0
0 0 0

1.99484e-14 2.46081e-14 0
1.24345e-14 -3.01981e-14 0
0 0 0

1.67863e-14 2.46081e-14 0
-3.55271e-15 -4.61853e-14 0
0 0 0

1.99484e-14 2.1446e-14 0
-3.55271e-15 -3.19744e-14 0
0 0 0

1.67863e-14 2.1446e-14 0
1.42109e-14 -1.42109e-14 0
0 0 0

7.21692e-15 2.77566e-15 0
-1.77636e-14 -1.59872e-13 0
0 0 0

3.04064e-15 2.77566e-15 0
-3.55271e-15 -1.45661e-13 0
0 0 0

7.21692e-15 -1.40062e-15 0
-2.4869e-14 -1.38556e-13 0
0 0 0

3.04064e-15 -1.40062e-15 0
-1.42109e-14 -1.56319e-13 0
0 0 0

7.07354e-15 1.45381e-14 0
3.55271e-15 7.4607e-14 0
0 0 0

1.62943e-14 1.45381e-14 0
0 9.9476e-14 0
0 0 0

7.07354e-15 2.37589e-14 0
1.06581e-14 6.75016e-14 0
0 0 0

1.62943e-14 2.37589e-14 0
0 9.9476e-14 0
0 0 0

1.77263e-14 7.48794e-15 0
-1.59872e-14 6.92779e-14 0
0 0 0

1.42361e-14 7.48794e-15 0
-7.10543e-15 4.9738e-14 0
0 0 0

1.77263e-14 3.99773e-15 0
1.42109e-14 9.9476e-14 0
0 0 0

1.42361e-14 3.99773e-15 0
0 5.68434e-14 0
0 0 0

6.51969e-15 1.46714e-14 0
2.13163e-14 -3.55271e-14 0
0 0 0

-3.86753e-15 1.46714e-14 0
2.13163e-14 -6.39488e-14 0
0 0 0

6.51969e-15 4.28414e-15 0
3.55271e-15 -2.4869e-14 0
0 0 0

-3.86753e-15 4.28414e-15 0
4.26326e-14 0 0
0 0 0

2.14645e-14 -2.30613e-14 0
7.10543e-15 -1.20792e-13 0
0 0 0

-1.76806e-14 -2.30613e-14 0
-2.84217e-14 -1.13687e-13 0
0 0 0

2.14645e-14 -6.22063e-14 0
3.55271e-15 -1.81188e-13 0
0 0 0

-1.76806e-14 -6.22063e-14 0
-2.84217e-14 -1.42109e-13 0
0 0 0

-2.19221e-14 3.72774e-14 0
-2.13163e-14 9.23706e-14 0
0 0 0

-4.10591e-15 3.72774e-14 0
1.42109e-14 9.9476e-14 0
0 0 0

-2.19221e-14 5.50935e-14 0
-3.55271e-14 9.23706e-14 0
0 0 0

-4.10591e-15 5.50935e-14 0
1.42109e-14 1.27898e-13 0
0 0 0

1.06904e-15 8.45739e-16 0
-1.06581e-14 6.03961e-14 0
0 0 0

-1.74474e-15 8.45739e-16 0
-2.84217e-14 1.42109e-14 0
0 0 0

1.06904e-15 -1.96804e-15 0
0 2.84217e-14 0
0 0 0

-1.74474e-15 -1.96804e-15 0
-1.42109e-14 1.42109e-14 0
0 0 0

-1.33387e-15 3.14893e-16 0
-2.66454e-14 1.77636e-15 0
0 0 0

1.11486e-15 3.14893e-16 0
-1.77636e-14 2.4869e-14 0
0 0 0

-1.33387e-15 2.76362e-15 0
-2.13163e-14 -7.10543e-15 0
0 0 0

1.11486e-15 2.76362e-15 0
-2.84217e-14 0 0
0 0 0

SCALARS active double 1
LOOKUP_TABLE default
1
1
1
1
1
1
1
1
1
1
1
1
1
1
1
1
1
1
1
1
1
1
1
1
1
1
1
1
1
1
1
1
1
1
1
1
1
1
1
1
1
1
1
1
1
1
1
1
1
1
1
1
1
1
1
1
1
1
1
1
1
1
1
1
SCALARS extent double 1
LOOKUP_TABLE default
0.0125
0.0125
0.0125
0.0125
0.0125
0.0125
0.0125
0.0125
0.0125
0.0125
0.0125
0.0125
0.0125
0.0125
0.0125
0.0125
0.0125
0.0125
0.0125
0.0125
0.0125
0.0125
0.0125
0.0125
0.0125
0.0125
0.0125
0.0125
0.0125
0.0125
0.0125
0.0125
0.0125
0.0125
0.0125
0.0125
0.0125
0.0125
0.0125
0.0125
0.0125
0.0125
0.0125
0.0125
0.0125
0.0125
0.0125
0.0125
0.0125
0.0125
0.0125
0.0125
0.0125
0.0125
0.0125
0.0125
0.0125
0.0125
0.0125
0.0125
0.0125
0.0125
0.0125
0.0125
SCALARS pressure double 1
LOOKUP_TABLE default
9.26565e-11
-9.63095e-11
8.64913e-11
-5.85503e-11
-7.35399e-11
5.10281e-11
-6.7639e-11
4.95779e-11
-3.1375e-11
2.59324e-12
-1.61274e-11
-2.12164e-11
-9.53239e-12
-1.00844e-11
1.12051e-11
-1.53325e-11
9.87078e-11
-8.92331e-11
4.92815e-11
-8.54884e-11
-7.5075e-11
6.14947e-11
-6.39185e-11
6.95091e-11
-3.24638e-11
-5.29982e-12
-1.87398e-11
-2.36023e-11
1.14035e-11
8.08911e-12
-5.50662e-12
-7.1302e-12
7.18582e-11
-8.16372e-11
7.82385e-11
-7.38911e-11
-6.56239e-11
5.06797e-11
-4.1694e-11
6.49507e-11
-1.94393e-11
-1.50426e-11
-2.91012e-11
-3.93819e-11
1.18064e-11
1.14922e-11
6.09399e-12
6.86004e-13
5.85234e-11
-6.59417e-11
8.319e-11
-1.01589e-10
-6.15021e-11
6.81722e-11
-6.92401e-11
5.15235e-11
-5.10357e-12
-7.6503e-12
-4.03167e-11
-7.2039e-12
5.41311e-12
1.12002e-11
-1.60824e-11
4.72645e-13
SCALARS density double 1
LOOKUP_TABLE default
1000
1000
1000
1000
1000
1000
1000
1000
1000
1000
1000
1000
1000
1000
1000
1000
1000
1000
1000
1000
1000
1000
1000
1000
1000
1000
1000
1000
1000
1000
1000
1000
1000
1000
1000
1000
1000
1000
1000
1000
1000
1000
1000
1000
1000
1000
1000
1000
1000
1000
1000
1000
1000
1000
1000
1000
1000
1000
1000
1000
1000
1000
1000
1000
