# vtk DataFile Version 3.0
Frame: 34, Time: 0.567
ASCII
DATASET UNSTRUCTURED_GRID
POINTS 64 double
0.437636 0.0643502 0 
0.413474 0.0733245 0 
0.443926 0.0878711 0 
0.420122 0.0979297 0 
0.389431 0.0815214 0 
0.363878 0.0896514 0 
0.397386 0.105061 0 
0.373215 0.111897 0 
0.340542 0.0987386 0 
0.31543 0.105961 0 
0.349901 0.122089 0 
0.326103 0.128923 0 
0.292053 0.118252 0 
0.26994 0.127724 0 
0.302186 0.140397 0 
0.279233 0.149584 0 
0.45069 0.111077 0 
0.426836 0.121195 0 
0.463325 0.131404 0 
0.438504 0.14129 0 
0.403461 0.128497 0 
0.380961 0.135797 0 
0.415376 0.149742 0 
0.392796 0.157728 0 
0.357962 0.145189 0 
0.334292 0.150612 0 
0.369023 0.167931 0 
0.343832 0.175417 0 
0.311772 0.162219 0 
0.287786 0.175222 0 
0.320511 0.186093 0 
0.297839 0.197344 0 
0.474188 0.15527 0 
0.44928 0.161976 0 
0.481134 0.178383 0 
0.456684 0.185793 0 
0.425724 0.170482 0 
0.402244 0.180178 0 
0.434384 0.193779 0 
0.410697 0.204027 0 
0.377595 0.190969 0 
0.352929 0.198748 0 
0.384679 0.213681 0 
0.362536 0.2228 0 
0.329655 0.208931 0 
0.306963 0.219614 0 
0.340374 0.233996 0 
0.315923 0.243777 0 
0.490522 0.19924 0 
0.465836 0.207919 0 
0.49768 0.222716 0 
0.474881 0.232528 0 
0.444394 0.217909 0 
0.41988 0.225961 0 
0.452229 0.242921 0 
0.427691 0.250266 0 
0.394827 0.235282 0 
0.373561 0.247144 0 
0.405042 0.260378 0 
0.383631 0.272044 0 
0.35131 0.257132 0 
0.325918 0.265853 0 
0.360144 0.280373 0 
0.33578 0.288825 0 
CELLS 64 128
1 0
1 1
1 2
1 3
1 4
1 5
1 6
1 7
1 8
1 9
1 10
1 11
1 12
1 13
1 14
1 15
1 16
1 17
1 18
1 19
1 20
1 21
1 22
1 23
1 24
1 25
1 26
1 27
1 28
1 29
1 30
1 31
1 32
1 33
1 34
1 35
1 36
1 37
1 38
1 39
1 40
1 41
1 42
1 43
1 44
1 45
1 46
1 47
1 48
1 49
1 50
1 51
1 52
1 53
1 54
1 55
1 56
1 57
1 58
1 59
1 60
1 61
1 62
1 63
CELL_TYPES 64
1
1
1
1
1
1
1
1
1
1
1
1
1
1
1
1
1
1
1
1
1
1
1
1
1
1
1
1
1
1
1
1
1
1
1
1
1
1
1
1
1
1
1
1
1
1
1
1
1
1
1
1
1
1
1
1
1
1
1
1
1
1
1
1
POINT_DATA 64
VECTORS displacement double
0.0251358 -0.34815 0 
0.000973974 -0.364175 0 
0.00642624 -0.324629 0 
-0.0173775 -0.33957 0 
-0.0230685 -0.380979 0 
-0.0486222 -0.397849 0 
-0.0401136 -0.357439 0 
-0.0642851 -0.375603 0 
-0.0719583 -0.413761 0 
-0.0970696 -0.431539 0 
-0.0875985 -0.390411 0 
-0.111397 -0.408577 0 
-0.120447 -0.444248 0 
-0.14256 -0.459776 0 
-0.135314 -0.422103 0 
-0.158267 -0.437916 0 
-0.0118098 -0.301423 0 
-0.0356641 -0.316305 0 
-0.0241748 -0.281096 0 
-0.0489956 -0.29621 0 
-0.0590393 -0.334003 0 
-0.0815394 -0.351703 0 
-0.0721239 -0.312758 0 
-0.094704 -0.329772 0 
-0.104538 -0.367311 0 
-0.128208 -0.386888 0 
-0.118477 -0.344569 0 
-0.143668 -0.362083 0 
-0.150728 -0.400281 0 
-0.174714 -0.412278 0 
-0.166989 -0.376407 0 
-0.189661 -0.390156 0 
-0.0383117 -0.25723 0 
-0.0632197 -0.275524 0 
-0.0563662 -0.234117 0 
-0.0808165 -0.251707 0 
-0.0867764 -0.292018 0 
-0.110256 -0.307322 0 
-0.103116 -0.268721 0 
-0.126803 -0.283473 0 
-0.134905 -0.321531 0 
-0.159571 -0.338752 0 
-0.152821 -0.298819 0 
-0.174964 -0.3147 0 
-0.182845 -0.353569 0 
-0.205537 -0.367886 0 
-0.197126 -0.328504 0 
-0.221577 -0.343723 0 
-0.0719781 -0.21326 0 
-0.0966637 -0.229581 0 
-0.0898196 -0.189784 0 
-0.112619 -0.204972 0 
-0.118106 -0.244591 0 
-0.14262 -0.261539 0 
-0.135271 -0.219579 0 
-0.159809 -0.237234 0 
-0.167673 -0.277218 0 
-0.188939 -0.290356 0 
-0.182458 -0.252122 0 
-0.203869 -0.265456 0 
-0.21119 -0.305368 0 
-0.236582 -0.321647 0 
-0.227356 -0.282127 0 
-0.25172 -0.298675 0 
VECTORS velocity double
0.392259 -0.298239 0 
-0.229814 -0.797185 0 
0.280718 -0.418397 0 
-0.327529 -0.459525 0 
0.734909 -0.94884 0 
-0.547485 -0.569751 0 
0.617422 -0.739442 0 
0.0580679 -0.634573 0 
0.472049 -1.11967 0 
-0.115632 -1.25411 0 
0.2491 -0.936915 0 
-0.152913 -1.0097 0 
-0.138312 -1.42496 0 
0.0729531 -1.74999 0 
-0.124113 -1.30932 0 
-0.628062 -1.71001 0 
0.110176 -0.416969 0 
-0.26646 -0.331824 0 
0.151821 -0.439305 0 
-0.130903 -0.674294 0 
0.165359 -0.368665 0 
-0.204335 -0.681746 0 
-0.199583 -0.474058 0 
-0.713384 -0.744608 0 
-0.532782 -1.21199 0 
-0.725578 -1.48245 0 
-0.479289 -1.17888 0 
-0.583675 -1.1102 0 
-0.108624 -1.21517 0 
-0.278779 -1.55711 0 
-0.0489267 -0.388096 0 
-0.754274 -1.47035 0 
0.0284485 0.214972 0 
0.022916 -0.474212 0 
-0.463695 -0.106962 0 
-0.274242 -0.0542457 0 
-0.164832 -0.50193 0 
-0.212601 -0.67505 0 
-0.731779 -0.743764 0 
-0.622986 -0.88144 0 
0.301713 -0.935774 0 
-0.208124 -1.14976 0 
-0.470336 -0.704575 0 
-1.28214 -1.0555 0 
-0.758622 -1.25532 0 
-1.06466 -1.72117 0 
-1.16428 -0.751682 0 
-0.626206 -0.907213 0 
-0.0811058 -0.0902574 0 
-0.288614 -0.261862 0 
-0.603645 0.297936 0 
-0.995843 -0.250446 0 
-0.429486 -0.984819 0 
-0.239665 -0.820798 0 
-1.04109 -0.262106 0 
-1.03253 -0.570911 0 
-0.652302 -0.847719 0 
-1.26583 -1.36599 0 
-1.48538 -1.11164 0 
-1.19709 -0.803919 0 
-0.538435 -1.07624 0 
-1.18043 -1.68275 0 
-1.16833 -0.55822 0 
-1.43719 -1.10603 0 
SCALARS mass double 1
LOOKUP_TABLE default
0.625
0.625
0.625
0.625
0.625
0.625
0.625
0.625
0.625
0.625
0.625
0.625
0.625
0.625
0.625
0.625
0.625
0.625
0.625
0.625
0.625
0.625
0.625
0.625
0.625
0.625
0.625
0.625
0.625
0.625
0.625
0.625
0.625
0.625
0.625
0.625
0.625
0.625
0.625
0.625
0.625
0.625
0.625
0.625
0.625
0.625
0.625
0.625
0.625
0.625
0.625
0.625
0.625
0.625
0.625
0.625
0.625
0.625
0.625
0.625
0.625
0.625
0.625
0.625
SCALARS volume double 1
LOOKUP_TABLE default
0.00066241
0.000591741
0.000619048
0.000632316
0.000655708
0.000649911
0.000597455
0.000620389
0.00060574
0.000652261
0.000599106
0.000592759
0.000627989
0.000612514
0.000632724
0.000630889
0.000604294
0.000623766
0.000676842
0.000651118
0.000587587
0.000651103
0.000565084
0.000586949
0.000676383
0.000606743
0.000627364
0.000642512
0.000648237
0.000611788
0.000611383
0.000619522
0.000645107
0.000622401
0.00060654
0.000605632
0.000633923
0.000647355
0.00062913
0.000602941
0.000669793
0.000646718
0.000619777
0.000617332
0.000613403
0.0006241
0.000652029
0.000627764
0.000619215
0.000654157
0.000626847
0.000621032
0.000633682
0.000628732
0.000624453
0.000611367
0.000651882
0.000649075
0.000625142
0.000603837
0.000638025
0.000605225
0.000637086
0.000631401
VECTORS momentum double
0.245162 -0.186399 0 
-0.143634 -0.49824 0 
0.175449 -0.261498 0 
-0.204706 -0.287203 0 
0.459318 -0.593025 0 
-0.342178 -0.356094 0 
0.385889 -0.462151 0 
0.0362924 -0.396608 0 
0.295031 -0.699793 0 
-0.0722702 -0.783821 0 
0.155687 -0.585572 0 
-0.0955708 -0.631061 0 
-0.0864452 -0.8906 0 
0.0455957 -1.09374 0 
-0.0775705 -0.818326 0 
-0.392539 -1.06876 0 
0.0688598 -0.260606 0 
-0.166538 -0.20739 0 
0.0948879 -0.274565 0 
-0.0818142 -0.421434 0 
0.10335 -0.230415 0 
-0.127709 -0.426091 0 
-0.12474 -0.296286 0 
-0.445865 -0.46538 0 
-0.332988 -0.757494 0 
-0.453486 -0.926531 0 
-0.299555 -0.7368 0 
-0.364797 -0.693878 0 
-0.0678901 -0.759481 0 
-0.174237 -0.973191 0 
-0.0305792 -0.24256 0 
-0.471421 -0.91897 0 
0.0177803 0.134357 0 
0.0143225 -0.296382 0 
-0.28981 -0.0668513 0 
-0.171401 -0.0339036 0 
-0.10302 -0.313706 0 
-0.132876 -0.421906 0 
-0.457362 -0.464852 0 
-0.389366 -0.5509 0 
0.188571 -0.584859 0 
-0.130077 -0.7186 0 
-0.29396 -0.44036 0 
-0.801335 -0.659686 0 
-0.474138 -0.784574 0 
-0.665414 -1.07573 0 
-0.727674 -0.469801 0 
-0.391378 -0.567008 0 
-0.0506911 -0.0564109 0 
-0.180384 -0.163664 0 
-0.377278 0.18621 0 
-0.622402 -0.156529 0 
-0.268429 -0.615512 0 
-0.149791 -0.512999 0 
-0.650684 -0.163816 0 
-0.645333 -0.356819 0 
-0.407689 -0.529825 0 
-0.791142 -0.853741 0 
-0.928364 -0.694776 0 
-0.748181 -0.50245 0 
-0.336522 -0.672648 0 
-0.737769 -1.05172 0 
-0.730203 -0.348888 0 
-0.898245 -0.691266 0 
VECTORS body_force double
0 -9.81 0 
0 -9.81 0 
0 -9.81 0 
0 -9.81 0 
0 -9.81 0 
0 -9.81 0 
0 -9.81 0 
0 -9.81 0 
0 -9.81 0 
0 -9.81 0 
0 -9.81 0 
0 -9.81 0 
0 -9.81 0 
0 -9.81 0 
0 -9.81 0 
0 -9.81 0 
0 -9.81 0 
0 -9.81 0 
0 -9.81 0 
0 -9.81 0 
0 -9.81 0 
0 -9.81 0 
0 -9.81 0 
0 -9.81 0 
0 -9.81 0 
0 -9.81 0 
0 -9.81 0 
0 -9.81 0 
0 -9.81 0 
0 -9.81 0 
0 -9.81 0 
0 -9.81 0 
0 -9.81 0 
0 -9.81 0 
0 -9.81 0 
0 -9.81 0 
0 -9.81 0 
0 -9.81 0 
0 -9.81 0 
0 -9.81 0 
0 -9.81 0 
0 -9.81 0 
0 -9.81 0 
0 -9.81 0 
0 -9.81 0 
0 -9.81 0 
0 -9.81 0 
0 -9.81 0 
0 -9.81 0 
0 -9.81 0 
0 -9.81 0 
0 -9.81 0 
0 -9.81 0 
0 -9.81 0 
0 -9.81 0 
0 -9.81 0 
0 -9.81 0 
0 -9.81 0 
0 -9.81 0 
0 -9.81 0 
0 -9.81 0 
0 -9.81 0 
0 -9.81 0 
0 -9.81 0 
TENSORS cauchy_stress double
12177.6 2107.7 0
2107.7 -998.221 0
0 0 3353.82

-9889.56 -2642.01 0
-2642.01 -626.35 0
0 0 -3154.77

-304.439 1013.81 0
1013.81 -1535.77 0
0 0 -552.062

22.0815 30.6381 0
30.6381 2215.82 0
0 0 671.371

6979.67 802.506 0
802.506 2244.25 0
0 0 2767.17

7042.88 -2716.99 0
-2716.99 473.158 0
0 0 2254.81

-2453.84 5561.97 0
5561.97 -6213.95 0
0 0 -2600.34

-4092.38 -6054.64 0
-6054.64 2668.44 0
0 0 -427.183

-2389.88 41.5822 0
41.5822 -3629.35 0
0 0 -1805.77

7467.42 1264 0
1264 742.668 0
0 0 2463.03

-4164.74 -1297.89 0
-1297.89 -3972.47 0
0 0 -2441.16

-5463.45 -846.992 0
-846.992 -4721.74 0
0 0 -3055.56

2310.21 1258.63 0
1258.63 -1392.56 0
0 0 275.294

-2407.61 -749.618 0
-749.618 -1473.04 0
0 0 -1164.2

913.942 -3822.5 0
-3822.5 1448.1 0
0 0 708.612

496.846 95.7287 0
95.7287 1306.55 0
0 0 541.02

-4410.45 2640.2 0
2640.2 -2068.44 0
0 0 -1943.67

2343.48 -5204.41 0
-5204.41 -2723.53 0
0 0 -114.013

6263.37 858.054 0
858.054 9060.88 0
0 0 4597.28

7754.12 -3992.34 0
-3992.34 118.81 0
0 0 2361.88

-1940.48 6553.14 0
6553.14 -9930.19 0
0 0 -3561.2

-3957.25 -230.339 0
-230.339 11825.6 0
0 0 2360.51

-1766.77 6708.21 0
6708.21 -17613.3 0
0 0 -5814.03

-5632.33 -1731.61 0
-1731.61 -6447.25 0
0 0 -3623.87

1077.24 -498.397 0
-498.397 14116.5 0
0 0 4558.13

-4880.36 6410.42 0
6410.42 -820.79 0
0 0 -1710.34

4825.52 2405.27 0
2405.27 -4099.58 0
0 0 217.784

6744.72 742.222 0
742.222 -1430.55 0
0 0 1594.25

4400.71 -3981.24 0
-3981.24 2619.41 0
0 0 2106.04

-1326.77 -1018.92 0
-1018.92 -2782.08 0
0 0 -1232.66

-2581.19 -1623.27 0
-1623.27 -1655.03 0
0 0 -1270.87

600.172 -607.7 0
-607.7 -2293.22 0
0 0 -507.915

-1305.67 235.974 0
235.974 7394.94 0
0 0 1826.78

311.604 -3134.79 0
-3134.79 -1113.01 0
0 0 -240.421

-3424.86 -2043.07 0
-2043.07 -2340.84 0
0 0 -1729.71

-4092.97 -1423.65 0
-1423.65 -1960.65 0
0 0 -1816.09

3027.54 -1690.97 0
-1690.97 -301.447 0
0 0 817.827

-2843.8 -6314.57 0
-6314.57 9602.11 0
0 0 2027.49

1296.51 -560.397 0
-560.397 -29.9132 0
0 0 379.98

3142.91 -355.002 0
-355.002 -10053 0
0 0 -2073.01

7372.42 -10291.2 0
-10291.2 5938.46 0
0 0 3993.26

-1824.8 -9703.96 0
-9703.96 8393.78 0
0 0 1970.69

8261.94 1191.67 0
1191.67 -9875.65 0
0 0 -484.113

-710.749 4242.46 0
4242.46 -1663.23 0
0 0 -712.194

-6929.5 -3704.75 0
-3704.75 3327.55 0
0 0 -1080.58

1400.78 -73.2238 0
-73.2238 -1677.95 0
0 0 -83.1506

8039.62 2316.04 0
2316.04 102.232 0
0 0 2442.56

759.052 -325.01 0
-325.01 89.6204 0
0 0 254.602

298.818 -1259.04 0
-1259.04 -2087.08 0
0 0 -536.479

5268.92 984.745 0
984.745 3499.35 0
0 0 2630.48

116.757 -158.229 0
-158.229 450.686 0
0 0 170.233

-25.2284 -819.1 0
-819.1 -1199.51 0
0 0 -367.422

2914.31 1957.94 0
1957.94 -261.301 0
0 0 795.903

-1837.77 -1096 0
-1096 2982.65 0
0 0 343.466

1644.49 569.544 0
569.544 -1812.89 0
0 0 -50.5205

-3439.68 1184.22 0
1184.22 -801.359 0
0 0 -1272.31

4090.92 -2334.62 0
-2334.62 4007.4 0
0 0 2429.5

-5899.33 -901.458 0
-901.458 13168 0
0 0 2180.6

1743.15 724.959 0
724.959 -1699.53 0
0 0 13.088

-3057.68 -1727.81 0
-1727.81 -3566.7 0
0 0 -1987.32

1142.09 -1883.84 0
-1883.84 2824.29 0
0 0 1189.92

-2705.08 -2067.67 0
-2067.67 -3477.85 0
0 0 -1854.88

3599.47 3046.09 0
3046.09 83.6939 0
0 0 1104.95

1364.27 -90.2122 0
-90.2122 595.111 0
0 0 587.816

TENSORS velocity_gradient double
0.66548 -2.21492 0
4.44421 0.364638 0
0 0 0

0.101657 -0.716104 0
4.54182 0.105174 0
0 0 0

-0.7771 -2.60848 0
4.67728 0.43784 0
0 0 0

-1.07372 -3.03997 0
4.75086 0.446441 0
0 0 0

1.04003 -0.325049 0
4.02324 0.0191891 0
0 0 0

1.37589 -1.36616 0
3.97917 0.155811 0
0 0 0

1.02788 -7.45696 0
4.71713 0.511403 0
0 0 0

1.91935 -8.19509 0
5.57432 -2.33658 0
0 0 0

1.99688 -4.92655 0
9.57429 -1.24797 0
0 0 0

1.8049 -5.28096 0
8.67575 -1.89008 0
0 0 0

1.19279 -8.15102 0
7.00001 -4.62872 0
0 0 0

-0.319695 -6.28106 0
6.37737 -2.97199 0
0 0 0

-0.611671 -4.04211 0
6.8085 -0.320644 0
0 0 0

-0.369432 -4.59787 0
6.78804 -0.273702 0
0 0 0

-0.986307 -4.29525 0
5.68645 -0.76752 0
0 0 0

-0.0784192 -5.13008 0
6.67329 0.810675 0
0 0 0

0.406506 -3.9565 0
4.21283 0.816605 0
0 0 0

0.338458 -5.57486 0
4.55179 0.801584 0
0 0 0

0.459352 -4.06483 0
5.40851 1.55195 0
0 0 0

2.05026 -4.57007 0
4.30247 0.65524 0
0 0 0

1.21982 -7.46788 0
5.16223 0.899369 0
0 0 0

2.2094 -8.09887 0
8.67173 -1.30908 0
0 0 0

2.30584 -5.12302 0
4.40366 -1.1793 0
0 0 0

2.1839 -2.7484 0
9.49396 -3.15045 0
0 0 0

2.28389 -7.11672 0
9.62675 -3.30913 0
0 0 0

-1.56961 -4.61742 0
4.63583 -0.441849 0
0 0 0

1.95079 -2.21895 0
8.35873 -0.572035 0
0 0 0

0.447867 -2.36964 0
4.69628 1.46566 0
0 0 0

-0.863212 -5.43472 0
4.48257 1.25696 0
0 0 0

-1.0524 -6.0696 0
6.18945 1.41295 0
0 0 0

1.43029 -4.58144 0
4.65867 1.32247 0
0 0 0

-0.581232 -5.9909 0
5.13305 1.11906 0
0 0 0

-0.0265684 -5.26088 0
7.02053 -0.264684 0
0 0 0

1.14613 -5.62498 0
5.95882 -1.41756 0
0 0 0

0.50521 -5.1428 0
7.90611 -0.167496 0
0 0 0

0.687961 -5.7285 0
8.19342 -1.08829 0
0 0 0

1.49686 -4.45928 0
5.27253 -2.57708 0
0 0 0

1.13423 -3.12629 0
6.14966 -3.47813 0
0 0 0

0.136323 -5.2001 0
6.4521 -2.09935 0
0 0 0

0.128525 -10.1056 0
6.82537 -2.12257 0
0 0 0

1.43692 -2.41132 0
5.85619 -1.50891 0
0 0 0

1.46704 -6.46801 0
5.09295 0.277605 0
0 0 0

1.17166 -11.5554 0
4.4314 -1.64234 0
0 0 0

1.11877 -11.4292 0
4.08971 -0.82699 0
0 0 0

1.51221 -9.1157 0
4.62457 -0.0853773 0
0 0 0

0.290055 -6.55596 0
4.4875 0.201704 0
0 0 0

-1.32314 -10.3578 0
4.30658 -0.224686 0
0 0 0

-2.32464 -7.46234 0
4.22046 0.0851758 0
0 0 0

0.964768 -6.4371 0
8.66635 0.120105 0
0 0 0

1.10189 -8.55862 0
8.9554 -0.684128 0
0 0 0

0.295539 -7.88163 0
8.4294 0.137806 0
0 0 0

1.34633 -8.46654 0
9.67061 -0.414709 0
0 0 0

0.873879 -9.04435 0
7.33549 -1.25759 0
0 0 0

1.31955 -10.4398 0
7.299 -1.76519 0
0 0 0

1.67096 -8.76942 0
9.37436 -1.05752 0
0 0 0

2.17876 -9.22692 0
7.30436 -1.70298 0
0 0 0

1.17313 -11.5542 0
4.21708 -1.97242 0
0 0 0

0.89217 -9.13526 0
3.25964 -0.222175 0
0 0 0

1.58011 -6.50919 0
6.4212 0.838324 0
0 0 0

-0.0778081 -5.22251 0
3.01189 1.62817 0
0 0 0

-0.325378 -3.99039 0
3.53501 1.67047 0
0 0 0

-1.66035 -5.4707 0
4.9927 0.604806 0
0 0 0

-0.459849 -4.15385 0
2.97263 1.738 0
0 0 0

0.159773 -4.67685 0
6.17162 1.11899 0
0 0 0

SCALARS active double 1
LOOKUP_TABLE default
1
1
1
1
1
1
1
1
1
1
1
1
1
1
1
1
1
1
1
1
1
1
1
1
1
1
1
1
1
1
1
1
1
1
1
1
1
1
1
1
1
1
1
1
1
1
1
1
1
1
1
1
1
1
1
1
1
1
1
1
1
1
1
1
SCALARS extent double 1
LOOKUP_TABLE default
0.0125
0.0125
0.0125
0.0125
0.0125
0.0125
0.0125
0.0125
0.0125
0.0125
0.0125
0.0125
0.0125
0.0125
0.0125
0.0125
0.0125
0.0125
0.0125
0.0125
0.0125
0.0125
0.0125
0.0125
0.0125
0.0125
0.0125
0.0125
0.0125
0.0125
0.0125
0.0125
0.0125
0.0125
0.0125
0.0125
0.0125
0.0125
0.0125
0.0125
0.0125
0.0125
0.0125
0.0125
0.0125
0.0125
0.0125
0.0125
0.0125
0.0125
0.0125
0.0125
0.0125
0.0125
0.0125
0.0125
0.0125
0.0125
0.0125
0.0125
0.0125
0.0125
0.0125
0.0125
SCALARS pressure double 1
LOOKUP_TABLE default
-4844.41
4556.9
797.423
-969.758
-3997.03
-3256.95
3756.04
617.042
2608.34
-3557.7
3526.12
4413.58
-397.647
1681.62
-1023.55
-781.473
2807.52
164.686
-6640.51
-3411.6
5143.96
-3409.63
8398.04
5234.48
-6583.97
2470.5
-314.576
-2302.81
-3042.05
1780.5
1835.69
733.656
-2638.69
347.274
2498.47
2623.24
-1181.31
-2928.6
-548.86
2994.35
-5768.05
-2846.56
699.274
1028.72
1560.84
120.106
-3528.14
-367.758
774.914
-3799.58
-245.892
530.72
-1149.64
-496.118
72.9741
1837.78
-3509.27
-3149.76
-18.9048
2870.57
-1718.77
2679.27
-1596.04
-849.067
SCALARS density double 1
LOOKUP_TABLE default
943.525
1056.21
1009.62
988.43
953.168
961.671
1046.1
1007.43
1031.8
958.206
1043.22
1054.39
995.24
1020.38
987.793
990.666
1034.26
1001.98
923.406
959.887
1063.67
959.91
1106.03
1064.83
924.033
1030.09
996.232
972.745
964.154
1021.6
1022.27
1008.84
968.832
1004.18
1030.44
1031.98
985.924
965.467
993.435
1036.59
933.125
966.418
1008.43
1012.42
1018.91
1001.44
958.546
995.597
1009.34
955.429
997.054
1006.39
986.299
994.064
1000.88
1022.3
958.763
962.908
999.773
1035.05
979.586
1032.67
981.03
989.863
