# vtk DataFile Version 3.0
Frame: 43, Time: 0.717
ASCII
DATASET UNSTRUCTURED_GRID
POINTS 64 double
0.659651 0.487848 0 
0.674366 0.466032 0 
0.637795 0.473543 0 
0.651756 0.450638 0 
0.686817 0.44395 0 
0.702108 0.421529 0 
0.665548 0.429321 0 
0.680621 0.407666 0 
0.717718 0.40066 0 
0.730353 0.377943 0 
0.695115 0.386916 0 
0.708374 0.365371 0 
0.746605 0.356812 0 
0.762343 0.337624 0 
0.724786 0.344344 0 
0.738823 0.322891 0 
0.616988 0.459419 0 
0.630012 0.436797 0 
0.5966 0.446775 0 
0.610184 0.422917 0 
0.644908 0.415542 0 
0.6594 0.395003 0 
0.623871 0.400919 0 
0.637519 0.380734 0 
0.673242 0.373108 0 
0.687287 0.351556 0 
0.652357 0.359317 0 
0.66703 0.338206 0 
0.703028 0.330283 0 
0.718565 0.308402 0 
0.681238 0.317311 0 
0.695936 0.29495 0 
0.575638 0.43329 0 
0.587392 0.40966 0 
0.554978 0.418477 0 
0.56634 0.394985 0 
0.602555 0.388698 0 
0.615496 0.365618 0 
0.58272 0.373939 0 
0.594911 0.351907 0 
0.631051 0.34423 0 
0.646343 0.324105 0 
0.610129 0.330204 0 
0.62504 0.310078 0 
0.659305 0.301792 0 
0.674876 0.279842 0 
0.637605 0.286698 0 
0.654867 0.265531 0 
0.534897 0.405151 0 
0.546459 0.382112 0 
0.511121 0.3915 0 
0.52351 0.368814 0 
0.561793 0.360908 0 
0.575472 0.336924 0 
0.539388 0.346979 0 
0.553421 0.322593 0 
0.589724 0.315422 0 
0.60412 0.294017 0 
0.56694 0.302263 0 
0.582103 0.280141 0 
0.618746 0.271138 0 
0.634999 0.250718 0 
0.597751 0.257805 0 
0.614464 0.237125 0 
CELLS 64 128
1 0
1 1
1 2
1 3
1 4
1 5
1 6
1 7
1 8
1 9
1 10
1 11
1 12
1 13
1 14
1 15
1 16
1 17
1 18
1 19
1 20
1 21
1 22
1 23
1 24
1 25
1 26
1 27
1 28
1 29
1 30
1 31
1 32
1 33
1 34
1 35
1 36
1 37
1 38
1 39
1 40
1 41
1 42
1 43
1 44
1 45
1 46
1 47
1 48
1 49
1 50
1 51
1 52
1 53
1 54
1 55
1 56
1 57
1 58
1 59
1 60
1 61
1 62
1 63
CELL_TYPES 64
1
1
1
1
1
1
1
1
1
1
1
1
1
1
1
1
1
1
1
1
1
1
1
1
1
1
1
1
1
1
1
1
1
1
1
1
1
1
1
1
1
1
1
1
1
1
1
1
1
1
1
1
1
1
1
1
1
1
1
1
1
1
1
1
POINT_DATA 64
VECTORS displacement double
0.147151 -0.124652 0 
0.161866 -0.171468 0 
0.100295 -0.138957 0 
0.114256 -0.186862 0 
0.174317 -0.21855 0 
0.189608 -0.265971 0 
0.128048 -0.233179 0 
0.143121 -0.279834 0 
0.205218 -0.31184 0 
0.217853 -0.359557 0 
0.157615 -0.325584 0 
0.170874 -0.372129 0 
0.234105 -0.405688 0 
0.249843 -0.449876 0 
0.187286 -0.418156 0 
0.201323 -0.464609 0 
0.0544882 -0.153081 0 
0.067512 -0.200703 0 
0.00910006 -0.165725 0 
0.0226837 -0.214583 0 
0.0824082 -0.246958 0 
0.0968996 -0.292497 0 
0.0363713 -0.261581 0 
0.0500187 -0.306766 0 
0.110742 -0.339392 0 
0.124787 -0.385944 0 
0.0648571 -0.353183 0 
0.0795299 -0.399294 0 
0.140528 -0.432217 0 
0.156065 -0.479098 0 
0.0937384 -0.445189 0 
0.108436 -0.49255 0 
-0.0368621 -0.17921 0 
-0.0251084 -0.22784 0 
-0.0825217 -0.194023 0 
-0.0711595 -0.242515 0 
-0.00994522 -0.273802 0 
0.00299644 -0.321882 0 
-0.0547797 -0.288561 0 
-0.0425893 -0.335593 0 
0.018551 -0.36827 0 
0.0338425 -0.413395 0 
-0.0273708 -0.382296 0 
-0.0124596 -0.427422 0 
0.0468048 -0.460708 0 
0.0623763 -0.507658 0 
0.000104893 -0.475802 0 
0.0173667 -0.521969 0 
-0.127603 -0.207349 0 
-0.116041 -0.255388 0 
-0.176379 -0.221 0 
-0.16399 -0.268686 0 
-0.100707 -0.301592 0 
-0.0870278 -0.350576 0 
-0.148112 -0.315521 0 
-0.134079 -0.364907 0 
-0.0727764 -0.397078 0 
-0.0583804 -0.443483 0 
-0.12056 -0.410237 0 
-0.105397 -0.457359 0 
-0.0437543 -0.491362 0 
-0.0275013 -0.536782 0 
-0.0897488 -0.504695 0 
-0.0730358 -0.550375 0 
VECTORS velocity double
-2.54364 -0.404161 0 
-1.88537 -0.386432 0 
-2.30053 -0.806421 0 
-1.50745 -0.447657 0 
-1.95936 -0.380285 0 
-1.88637 -0.420356 0 
-1.76722 -0.493079 0 
-1.43078 -0.55373 0 
-1.36089 -0.20434 0 
-1.70078 -0.75015 0 
-1.41656 -0.293294 0 
-1.82641 -0.734656 0 
-1.51881 -0.261434 0 
-1.2433 -0.254443 0 
-0.804483 -0.593722 0 
-1.39527 -0.300081 0 
-1.89271 -0.860508 0 
-1.67327 -1.10224 0 
-1.90961 -1.01883 0 
-1.62699 -0.521117 0 
-1.33802 -0.883253 0 
-0.955241 -1.05997 0 
-1.66513 -0.58907 0 
-1.58992 -0.834079 0 
-1.14612 -0.582199 0 
-1.38307 -0.699938 0 
-1.17886 -0.855134 0 
-1.05196 -0.589741 0 
-1.1642 -0.846388 0 
-0.759378 -0.999656 0 
-1.07123 -0.602088 0 
-1.44031 -0.349733 0 
-1.37145 -1.07322 0 
-0.798423 -0.783538 0 
-1.56529 -0.696576 0 
-1.19104 -0.718942 0 
-0.996728 -1.08656 0 
-1.24955 -1.12014 0 
-1.37702 -1.23083 0 
-1.16946 -0.970981 0 
-0.659245 -0.806777 0 
-1.17382 -0.695308 0 
-1.08232 -1.32583 0 
-1.83362 -0.945114 0 
-0.969216 -1.18987 0 
-0.556518 -0.833984 0 
-0.8989 -1.36308 0 
-0.630745 -0.722085 0 
-1.1485 -0.544382 0 
-1.27377 -0.834953 0 
-1.2555 -1.30948 0 
-1.00552 -0.909835 0 
-1.24821 -0.615154 0 
-0.554257 -0.291504 0 
-1.15944 -0.984884 0 
-0.84346 -0.940276 0 
-0.737234 -0.781829 0 
-1.57108 -1.063 0 
-0.774948 -0.951206 0 
-1.09886 -1.47468 0 
-0.471486 -0.907069 0 
-0.968717 -0.66346 0 
-0.782454 -1.08724 0 
-0.579465 -0.996165 0 
SCALARS mass double 1
LOOKUP_TABLE default
0.625
0.625
0.625
0.625
0.625
0.625
0.625
0.625
0.625
0.625
0.625
0.625
0.625
0.625
0.625
0.625
0.625
0.625
0.625
0.625
0.625
0.625
0.625
0.625
0.625
0.625
0.625
0.625
0.625
0.625
0.625
0.625
0.625
0.625
0.625
0.625
0.625
0.625
0.625
0.625
0.625
0.625
0.625
0.625
0.625
0.625
0.625
0.625
0.625
0.625
0.625
0.625
0.625
0.625
0.625
0.625
0.625
0.625
0.625
0.625
0.625
0.625
0.625
0.625
SCALARS volume double 1
LOOKUP_TABLE default
0.000637485
0.000615807
0.00063405
0.000634471
0.000637643
0.000640636
0.000621405
0.000612624
0.000633188
0.00063038
0.000637188
0.000626473
0.000641998
0.000630178
0.00062208
0.000613396
0.000607716
0.00062494
0.000623249
0.000627131
0.000633279
0.000631717
0.000611135
0.000626576
0.000640539
0.000631378
0.000637091
0.000599102
0.000634396
0.000640592
0.000632336
0.000615164
0.000602274
0.000638331
0.000622065
0.000627976
0.000615047
0.000655827
0.000629429
0.000584039
0.000630167
0.000603041
0.000620608
0.000607798
0.000656284
0.000614574
0.000651178
0.000605855
0.000626432
0.000610156
0.000617189
0.000629894
0.000635323
0.000631669
0.000641838
0.000628482
0.00064078
0.000663129
0.000605771
0.000619827
0.000606638
0.000609588
0.000640321
0.00062676
VECTORS momentum double
-1.58977 -0.252601 0 
-1.17835 -0.24152 0 
-1.43783 -0.504013 0 
-0.942158 -0.279786 0 
-1.2246 -0.237678 0 
-1.17898 -0.262723 0 
-1.10451 -0.308174 0 
-0.894238 -0.346081 0 
-0.850555 -0.127713 0 
-1.06299 -0.468844 0 
-0.885349 -0.183309 0 
-1.1415 -0.45916 0 
-0.949259 -0.163396 0 
-0.777064 -0.159027 0 
-0.502802 -0.371076 0 
-0.872043 -0.187551 0 
-1.18294 -0.537817 0 
-1.04579 -0.688901 0 
-1.19351 -0.636769 0 
-1.01687 -0.325698 0 
-0.836261 -0.552033 0 
-0.597026 -0.66248 0 
-1.0407 -0.368169 0 
-0.993698 -0.521299 0 
-0.716325 -0.363874 0 
-0.864421 -0.437461 0 
-0.73679 -0.534459 0 
-0.657473 -0.368588 0 
-0.727627 -0.528993 0 
-0.474611 -0.624785 0 
-0.66952 -0.376305 0 
-0.900195 -0.218583 0 
-0.857159 -0.670762 0 
-0.499014 -0.489711 0 
-0.978305 -0.43536 0 
-0.744403 -0.449339 0 
-0.622955 -0.679103 0 
-0.780971 -0.700088 0 
-0.860639 -0.769267 0 
-0.730915 -0.606863 0 
-0.412028 -0.504236 0 
-0.733636 -0.434568 0 
-0.676448 -0.828644 0 
-1.14601 -0.590696 0 
-0.60576 -0.743667 0 
-0.347823 -0.52124 0 
-0.561813 -0.851927 0 
-0.394216 -0.451303 0 
-0.71781 -0.340239 0 
-0.796103 -0.521846 0 
-0.784687 -0.818427 0 
-0.62845 -0.568647 0 
-0.78013 -0.384471 0 
-0.34641 -0.18219 0 
-0.724653 -0.615552 0 
-0.527163 -0.587673 0 
-0.460771 -0.488643 0 
-0.981923 -0.664375 0 
-0.484342 -0.594504 0 
-0.686788 -0.921676 0 
-0.294679 -0.566918 0 
-0.605448 -0.414662 0 
-0.489034 -0.679528 0 
-0.362165 -0.622603 0 
VECTORS body_force double
0 -9.81 0 
0 -9.81 0 
0 -9.81 0 
0 -9.81 0 
0 -9.81 0 
0 -9.81 0 
0 -9.81 0 
0 -9.81 0 
0 -9.81 0 
0 -9.81 0 
0 -9.81 0 
0 -9.81 0 
0 -9.81 0 
0 -9.81 0 
0 -9.81 0 
0 -9.81 0 
0 -9.81 0 
0 -9.81 0 
0 -9.81 0 
0 -9.81 0 
0 -9.81 0 
0 -9.81 0 
0 -9.81 0 
0 -9.81 0 
0 -9.81 0 
0 -9.81 0 
0 -9.81 0 
0 -9.81 0 
0 -9.81 0 
0 -9.81 0 
0 -9.81 0 
0 -9.81 0 
0 -9.81 0 
0 -9.81 0 
0 -9.81 0 
0 -9.81 0 
0 -9.81 0 
0 -9.81 0 
0 -9.81 0 
0 -9.81 0 
0 -9.81 0 
0 -9.81 0 
0 -9.81 0 
0 -9.81 0 
0 -9.81 0 
0 -9.81 0 
0 -9.81 0 
0 -9.81 0 
0 -9.81 0 
0 -9.81 0 
0 -9.81 0 
0 -9.81 0 
0 -9.81 0 
0 -9.81 0 
0 -9.81 0 
0 -9.81 0 
0 -9.81 0 
0 -9.81 0 
0 -9.81 0 
0 -9.81 0 
0 -9.81 0 
0 -9.81 0 
0 -9.81 0 
0 -9.81 0 
TENSORS cauchy_stress double
1229.03 -2436.18 0
-2436.18 2574.61 0
0 0 1141.09

757.114 -436.094 0
-436.094 -3606.72 0
0 0 -854.882

-740.213 152.107 0
152.107 3505 0
0 0 829.436

-958.818 707.275 0
707.275 3851.06 0
0 0 867.671

-63.2795 -2021.29 0
-2021.29 3914.56 0
0 0 1155.38

2140.8 -1218.41 0
-1218.41 2611.06 0
0 0 1425.56

-1372.22 -2921.12 0
-2921.12 262.986 0
0 0 -332.772

-4427.25 131.354 0
131.354 580.941 0
0 0 -1153.89

2905.56 -1643.02 0
-1643.02 -402.614 0
0 0 750.884

-35.3839 -2696.21 0
-2696.21 1683.7 0
0 0 494.495

3893.88 1814.47 0
1814.47 -179.744 0
0 0 1114.24

-1131.25 -1297.24 0
-1297.24 1583.99 0
0 0 135.821

2133.68 -2409.63 0
-2409.63 3026.49 0
0 0 1548.05

-1046.34 -137.226 0
-137.226 2632.93 0
0 0 475.977

-1744.24 -368.795 0
-368.795 843.572 0
0 0 -270.201

-920.612 422.929 0
422.929 -2683.36 0
0 0 -1081.19

-2498.14 -8.56133 0
-8.56133 -2894.99 0
0 0 -1617.94

1457.69 -1085.15 0
-1085.15 -1476.01 0
0 0 -5.49342

-3144.33 -1206.52 0
-1206.52 2604.86 0
0 0 -161.842

2000.03 -2200.36 0
-2200.36 -1345.3 0
0 0 196.417

894.88 1552.24 0
1552.24 1635.7 0
0 0 759.174

1420.43 1244.31 0
1244.31 635.365 0
0 0 616.738

-3224.66 -1022.87 0
-1022.87 -1089.61 0
0 0 -1294.28

5041.17 13.7514 0
13.7514 -4556.79 0
0 0 145.314

615.679 80.8346 0
80.8346 4106.97 0
0 0 1416.8

2498.85 -3429.03 0
-3429.03 -546.253 0
0 0 585.778

4828.07 -3689.12 0
-3689.12 -1143.15 0
0 0 1105.48

-1117.33 -1557.18 0
-1557.18 -7021.17 0
0 0 -2441.55

1337.54 -1203.31 0
-1203.31 1532.14 0
0 0 860.904

-2106.52 -2018.02 0
-2018.02 6845.13 0
0 0 1421.58

3421.9 -1340.59 0
-1340.59 -1177.79 0
0 0 673.232

791.643 -430.309 0
-430.309 -3842.24 0
0 0 -915.18

-4743.14 -120.936 0
-120.936 -2379.83 0
0 0 -2136.89

1725.25 685.922 0
685.922 2333.51 0
0 0 1217.63

-545.171 -1058.14 0
-1058.14 -360.088 0
0 0 -271.578

-16.9337 -1985.33 0
-1985.33 930.308 0
0 0 274.012

-3765.99 -2780.79 0
-2780.79 678.991 0
0 0 -926.099

262.168 -471.147 0
-471.147 8996.48 0
0 0 2777.6

-1880.34 -214.153 0
-214.153 3238.41 0
0 0 407.42

-5549.82 1948.78 0
1948.78 -7485.42 0
0 0 -3910.57

5209.21 -2081.96 0
-2081.96 -3626.01 0
0 0 474.958

-8623.96 2955.7 0
2955.7 1745.77 0
0 0 -2063.46

-1929.93 -4050.21 0
-4050.21 573.638 0
0 0 -406.888

-7367.79 3701.22 0
3701.22 2000.63 0
0 0 -1610.15

-1472.78 2089.04 0
2089.04 10865.4 0
0 0 2817.79

-3483.82 -665.324 0
-665.324 248.63 0
0 0 -970.556

5776.13 -4003.99 0
-4003.99 2114.53 0
0 0 2367.2

-1162.58 -2863.56 0
-2863.56 -4820.39 0
0 0 -1794.89

384.129 -287.532 0
-287.532 55.899 0
0 0 132.008

-433.92 -1925.87 0
-1925.87 -4188.57 0
0 0 -1386.75

-2333.45 1229.98 0
1229.98 -85.058 0
0 0 -725.552

-742.556 -1650.36 0
-1650.36 2242.68 0
0 0 450.038

94.7377 -2087.04 0
-2087.04 3055.66 0
0 0 945.12

1033.26 -3705.44 0
-3705.44 1007.87 0
0 0 612.337

1801.55 -910.934 0
-910.934 3310.82 0
0 0 1533.71

-3293.86 458.009 0
458.009 4362.29 0
0 0 320.528

7467.47 -2530.29 0
-2530.29 -2672.4 0
0 0 1438.52

2838.25 627.062 0
627.062 8549.7 0
0 0 3416.38

-5436.58 -374.814 0
-374.814 -572.979 0
0 0 -1802.87

-2434.66 36.4545 0
36.4545 836.446 0
0 0 -479.463

-871.452 -3219.32 0
-3219.32 -4862.93 0
0 0 -1720.32

-6977.22 1591.68 0
1591.68 2175.74 0
0 0 -1440.44

2671.98 -1583.7 0
-1583.7 1985.32 0
0 0 1397.19

-416.518 -178.399 0
-178.399 957.3 0
0 0 162.235

TENSORS velocity_gradient double
0.362286 -9.11826 0
7.17419 1.36413 0
0 0 0

-0.180342 -8.75797 0
5.45951 2.50263 0
0 0 0

-2.94303 -9.25465 0
4.3339 0.735366 0
0 0 0

-1.02296 -8.87019 0
4.58379 1.39815 0
0 0 0

-0.80194 -7.10116 0
4.34892 1.49123 0
0 0 0

-0.98282 -6.54342 0
2.63997 1.51871 0
0 0 0

-1.33839 -7.81956 0
4.70141 1.94918 0
0 0 0

-2.14688 -7.26285 0
5.28284 1.54881 0
0 0 0

-1.16007 -5.40068 0
0.788998 2.29534 0
0 0 0

-1.03608 -4.35835 0
2.22646 0.604817 0
0 0 0

-2.30455 -4.11534 0
4.10365 3.15547 0
0 0 0

-0.906003 -4.12866 0
3.37261 2.62862 0
0 0 0

-0.0820806 -4.52825 0
3.69419 -0.687324 0
0 0 0

0.828499 -3.8142 0
4.11787 0.00757682 0
0 0 0

-0.719378 -4.38655 0
4.63768 0.945109 0
0 0 0

-0.616006 -4.46032 0
4.15134 1.28579 0
0 0 0

-2.7279 -8.93237 0
4.74215 1.34696 0
0 0 0

-2.47892 -8.32481 0
4.38289 1.44287 0
0 0 0

-2.72794 -8.29891 0
1.28744 0.03637 0
0 0 0

-2.37672 -8.17662 0
3.6555 0.388231 0
0 0 0

-2.22019 -8.37461 0
3.64575 2.11515 0
0 0 0

-2.49741 -5.16289 0
5.2179 1.67415 0
0 0 0

-2.21302 -6.94994 0
2.57441 0.935976 0
0 0 0

-2.06008 -4.70073 0
2.08969 0.869508 0
0 0 0

-2.85181 -4.41322 0
4.21261 2.26962 0
0 0 0

-3.09676 -4.1294 0
3.34112 2.26159 0
0 0 0

-2.80909 -4.7014 0
3.14794 1.27797 0
0 0 0

-2.92809 -3.45071 0
3.54554 1.71593 0
0 0 0

-0.982556 -4.27241 0
4.27649 0.436197 0
0 0 0

-0.548971 -4.36563 0
3.78076 0.762275 0
0 0 0

-2.38667 -3.81739 0
4.50637 1.06519 0
0 0 0

-1.87201 -5.84438 0
4.40665 1.02661 0
0 0 0

-2.48953 -6.98983 0
-1.46723 -0.496129 0
0 0 0

-1.35334 -7.548 0
-1.74459 -0.359873 0
0 0 0

-1.77499 -5.98934 0
-1.64166 -0.740365 0
0 0 0

-0.730777 -3.89639 0
-1.79136 0.414011 0
0 0 0

-1.80485 -4.40461 0
1.44434 0.313939 0
0 0 0

-1.94545 -4.53225 0
1.83506 0.495284 0
0 0 0

-0.0465921 -3.89339 0
-1.5556 0.413887 0
0 0 0

0.0219973 -2.96915 0
-0.818948 1.13779 0
0 0 0

-1.37302 -1.8684 0
1.67742 2.67158 0
0 0 0

-0.605471 -2.6693 0
2.67513 2.55398 0
0 0 0

-0.292024 0.164427 0
1.92696 3.31374 0
0 0 0

1.33648 -1.04269 0
2.32185 3.02102 0
0 0 0

-1.95029 -3.76762 0
5.01964 1.11173 0
0 0 0

-1.00677 -5.79559 0
4.12964 -0.331061 0
0 0 0

1.93465 -4.85484 0
2.71803 -1.77353 0
0 0 0

-0.258355 -4.86755 0
3.23201 -1.56283 0
0 0 0

-1.34783 -3.3224 0
3.83688 2.35752 0
0 0 0

-0.286199 -2.87122 0
2.73855 0.674105 0
0 0 0

-0.294994 -2.74899 0
5.02301 -0.356101 0
0 0 0

-0.25376 -2.77134 0
4.30452 0.0333453 0
0 0 0

0.36809 -3.22727 0
-1.3936 0.674104 0
0 0 0

-0.6534 -1.61806 0
-1.64351 2.77059 0
0 0 0

0.322621 -3.21707 0
2.84055 0.0764995 0
0 0 0

-1.47906 -3.92617 0
-2.09786 1.88215 0
0 0 0

-3.10615 0.0157552 0
-2.33939 3.23413 0
0 0 0

1.51296 -4.92721 0
2.22889 -0.711226 0
0 0 0

-4.23241 -2.28814 0
-2.43263 3.06801 0
0 0 0

-2.35319 -3.40977 0
0.700449 2.00676 0
0 0 0

1.5604 -5.31037 0
2.94317 -1.4995 0
0 0 0

1.16706 -4.88402 0
3.18483 -1.77956 0
0 0 0

0.959396 -5.19045 0
4.24519 -0.524063 0
0 0 0

1.25867 -4.4213 0
3.15067 -2.05315 0
0 0 0

SCALARS active double 1
LOOKUP_TABLE default
1
1
1
1
1
1
1
1
1
1
1
1
1
1
1
1
1
1
1
1
1
1
1
1
1
1
1
1
1
1
1
1
1
1
1
1
1
1
1
1
1
1
1
1
1
1
1
1
1
1
1
1
1
1
1
1
1
1
1
1
1
1
1
1
SCALARS extent double 1
LOOKUP_TABLE default
0.0125
0.0125
0.0125
0.0125
0.0125
0.0125
0.0125
0.0125
0.0125
0.0125
0.0125
0.0125
0.0125
0.0125
0.0125
0.0125
0.0125
0.0125
0.0125
0.0125
0.0125
0.0125
0.0125
0.0125
0.0125
0.0125
0.0125
0.0125
0.0125
0.0125
0.0125
0.0125
0.0125
0.0125
0.0125
0.0125
0.0125
0.0125
0.0125
0.0125
0.0125
0.0125
0.0125
0.0125
0.0125
0.0125
0.0125
0.0125
0.0125
0.0125
0.0125
0.0125
0.0125
0.0125
0.0125
0.0125
0.0125
0.0125
0.0125
0.0125
0.0125
0.0125
0.0125
0.0125
SCALARS pressure double 1
LOOKUP_TABLE default
-1648.24
1234.83
-1198.07
-1253.3
-1668.89
-2059.14
480.67
1666.74
-1084.61
-714.271
-1609.46
-196.187
-2236.07
-687.523
390.29
1561.72
2337.02
7.93494
233.771
-283.714
-1096.58
-890.844
1869.51
-209.897
-2046.48
-846.124
-1596.8
3526.69
-1243.53
-2053.4
-972.447
1321.93
3086.62
-1758.79
392.279
-395.796
1337.7
-4012.08
-588.495
5648.6
-686.051
2980.55
587.727
2325.77
-4070.14
1401.91
-3419.29
2592.62
-190.679
2003.08
1048.02
-650.055
-1365.17
-884.487
-2215.36
-462.985
-2077.86
-4934.78
2604.14
692.558
2484.9
2080.64
-2018.16
-234.339
SCALARS density double 1
LOOKUP_TABLE default
980.415
1014.93
985.726
985.073
980.173
975.593
1005.78
1020.2
987.069
991.465
980.872
997.649
973.524
991.784
1004.69
1018.92
1028.44
1000.1
1002.81
996.601
986.927
989.367
1022.69
997.484
975.741
989.898
981.021
1043.23
985.188
975.66
988.398
1015.99
1037.73
979.116
1004.72
995.262
1016.18
952.996
992.963
1070.13
991.801
1036.41
1007.08
1028.3
952.332
1016.97
959.799
1031.6
997.714
1024.33
1012.66
992.23
983.751
989.442
973.766
994.46
975.374
942.502
1031.74
1008.35
1030.27
1025.28
976.073
997.192
