# vtk DataFile Version 3.0
Frame: 52, Time: 0.867
ASCII
DATASET UNSTRUCTURED_GRID
POINTS 64 double
0.307514 0.0780602 0 
0.28166 0.0709096 0 
0.299318 0.101206 0 
0.273431 0.0941652 0 
0.257036 0.064629 0 
0.232643 0.0605056 0 
0.250772 0.0889106 0 
0.226377 0.0850176 0 
0.211742 0.0537982 0 
0.189757 0.0447584 0 
0.20413 0.0782159 0 
0.181945 0.0686616 0 
0.164074 0.042244 0 
0.144849 0.0357444 0 
0.155133 0.0639137 0 
0.133267 0.055515 0 
0.29009 0.124067 0 
0.266206 0.117721 0 
0.287385 0.148184 0 
0.26322 0.1428 0 
0.244656 0.113748 0 
0.220955 0.109666 0 
0.240413 0.139329 0 
0.216336 0.133457 0 
0.197396 0.100357 0 
0.175402 0.0905193 0 
0.192094 0.124092 0 
0.168468 0.116307 0 
0.149706 0.0864493 0 
0.124597 0.0807412 0 
0.143809 0.110597 0 
0.120261 0.10463 0 
0.285769 0.174208 0 
0.260396 0.166906 0 
0.282374 0.199286 0 
0.256644 0.191123 0 
0.235905 0.162326 0 
0.210738 0.156626 0 
0.232611 0.186338 0 
0.206668 0.18187 0 
0.186723 0.148406 0 
0.164206 0.142025 0 
0.181409 0.172947 0 
0.158666 0.168354 0 
0.139792 0.134505 0 
0.116209 0.128454 0 
0.133109 0.160988 0 
0.108261 0.153802 0 
0.277101 0.222959 0 
0.251751 0.214253 0 
0.267528 0.245558 0 
0.244467 0.238678 0 
0.227365 0.211671 0 
0.201813 0.2055 0 
0.220071 0.23679 0 
0.195137 0.229394 0 
0.176426 0.197251 0 
0.152301 0.19344 0 
0.170577 0.222824 0 
0.145938 0.217695 0 
0.127991 0.185564 0 
0.10343 0.178169 0 
0.12241 0.208887 0 
0.098494 0.203468 0 
CELLS 64 128
1 0
1 1
1 2
1 3
1 4
1 5
1 6
1 7
1 8
1 9
1 10
1 11
1 12
1 13
1 14
1 15
1 16
1 17
1 18
1 19
1 20
1 21
1 22
1 23
1 24
1 25
1 26
1 27
1 28
1 29
1 30
1 31
1 32
1 33
1 34
1 35
1 36
1 37
1 38
1 39
1 40
1 41
1 42
1 43
1 44
1 45
1 46
1 47
1 48
1 49
1 50
1 51
1 52
1 53
1 54
1 55
1 56
1 57
1 58
1 59
1 60
1 61
1 62
1 63
CELL_TYPES 64
1
1
1
1
1
1
1
1
1
1
1
1
1
1
1
1
1
1
1
1
1
1
1
1
1
1
1
1
1
1
1
1
1
1
1
1
1
1
1
1
1
1
1
1
1
1
1
1
1
1
1
1
1
1
1
1
1
1
1
1
1
1
1
1
POINT_DATA 64
VECTORS displacement double
-0.104986 -0.33444 0 
-0.13084 -0.36659 0 
-0.138182 -0.311294 0 
-0.164069 -0.343335 0 
-0.155464 -0.397871 0 
-0.179857 -0.426994 0 
-0.186728 -0.373589 0 
-0.211123 -0.402482 0 
-0.200758 -0.458702 0 
-0.222743 -0.492742 0 
-0.23337 -0.434284 0 
-0.255555 -0.468838 0 
-0.248426 -0.520256 0 
-0.267651 -0.551756 0 
-0.282367 -0.498586 0 
-0.304233 -0.531985 0 
-0.17241 -0.288433 0 
-0.196294 -0.319779 0 
-0.200115 -0.264316 0 
-0.22428 -0.2947 0 
-0.217844 -0.348752 0 
-0.241545 -0.377834 0 
-0.247087 -0.323171 0 
-0.271164 -0.354043 0 
-0.265104 -0.412143 0 
-0.287098 -0.446981 0 
-0.295406 -0.388408 0 
-0.319032 -0.421193 0 
-0.312794 -0.476051 0 
-0.337903 -0.506759 0 
-0.343691 -0.451903 0 
-0.367239 -0.48287 0 
-0.226731 -0.238292 0 
-0.252104 -0.270594 0 
-0.255126 -0.213214 0 
-0.280856 -0.246377 0 
-0.276595 -0.300174 0 
-0.301762 -0.330874 0 
-0.304889 -0.276162 0 
-0.330832 -0.30563 0 
-0.325777 -0.364094 0 
-0.348294 -0.395475 0 
-0.356091 -0.339553 0 
-0.378834 -0.369146 0 
-0.372708 -0.427995 0 
-0.396291 -0.459046 0 
-0.404391 -0.401512 0 
-0.429239 -0.433698 0 
-0.285399 -0.189541 0 
-0.310749 -0.223247 0 
-0.319972 -0.166942 0 
-0.343033 -0.198822 0 
-0.335135 -0.250829 0 
-0.360687 -0.282 0 
-0.367429 -0.22571 0 
-0.392363 -0.258106 0 
-0.386074 -0.315249 0 
-0.410199 -0.34406 0 
-0.416923 -0.289676 0 
-0.441562 -0.319805 0 
-0.434509 -0.376936 0 
-0.45907 -0.409331 0 
-0.46509 -0.353613 0 
-0.489006 -0.384032 0 
VECTORS velocity double
-1.03714 -1.0252 0 
-1.47536 -1.31177 0 
-0.9963 -1.454 0 
-1.01777 -1.25958 0 
-0.984712 -1.32247 0 
-1.37971 -0.609418 0 
-0.96313 -1.38795 0 
-1.55836 -0.521635 0 
-0.565419 -0.825431 0 
-1.45903 -0.72895 0 
-0.837246 -0.720071 0 
-1.80217 -0.528462 0 
-0.957281 -0.324416 0 
-1.02395 -0.472106 0 
-1.47258 -0.18113 0 
-1.72231 -0.6184 0 
-0.833749 -1.77144 0 
-1.04556 -1.23499 0 
-0.851624 -1.58183 0 
-0.871379 -1.17268 0 
-0.847903 -1.14357 0 
-1.04192 -0.858317 0 
-0.933702 -1.30454 0 
-1.40884 -1.20942 0 
-0.997971 -1.33562 0 
-1.51921 -1.47052 0 
-1.42378 -1.16426 0 
-1.70679 -1.03371 0 
-1.4672 -1.25686 0 
-1.77368 -1.1449 0 
-1.35595 -0.764511 0 
-1.59287 -0.591041 0 
-0.647085 -1.45836 0 
-0.529099 -1.19568 0 
-0.990811 -1.7099 0 
-0.758877 -1.46796 0 
-0.735262 -1.56458 0 
-0.983529 -1.63743 0 
-1.23879 -1.71887 0 
-1.40928 -1.54998 0 
-0.777691 -1.39397 0 
-0.964086 -1.20312 0 
-1.17573 -1.29728 0 
-1.49929 -1.28183 0 
-1.31816 -1.62092 0 
-1.42594 -1.02692 0 
-1.57451 -0.997583 0 
-1.15479 -0.402749 0 
-1.12077 -1.53293 0 
-0.798118 -1.7632 0 
-0.557216 -1.58975 0 
-0.43808 -1.6158 0 
-0.816778 -1.77792 0 
-0.677303 -1.08131 0 
-0.697848 -1.55134 0 
-0.82685 -1.46443 0 
-0.662996 -1.13832 0 
-1.15514 -1.46708 0 
-0.892566 -1.65411 0 
-0.608924 -0.996797 0 
-0.894764 -1.0628 0 
-1.14667 -0.614172 0 
-1.00909 -0.946597 0 
-0.989601 -0.790552 0 
SCALARS mass double 1
LOOKUP_TABLE default
0.625
0.625
0.625
0.625
0.625
0.625
0.625
0.625
0.625
0.625
0.625
0.625
0.625
0.625
0.625
0.625
0.625
0.625
0.625
0.625
0.625
0.625
0.625
0.625
0.625
0.625
0.625
0.625
0.625
0.625
0.625
0.625
0.625
0.625
0.625
0.625
0.625
0.625
0.625
0.625
0.625
0.625
0.625
0.625
0.625
0.625
0.625
0.625
0.625
0.625
0.625
0.625
0.625
0.625
0.625
0.625
0.625
0.625
0.625
0.625
0.625
0.625
0.625
0.625
SCALARS volume double 1
LOOKUP_TABLE default
0.000626536
0.00062479
0.000601634
0.000644002
0.000604378
0.000624411
0.000595597
0.000608918
0.000584055
0.000563807
0.000569891
0.000598494
0.000538412
0.000464306
0.000578692
0.000637814
0.000591459
0.00062471
0.000585755
0.000657918
0.00060889
0.000625423
0.000592875
0.000599318
0.000615802
0.000610109
0.000599262
0.000638175
0.000609169
0.000606648
0.000594223
0.000639959
0.000613311
0.000632154
0.000648558
0.000628205
0.000643906
0.000646841
0.000615105
0.000620096
0.000622793
0.00063784
0.000624286
0.000636285
0.000614508
0.000626974
0.000662401
0.000610255
0.000621997
0.000654106
0.000613205
0.000610019
0.000632284
0.000636555
0.000629036
0.000631177
0.000630901
0.000631007
0.000619818
0.000642383
0.000613009
0.000624688
0.000623029
0.000622107
VECTORS momentum double
-0.648212 -0.640753 0 
-0.922097 -0.819857 0 
-0.622688 -0.908747 0 
-0.636106 -0.787235 0 
-0.615445 -0.826547 0 
-0.862322 -0.380886 0 
-0.601956 -0.86747 0 
-0.973974 -0.326022 0 
-0.353387 -0.515894 0 
-0.911892 -0.455594 0 
-0.523279 -0.450044 0 
-1.12636 -0.330289 0 
-0.598301 -0.20276 0 
-0.63997 -0.295066 0 
-0.920364 -0.113206 0 
-1.07644 -0.3865 0 
-0.521093 -1.10715 0 
-0.653474 -0.771872 0 
-0.532265 -0.988643 0 
-0.544612 -0.732926 0 
-0.529939 -0.714728 0 
-0.651201 -0.536448 0 
-0.583564 -0.815336 0 
-0.880526 -0.755889 0 
-0.623732 -0.834762 0 
-0.949504 -0.919078 0 
-0.889863 -0.727661 0 
-1.06674 -0.646067 0 
-0.917 -0.785538 0 
-1.10855 -0.715561 0 
-0.847467 -0.47782 0 
-0.995545 -0.369401 0 
-0.404428 -0.911478 0 
-0.330687 -0.7473 0 
-0.619257 -1.06869 0 
-0.474298 -0.917478 0 
-0.459538 -0.977861 0 
-0.614706 -1.02339 0 
-0.774244 -1.07429 0 
-0.880802 -0.968738 0 
-0.486057 -0.871234 0 
-0.602554 -0.751949 0 
-0.734834 -0.810802 0 
-0.937058 -0.801142 0 
-0.823851 -1.01308 0 
-0.891213 -0.641826 0 
-0.984067 -0.623489 0 
-0.721742 -0.251718 0 
-0.700483 -0.958082 0 
-0.498824 -1.102 0 
-0.34826 -0.993592 0 
-0.2738 -1.00988 0 
-0.510486 -1.1112 0 
-0.423315 -0.675817 0 
-0.436155 -0.969585 0 
-0.516781 -0.915268 0 
-0.414372 -0.711453 0 
-0.721963 -0.916925 0 
-0.557854 -1.03382 0 
-0.380578 -0.622998 0 
-0.559228 -0.664249 0 
-0.716669 -0.383858 0 
-0.630683 -0.591623 0 
-0.618501 -0.494095 0 
VECTORS body_force double
0 -9.81 0 
0 -9.81 0 
0 -9.81 0 
0 -9.81 0 
0 -9.81 0 
0 -9.81 0 
0 -9.81 0 
0 -9.81 0 
0 -9.81 0 
0 -9.81 0 
0 -9.81 0 
0 -9.81 0 
0 -9.81 0 
0 -9.81 0 
0 -9.81 0 
0 -9.81 0 
0 -9.81 0 
0 -9.81 0 
0 -9.81 0 
0 -9.81 0 
0 -9.81 0 
0 -9.81 0 
0 -9.81 0 
0 -9.81 0 
0 -9.81 0 
0 -9.81 0 
0 -9.81 0 
0 -9.81 0 
0 -9.81 0 
0 -9.81 0 
0 -9.81 0 
0 -9.81 0 
0 -9.81 0 
0 -9.81 0 
0 -9.81 0 
0 -9.81 0 
0 -9.81 0 
0 -9.81 0 
0 -9.81 0 
0 -9.81 0 
0 -9.81 0 
0 -9.81 0 
0 -9.81 0 
0 -9.81 0 
0 -9.81 0 
0 -9.81 0 
0 -9.81 0 
0 -9.81 0 
0 -9.81 0 
0 -9.81 0 
0 -9.81 0 
0 -9.81 0 
0 -9.81 0 
0 -9.81 0 
0 -9.81 0 
0 -9.81 0 
0 -9.81 0 
0 -9.81 0 
0 -9.81 0 
0 -9.81 0 
0 -9.81 0 
0 -9.81 0 
0 -9.81 0 
0 -9.81 0 
TENSORS cauchy_stress double
1075.33 779.41 0
779.41 -603.328 0
0 0 141.6

1752.85 -732.665 0
-732.665 -1817.35 0
0 0 -19.3496

-1736.39 -1302.27 0
-1302.27 -5591 0
0 0 -2198.22

2892.26 1276.38 0
1276.38 2867.24 0
0 0 1727.85

-5000.08 -3043.42 0
-3043.42 -1452.35 0
0 0 -1935.73

237.511 -2897.35 0
-2897.35 -418.769 0
0 0 -54.3774

-9081.54 1009.94 0
1009.94 -185.157 0
0 0 -2780.01

-3587.99 -5741.34 0
-5741.34 -1425.17 0
0 0 -1503.95

-10308.7 -2654.75 0
-2654.75 -2721.44 0
0 0 -3909.04

-5369.9 -8969.62 0
-8969.62 -14445.4 0
0 0 -5944.59

-13101.1 2186.7 0
2186.7 -4650.02 0
0 0 -5325.34

-2089.67 -2522.06 0
-2522.06 -6243.94 0
0 0 -2500.08

-5136.43 -11189.4 0
-11189.4 -23542 0
0 0 -8603.53

-12242.8 -13392.5 0
-13392.5 -44912.6 0
0 0 -17146.6

-5283.25 535.731 0
535.731 -9520.71 0
0 0 -4441.19

2171.32 2989.94 0
2989.94 1731.44 0
0 0 1170.83

-10530.1 -3948.06 0
-3948.06 -77.2949 0
0 0 -3182.23

493.616 -4049.76 0
-4049.76 -582.826 0
0 0 -26.763

-10365 -6551.47 0
-6551.47 -2106.15 0
0 0 -3741.36

5969.3 -1490.47 0
-1490.47 3901.72 0
0 0 2961.3

-7478.56 -1238.6 0
-1238.6 2456.7 0
0 0 -1506.56

-1918.18 -1393.26 0
-1393.26 2048.43 0
0 0 39.0742

-6567.72 499.703 0
499.703 -3579.97 0
0 0 -3044.31

-1608.4 3771.3 0
3771.3 -6460.58 0
0 0 -2420.69

-164.118 -2005.42 0
-2005.42 -2687.09 0
0 0 -855.363

-3875.87 -5138.39 0
-5138.39 -761.396 0
0 0 -1391.18

-7304.37 4444.83 0
4444.83 -782.603 0
0 0 -2426.09

1689.51 552.544 0
552.544 2322.23 0
0 0 1203.52

-174.045 1575.12 0
1575.12 -4759.65 0
0 0 -1480.11

-1201.33 1490.24 0
1490.24 -4530.15 0
0 0 -1719.44

-5788.53 4389.69 0
4389.69 -3922.43 0
0 0 -2913.29

791.444 3078.09 0
3078.09 3757.14 0
0 0 1364.57

-7427.54 1172.52 0
1172.52 3796.94 0
0 0 -1089.18

2475.44 4555.73 0
4555.73 -286.671 0
0 0 656.632

5128.35 -3129.39 0
-3129.39 1987.01 0
0 0 2134.61

2892.52 787.906 0
787.906 -1908.98 0
0 0 295.061

5140.43 -160.03 0
-160.03 590.471 0
0 0 1719.27

5180.77 -3927.43 0
-3927.43 1424.65 0
0 0 1981.63

336.331 439.895 0
439.895 -3405.21 0
0 0 -920.665

845.514 7030.7 0
7030.7 -2360.26 0
0 0 -454.425

2724.02 -2371.4 0
-2371.4 -3404.36 0
0 0 -204.104

1824.92 -6073.22 0
-6073.22 2085.79 0
0 0 1173.21

-1573.25 6072.82 0
6072.82 1353.53 0
0 0 -65.9149

-1853.28 2684.82 0
2684.82 5294.56 0
0 0 1032.38

-1470.28 -551.633 0
-551.633 -1785.36 0
0 0 -976.691

-1615.12 2629.83 0
2629.83 2221.41 0
0 0 181.887

6044.39 5666.52 0
5666.52 5132.52 0
0 0 3353.07

-3855.85 -462.743 0
-462.743 -735.508 0
0 0 -1377.41

-396.294 -2175.74 0
-2175.74 -529.93 0
0 0 -277.867

7012.61 2496.6 0
2496.6 1740.87 0
0 0 2626.05

-3681.86 774.764 0
774.764 17.9667 0
0 0 -1099.17

-2130.75 -520.476 0
-520.476 -2534.94 0
0 0 -1399.71

2635.06 -76.4173 0
-76.4173 -406.721 0
0 0 668.502

2440.12 -1546.26 0
-1546.26 1082.82 0
0 0 1056.88

978.554 -551.061 0
-551.061 259.196 0
0 0 371.325

3466.1 1218.52 0
1218.52 -1574.71 0
0 0 567.418

2177.17 -353.192 0
-353.192 -369.971 0
0 0 542.159

2028.73 139.027 0
139.027 -189.102 0
0 0 551.889

-210.643 201.664 0
201.664 -1390.54 0
0 0 -480.355

4638.13 1804.65 0
1804.65 637.48 0
0 0 1582.68

75.1372 -896.353 0
-896.353 -3800.61 0
0 0 -1117.64

-2605.9 -155.371 0
-155.371 2509.72 0
0 0 -28.8532

-497.136 -1562 0
-1562 -110.171 0
0 0 -182.192

-1109.74 9.3496 0
9.3496 217.447 0
0 0 -267.687

TENSORS velocity_gradient double
0.570948 1.81532 0
2.51145 -2.55603 0
0 0 0

-0.804385 1.75253 0
-3.94703 -2.82109 0
0 0 0

-0.141671 3.9851 0
-0.332028 -2.92431 0
0 0 0

-0.747608 2.05793 0
-4.16387 -2.8493 0
0 0 0

-0.808653 1.73609 0
-3.87379 -2.53896 0
0 0 0

2.36276 0.723365 0
-6.14292 -4.06877 0
0 0 0

0.950962 1.59613 0
-3.84512 -2.71319 0
0 0 0

3.88939 0.334781 0
-3.68324 -4.69485 0
0 0 0

1.95975 -3.66516 0
-6.62462 -7.33897 0
0 0 0

2.66778 -21.6199 0
-2.28539 -11.989 0
0 0 0

3.50415 -1.03094 0
-4.12998 -6.89294 0
0 0 0

3.71014 -2.0201 0
-1.50946 -8.40225 0
0 0 0

2.53003 -26.0064 0
-2.23533 -11.2256 0
0 0 0

4.64749 -27.585 0
3.90603 -11.2161 0
0 0 0

3.52369 -3.05053 0
-1.78485 -9.9242 0
0 0 0

6.44499 -1.78429 0
5.4682 -6.53152 0
0 0 0

0.505728 4.94603 0
-3.01604 -2.84748 0
0 0 0

0.178747 3.73602 0
-3.33263 -4.01902 0
0 0 0

1.36956 1.59137 0
-1.8497 -2.79544 0
0 0 0

1.4293 3.44662 0
-2.09754 -4.15 0
0 0 0

3.93682 2.94907 0
-2.13747 -4.95796 0
0 0 0

4.68269 3.05428 0
-1.99655 -5.61294 0
0 0 0

4.47974 2.9232 0
-1.19443 -5.09488 0
0 0 0

4.52008 3.08603 0
-1.35387 -5.73843 0
0 0 0

4.61669 1.51126 0
-1.03712 -6.49551 0
0 0 0

4.55988 -2.26948 0
-0.254392 -8.77059 0
0 0 0

3.86947 3.47443 0
-1.30817 -5.7984 0
0 0 0

4.18611 4.42234 0
-0.829916 -4.36666 0
0 0 0

3.85547 -2.88152 0
-1.2116 -9.45155 0
0 0 0

3.68955 -0.702836 0
-0.827941 -4.36296 0
0 0 0

1.84673 5.28055 0
-5.60765 -2.77877 0
0 0 0

1.62623 5.33707 0
-5.77604 -1.10007 0
0 0 0

-0.117978 -1.90646 0
-0.734379 -2.64857 0
0 0 0

0.415908 -0.0625538 0
-1.04167 -3.70987 0
0 0 0

-1.63768 1.71534 0
0.17755 -1.34995 0
0 0 0

-1.35025 0.210326 0
-0.0251234 -3.86693 0
0 0 0

3.73503 1.4086 0
-1.70607 -3.44983 0
0 0 0

4.02024 2.65061 0
-1.38673 -2.05915 0
0 0 0

2.54122 1.5731 0
-3.04278 -3.26565 0
0 0 0

2.767 2.85512 0
-2.78998 -1.83016 0
0 0 0

2.9119 3.65416 0
-2.68156 -3.4077 0
0 0 0

3.14465 4.59829 0
-2.40296 -4.10091 0
0 0 0

2.11956 3.77754 0
-3.35579 -1.01521 0
0 0 0

2.26443 4.48068 0
-3.25165 -0.509793 0
0 0 0

1.10027 5.36641 0
-8.17791 -2.46961 0
0 0 0

1.20253 5.75146 0
-7.69178 -0.639187 0
0 0 0

0.723629 4.96766 0
-8.86669 -0.855622 0
0 0 0

0.814007 5.33828 0
-9.04126 -1.52206 0
0 0 0

-1.54792 4.20136 0
0.345741 -0.272956 0
0 0 0

-0.593084 3.87942 0
-0.702476 -0.402756 0
0 0 0

-1.01833 2.9866 0
0.349838 -0.226268 0
0 0 0

1.61046 3.82464 0
-1.94641 -0.547361 0
0 0 0

1.95444 3.79462 0
-3.2358 -1.14363 0
0 0 0

1.73205 3.79932 0
-3.65911 -1.95393 0
0 0 0

1.9859 3.78538 0
-2.31696 -1.41329 0
0 0 0

0.942388 3.86101 0
-4.51086 -1.96845 0
0 0 0

1.39338 4.03704 0
-3.92172 -1.11174 0
0 0 0

1.2248 4.65239 0
-4.72434 -0.470546 0
0 0 0

0.850097 4.31629 0
-4.70878 -1.25379 0
0 0 0

0.425933 4.71181 0
-6.67332 -0.641986 0
0 0 0

0.437019 5.02879 0
-7.98344 -1.04402 0
0 0 0

1.0663 5.29449 0
-7.43641 -1.93459 0
0 0 0

0.265422 4.77584 0
-7.43757 -0.733464 0
0 0 0

2.93156 4.66456 0
-4.12379 -1.05727 0
0 0 0

SCALARS active double 1
LOOKUP_TABLE default
1
1
1
1
1
1
1
1
1
1
1
1
1
1
1
1
1
1
1
1
1
1
1
1
1
1
1
1
1
1
1
1
1
1
1
1
1
1
1
1
1
1
1
1
1
1
1
1
1
1
1
1
1
1
1
1
1
1
1
1
1
1
1
1
SCALARS extent double 1
LOOKUP_TABLE default
0.0125
0.0125
0.0125
0.0125
0.0125
0.0125
0.0125
0.0125
0.0125
0.0125
0.0125
0.0125
0.0125
0.0125
0.0125
0.0125
0.0125
0.0125
0.0125
0.0125
0.0125
0.0125
0.0125
0.0125
0.0125
0.0125
0.0125
0.0125
0.0125
0.0125
0.0125
0.0125
0.0125
0.0125
0.0125
0.0125
0.0125
0.0125
0.0125
0.0125
0.0125
0.0125
0.0125
0.0125
0.0125
0.0125
0.0125
0.0125
0.0125
0.0125
0.0125
0.0125
0.0125
0.0125
0.0125
0.0125
0.0125
0.0125
0.0125
0.0125
0.0125
0.0125
0.0125
0.0125
SCALARS pressure double 1
LOOKUP_TABLE default
-204.534
27.9494
3175.2
-2495.79
2796.05
78.5451
4015.57
2172.37
5646.39
8586.64
7692.15
3611.23
12427.3
24767.3
6415.05
-1691.2
4596.55
38.6576
5404.18
-4277.44
2176.14
-56.4406
4397.33
3496.56
1235.52
2009.48
3504.35
-1738.42
2137.94
2483.64
4208.08
-1971.05
1573.26
-948.468
-3083.33
-426.2
-2483.39
-2862.35
1329.85
656.391
294.817
-1694.64
95.2105
-1491.22
1410.78
-262.726
-4843.33
1989.59
401.364
-3793.18
1587.69
2021.8
-965.613
-1526.61
-536.358
-819.603
-783.118
-797.173
693.846
-2286.1
1614.37
41.6768
263.166
386.659
SCALARS density double 1
LOOKUP_TABLE default
997.549
1000.34
1038.84
970.495
1034.12
1000.94
1049.37
1026.41
1070.1
1108.54
1096.7
1044.29
1160.82
1346.1
1080.02
979.91
1056.71
1000.46
1067
949.966
1026.46
999.323
1054.19
1042.85
1014.94
1024.41
1042.95
979.355
1025.99
1030.25
1051.79
976.625
1019.06
988.683
963.676
994.899
970.639
966.235
1016.09
1007.91
1003.54
979.87
1001.14
982.265
1017.07
996.852
943.537
1024.16
1004.83
955.502
1019.23
1024.56
988.48
981.847
993.584
990.213
990.647
990.48
1008.36
972.94
1019.56
1000.5
1003.16
1004.65
