# vtk DataFile Version 3.0
Frame: 3, Time: 0.05
ASCII
DATASET UNSTRUCTURED_GRID
POINTS 64 double
0.4125 0.399492 0 
0.4125 0.424492 0 
0.4375 0.399492 0 
0.4375 0.424492 0 
0.4125 0.449492 0 
0.4125 0.474492 0 
0.4375 0.449492 0 
0.4375 0.474492 0 
0.4125 0.499492 0 
0.4125 0.524492 0 
0.4375 0.499492 0 
0.4375 0.524492 0 
0.4125 0.549492 0 
0.4125 0.574492 0 
0.4375 0.549492 0 
0.4375 0.574492 0 
0.4625 0.399492 0 
0.4625 0.424492 0 
0.4875 0.399492 0 
0.4875 0.424492 0 
0.4625 0.449492 0 
0.4625 0.474492 0 
0.4875 0.449492 0 
0.4875 0.474492 0 
0.4625 0.499492 0 
0.4625 0.524492 0 
0.4875 0.499492 0 
0.4875 0.524492 0 
0.4625 0.549492 0 
0.4625 0.574492 0 
0.4875 0.549492 0 
0.4875 0.574492 0 
0.5125 0.399492 0 
0.5125 0.424492 0 
0.5375 0.399492 0 
0.5375 0.424492 0 
0.5125 0.449492 0 
0.5125 0.474492 0 
0.5375 0.449492 0 
0.5375 0.474492 0 
0.5125 0.499492 0 
0.5125 0.524492 0 
0.5375 0.499492 0 
0.5375 0.524492 0 
0.5125 0.549492 0 
0.5125 0.574492 0 
0.5375 0.549492 0 
0.5375 0.574492 0 
0.5625 0.399492 0 
0.5625 0.424492 0 
0.5875 0.399492 0 
0.5875 0.424492 0 
0.5625 0.449492 0 
0.5625 0.474492 0 
0.5875 0.449492 0 
0.5875 0.474492 0 
0.5625 0.499492 0 
0.5625 0.524492 0 
0.5875 0.499492 0 
0.5875 0.524492 0 
0.5625 0.549492 0 
0.5625 0.574492 0 
0.5875 0.549492 0 
0.5875 0.574492 0 
CELLS 64 128
1 0
1 1
1 2
1 3
1 4
1 5
1 6
1 7
1 8
1 9
1 10
1 11
1 12
1 13
1 14
1 15
1 16
1 17
1 18
1 19
1 20
1 21
1 22
1 23
1 24
1 25
1 26
1 27
1 28
1 29
1 30
1 31
1 32
1 33
1 34
1 35
1 36
1 37
1 38
1 39
1 40
1 41
1 42
1 43
1 44
1 45
1 46
1 47
1 48
1 49
1 50
1 51
1 52
1 53
1 54
1 55
1 56
1 57
1 58
1 59
1 60
1 61
1 62
1 63
CELL_TYPES 64
1
1
1
1
1
1
1
1
1
1
1
1
1
1
1
1
1
1
1
1
1
1
1
1
1
1
1
1
1
1
1
1
1
1
1
1
1
1
1
1
1
1
1
1
1
1
1
1
1
1
1
1
1
1
1
1
1
1
1
1
1
1
1
1
POINT_DATA 64
VECTORS displacement double
2.56953e-18 -0.0130081 0 
1.9995e-18 -0.0130081 0 
2.28071e-18 -0.0130081 0 
1.76581e-18 -0.0130081 0 
1.63552e-18 -0.0130081 0 
2.20464e-18 -0.0130081 0 
1.32934e-18 -0.0130081 0 
1.13885e-18 -0.0130081 0 
2.33554e-18 -0.0130081 0 
1.90012e-19 -0.0130081 0 
7.45172e-19 -0.0130081 0 
-6.09761e-19 -0.0130081 0 
-1.84588e-18 -0.0130081 0 
-2.27059e-18 -0.0130081 0 
-1.88488e-18 -0.0130081 0 
-2.25723e-18 -0.0130081 0 
1.99748e-18 -0.0130081 0 
1.46839e-18 -0.0130081 0 
1.71987e-18 -0.0130081 0 
1.10725e-18 -0.0130081 0 
9.51968e-19 -0.0130081 0 
3.16782e-19 -0.0130081 0 
5.03385e-19 -0.0130081 0 
-2.61552e-19 -0.0130081 0 
-3.84044e-19 -0.0130081 0 
-1.29026e-18 -0.0130081 0 
-1.05211e-18 -0.0130081 0 
-1.85149e-18 -0.0130081 0 
-2.10793e-18 -0.0130081 0 
-2.35143e-18 -0.0130081 0 
-2.51501e-18 -0.0130081 0 
-2.55318e-18 -0.0130081 0 
1.48999e-18 -0.0130081 0 
8.19306e-19 -0.0130081 0 
1.30786e-18 -0.0130081 0 
6.04566e-19 -0.0130081 0 
1.35689e-19 -0.0130081 0 
-7.6249e-19 -0.0130081 0 
-1.5112e-19 -0.0130081 0 
-1.18603e-18 -0.0130081 0 
-1.61472e-18 -0.0130081 0 
-2.22188e-18 -0.0130081 0 
-2.07188e-18 -0.0130081 0 
-2.40142e-18 -0.0130081 0 
-2.68762e-18 -0.0130081 0 
-2.68289e-18 -0.0130081 0 
-2.62574e-18 -0.0130081 0 
-2.74058e-18 -0.0130081 0 
1.1974e-18 -0.0130081 0 
4.76049e-19 -0.0130081 0 
1.15864e-18 -0.0130081 0 
4.33753e-19 -0.0130081 0 
-3.75832e-19 -0.0130081 0 
-1.73359e-18 -0.0130081 0 
-5.38447e-19 -0.0130081 0 
-2.40517e-18 -0.0130081 0 
-2.79352e-18 -0.0130081 0 
-2.64179e-18 -0.0130081 0 
-3.77963e-18 -0.0130081 0 
-2.943e-18 -0.0130081 0 
-2.45284e-18 -0.0130081 0 
-2.72132e-18 -0.0130081 0 
-2.16891e-18 -0.0130081 0 
-2.62514e-18 -0.0130081 0 
VECTORS velocity double
3.32794e-16 -0.50031 0 
7.69133e-17 -0.50031 0 
2.01194e-16 -0.50031 0 
1.30264e-16 -0.50031 0 
-6.2502e-17 -0.50031 0 
3.75294e-16 -0.50031 0 
8.74484e-17 -0.50031 0 
1.54168e-16 -0.50031 0 
6.73841e-16 -0.50031 0 
1.32306e-16 -0.50031 0 
1.83385e-16 -0.50031 0 
-9.9251e-19 -0.50031 0 
-3.27446e-16 -0.50031 0 
-3.80367e-17 -0.50031 0 
-1.4213e-16 -0.50031 0 
4.95717e-17 -0.50031 0 
1.10649e-16 -0.50031 0 
1.34774e-16 -0.50031 0 
6.11592e-17 -0.50031 0 
9.04424e-17 -0.50031 0 
1.41885e-16 -0.50031 0 
3.66588e-17 -0.50031 0 
1.00807e-16 -0.50031 0 
2.27663e-17 -0.50031 0 
-6.35681e-17 -0.50031 0 
-9.70379e-17 -0.50031 0 
-6.70187e-17 -0.50031 0 
-1.5583e-16 -0.50031 0 
-9.75269e-17 -0.50031 0 
7.14134e-17 -0.50031 0 
-1.93635e-16 -0.50031 0 
2.74886e-17 -0.50031 0 
8.68947e-18 -0.50031 0 
2.71741e-17 -0.50031 0 
-4.67599e-17 -0.50031 0 
-5.50313e-17 -0.50031 0 
3.063e-17 -0.50031 0 
-2.44365e-17 -0.50031 0 
-6.86463e-17 -0.50031 0 
-1.0495e-16 -0.50031 0 
-9.15169e-17 -0.50031 0 
-1.81922e-16 -0.50031 0 
-1.37063e-16 -0.50031 0 
-1.75313e-16 -0.50031 0 
-2.28868e-16 -0.50031 0 
-5.85131e-17 -0.50031 0 
-2.03225e-16 -0.50031 0 
-1.86592e-16 -0.50031 0 
-8.97826e-17 -0.50031 0 
-7.65952e-17 -0.50031 0 
-1.20379e-16 -0.50031 0 
-3.75175e-17 -0.50031 0 
-9.57885e-17 -0.50031 0 
-2.48234e-16 -0.50031 0 
-5.07966e-17 -0.50031 0 
-4.54289e-16 -0.50031 0 
-3.46391e-16 -0.50031 0 
-2.16189e-16 -0.50031 0 
-7.19501e-16 -0.50031 0 
-3.04548e-16 -0.50031 0 
-1.2248e-16 -0.50031 0 
-2.64774e-16 -0.50031 0 
1.33662e-17 -0.50031 0 
-2.93061e-16 -0.50031 0 
SCALARS mass double 1
LOOKUP_TABLE default
0.625
0.625
0.625
0.625
0.625
0.625
0.625
0.625
0.625
0.625
0.625
0.625
0.625
0.625
0.625
0.625
0.625
0.625
0.625
0.625
0.625
0.625
0.625
0.625
0.625
0.625
0.625
0.625
0.625
0.625
0.625
0.625
0.625
0.625
0.625
0.625
0.625
0.625
0.625
0.625
0.625
0.625
0.625
0.625
0.625
0.625
0.625
0.625
0.625
0.625
0.625
0.625
0.625
0.625
0.625
0.625
0.625
0.625
0.625
0.625
0.625
0.625
0.625
0.625
SCALARS volume double 1
LOOKUP_TABLE default
0.000625
0.000625
0.000625
0.000625
0.000625
0.000625
0.000625
0.000625
0.000625
0.000625
0.000625
0.000625
0.000625
0.000625
0.000625
0.000625
0.000625
0.000625
0.000625
0.000625
0.000625
0.000625
0.000625
0.000625
0.000625
0.000625
0.000625
0.000625
0.000625
0.000625
0.000625
0.000625
0.000625
0.000625
0.000625
0.000625
0.000625
0.000625
0.000625
0.000625
0.000625
0.000625
0.000625
0.000625
0.000625
0.000625
0.000625
0.000625
0.000625
0.000625
0.000625
0.000625
0.000625
0.000625
0.000625
0.000625
0.000625
0.000625
0.000625
0.000625
0.000625
0.000625
0.000625
0.000625
VECTORS momentum double
2.07996e-16 -0.312694 0 
4.80708e-17 -0.312694 0 
1.25747e-16 -0.312694 0 
8.1415e-17 -0.312694 0 
-3.90638e-17 -0.312694 0 
2.34559e-16 -0.312694 0 
5.46553e-17 -0.312694 0 
9.6355e-17 -0.312694 0 
4.21151e-16 -0.312694 0 
8.26915e-17 -0.312694 0 
1.14616e-16 -0.312694 0 
-6.20319e-19 -0.312694 0 
-2.04654e-16 -0.312694 0 
-2.37729e-17 -0.312694 0 
-8.88314e-17 -0.312694 0 
3.09823e-17 -0.312694 0 
6.91559e-17 -0.312694 0 
8.42336e-17 -0.312694 0 
3.82245e-17 -0.312694 0 
5.65265e-17 -0.312694 0 
8.8678e-17 -0.312694 0 
2.29117e-17 -0.312694 0 
6.30044e-17 -0.312694 0 
1.4229e-17 -0.312694 0 
-3.973e-17 -0.312694 0 
-6.06487e-17 -0.312694 0 
-4.18867e-17 -0.312694 0 
-9.73937e-17 -0.312694 0 
-6.09543e-17 -0.312694 0 
4.46334e-17 -0.312694 0 
-1.21022e-16 -0.312694 0 
1.71804e-17 -0.312694 0 
5.43092e-18 -0.312694 0 
1.69838e-17 -0.312694 0 
-2.92249e-17 -0.312694 0 
-3.43946e-17 -0.312694 0 
1.91438e-17 -0.312694 0 
-1.52728e-17 -0.312694 0 
-4.2904e-17 -0.312694 0 
-6.55936e-17 -0.312694 0 
-5.71981e-17 -0.312694 0 
-1.13701e-16 -0.312694 0 
-8.56642e-17 -0.312694 0 
-1.09571e-16 -0.312694 0 
-1.43043e-16 -0.312694 0 
-3.65707e-17 -0.312694 0 
-1.27016e-16 -0.312694 0 
-1.1662e-16 -0.312694 0 
-5.61141e-17 -0.312694 0 
-4.7872e-17 -0.312694 0 
-7.52366e-17 -0.312694 0 
-2.34485e-17 -0.312694 0 
-5.98678e-17 -0.312694 0 
-1.55146e-16 -0.312694 0 
-3.17479e-17 -0.312694 0 
-2.83931e-16 -0.312694 0 
-2.16494e-16 -0.312694 0 
-1.35118e-16 -0.312694 0 
-4.49688e-16 -0.312694 0 
-1.90342e-16 -0.312694 0 
-7.65502e-17 -0.312694 0 
-1.65484e-16 -0.312694 0 
8.35384e-18 -0.312694 0 
-1.83163e-16 -0.312694 0 
VECTORS body_force double
0 -9.81 0 
0 -9.81 0 
0 -9.81 0 
0 -9.81 0 
0 -9.81 0 
0 -9.81 0 
0 -9.81 0 
0 -9.81 0 
0 -9.81 0 
0 -9.81 0 
0 -9.81 0 
0 -9.81 0 
0 -9.81 0 
0 -9.81 0 
0 -9.81 0 
0 -9.81 0 
0 -9.81 0 
0 -9.81 0 
0 -9.81 0 
0 -9.81 0 
0 -9.81 0 
0 -9.81 0 
0 -9.81 0 
0 -9.81 0 
0 -9.81 0 
0 -9.81 0 
0 -9.81 0 
0 -9.81 0 
0 -9.81 0 
0 -9.81 0 
0 -9.81 0 
0 -9.81 0 
0 -9.81 0 
0 -9.81 0 
0 -9.81 0 
0 -9.81 0 
0 -9.81 0 
0 -9.81 0 
0 -9.81 0 
0 -9.81 0 
0 -9.81 0 
0 -9.81 0 
0 -9.81 0 
0 -9.81 0 
0 -9.81 0 
0 -9.81 0 
0 -9.81 0 
0 -9.81 0 
0 -9.81 0 
0 -9.81 0 
0 -9.81 0 
0 -9.81 0 
0 -9.81 0 
0 -9.81 0 
0 -9.81 0 
0 -9.81 0 
0 -9.81 0 
0 -9.81 0 
0 -9.81 0 
0 -9.81 0 
0 -9.81 0 
0 -9.81 0 
0 -9.81 0 
0 -9.81 0 
TENSORS cauchy_stress double
1.80961e-13 2.46662e-13 0
2.46662e-13 3.38459e-12 0
0 0 1.06966e-12

1.15798e-12 7.9359e-13 0
7.9359e-13 5.09882e-12 0
0 0 1.87704e-12

-4.11914e-13 3.11373e-13 0
3.11373e-13 2.00121e-12 0
0 0 4.76789e-13

1.62396e-12 5.02498e-13 0
5.02498e-13 6.1861e-12 0
0 0 2.34302e-12

-3.29113e-12 1.10823e-12 0
1.10823e-12 -4.53909e-12 0
0 0 -2.34906e-12

-8.01432e-12 1.97559e-12 0
1.97559e-12 -7.76885e-12 0
0 0 -4.73495e-12

-3.5061e-12 7.4502e-14 0
7.4502e-14 -5.04069e-12 0
0 0 -2.56404e-12

-9.88302e-12 8.82509e-13 0
8.82509e-13 -1.21291e-11 0
0 0 -6.60365e-12

1.68636e-11 -1.20072e-12 0
-1.20072e-12 5.566e-11 0
0 0 2.17571e-11

-1.43017e-11 -3.24602e-12 0
-3.24602e-12 -2.51678e-11 0
0 0 -1.18408e-11

1.66102e-11 -4.60287e-13 0
-4.60287e-13 5.50687e-11 0
0 0 2.15037e-11

-1.42761e-11 -1.34952e-12 0
-1.34952e-12 -2.5108e-11 0
0 0 -1.18152e-11

-2.47262e-12 -8.19929e-14 0
-8.19929e-14 -5.36943e-12 0
0 0 -2.35261e-12

2.25607e-12 4.63133e-13 0
4.63133e-13 5.12718e-12 0
0 0 2.21498e-12

-2.24043e-12 -5.44401e-13 0
-5.44401e-13 -4.82766e-12 0
0 0 -2.12043e-12

1.12237e-12 9.2341e-14 0
9.2341e-14 2.48186e-12 0
0 0 1.08127e-12

-4.06378e-13 4.22133e-13 0
4.22133e-13 1.89912e-12 0
0 0 4.47822e-13

1.76235e-12 -6.6496e-13 0
-6.6496e-13 7.81619e-12 0
0 0 2.87356e-12

1.51716e-12 -9.65227e-13 0
-9.65227e-13 6.38738e-12 0
0 0 2.37136e-12

4.79727e-13 6.41101e-13 0
6.41101e-13 4.82339e-12 0
0 0 1.59094e-12

-3.12241e-12 -1.63666e-13 0
-1.63666e-13 -2.68478e-12 0
0 0 -1.74216e-12

-8.49122e-12 -6.25489e-13 0
-6.25489e-13 -1.38812e-11 0
0 0 -6.71173e-12

-3.4787e-12 1.06867e-12 0
1.06867e-12 -3.51611e-12 0
0 0 -2.09844e-12

-6.71379e-12 -1.73165e-13 0
-1.73165e-13 -9.73388e-12 0
0 0 -4.9343e-12

1.9641e-11 -8.08201e-13 0
-8.08201e-13 5.26808e-11 0
0 0 2.16965e-11

-1.38851e-11 -1.87409e-12 0
-1.87409e-12 -2.66424e-11 0
0 0 -1.21582e-11

1.90657e-11 -7.58476e-13 0
-7.58476e-13 5.13386e-11 0
0 0 2.11213e-11

-1.67738e-11 -1.92888e-12 0
-1.92888e-12 -3.33827e-11 0
0 0 -1.5047e-11

-5.21203e-12 -2.34919e-12 0
-2.34919e-12 -7.98614e-12 0
0 0 -3.95945e-12

1.37644e-12 -1.00031e-12 0
-1.00031e-12 5.2809e-12 0
0 0 1.9972e-12

-4.14557e-12 -1.57748e-12 0
-1.57748e-12 -5.49775e-12 0
0 0 -2.893e-12

7.96775e-13 -8.10002e-13 0
-8.10002e-13 3.92835e-12 0
0 0 1.41754e-12

-1.91349e-12 8.77153e-14 0
8.77153e-14 -2.59673e-12 0
0 0 -1.35306e-12

2.90297e-12 -2.84642e-13 0
-2.84642e-13 8.97604e-12 0
0 0 3.5637e-12

2.16098e-12 4.64596e-13 0
4.64596e-13 6.91036e-12 0
0 0 2.7214e-12

3.68134e-13 5.05509e-13 0
5.05509e-13 3.06143e-12 0
0 0 1.02887e-12

-4.48431e-12 -1.29085e-12 0
-1.29085e-12 -7.52176e-12 0
0 0 -3.60182e-12

-6.81865e-12 -7.29633e-13 0
-7.29633e-13 -1.15662e-11 0
0 0 -5.51544e-12

-3.80537e-12 -1.6703e-12 0
-1.6703e-12 -5.93756e-12 0
0 0 -2.92288e-12

-6.39591e-12 -5.76184e-13 0
-5.76184e-13 -1.05798e-11 0
0 0 -5.0927e-12

1.85084e-11 -3.7557e-13 0
-3.7557e-13 4.7875e-11 0
0 0 1.9915e-11

-1.41165e-11 -6.37835e-13 0
-6.37835e-13 -3.10971e-11 0
0 0 -1.35641e-11

1.91445e-11 2.8981e-13 0
2.8981e-13 4.93593e-11 0
0 0 2.05511e-11

-1.57018e-11 -2.96122e-13 0
-2.96122e-13 -3.4796e-11 0
0 0 -1.51493e-11

-3.01831e-12 2.78149e-13 0
2.78149e-13 -7.67734e-12 0
0 0 -3.2087e-12

2.08972e-12 -1.11923e-12 0
-1.11923e-12 5.46764e-12 0
0 0 2.26721e-12

-3.73408e-12 -4.15083e-13 0
-4.15083e-13 -9.34748e-12 0
0 0 -3.92447e-12

2.6902e-12 -5.178e-13 0
-5.178e-13 6.86876e-12 0
0 0 2.86769e-12

-7.41967e-13 -4.08671e-13 0
-4.08671e-13 -1.33366e-12 0
0 0 -6.22687e-13

1.85232e-12 -9.15759e-13 0
-9.15759e-13 4.75588e-12 0
0 0 1.98246e-12

1.25643e-12 -4.45615e-13 0
-4.45615e-13 3.32928e-12 0
0 0 1.37571e-12

5.40868e-13 1.41449e-14 0
1.41449e-14 1.69583e-12 0
0 0 6.7101e-13

-2.02134e-12 -9.68155e-13 0
-9.68155e-13 -3.04861e-12 0
0 0 -1.52098e-12

-9.19346e-12 -1.37943e-12 0
-1.37943e-12 -1.45634e-11 0
0 0 -7.12706e-12

-2.64344e-12 -1.53671e-12 0
-1.53671e-12 -4.50017e-12 0
0 0 -2.14308e-12

-7.61299e-12 -2.08573e-12 0
-2.08573e-12 -1.08757e-11 0
0 0 -5.5466e-12

1.56197e-11 2.99121e-13 0
2.99121e-13 4.656e-11 0
0 0 1.86539e-11

-1.45314e-11 2.00086e-12 0
2.00086e-12 -3.08174e-11 0
0 0 -1.36046e-11

1.79744e-11 1.02386e-12 0
1.02386e-12 5.20543e-11 0
0 0 2.10086e-11

-1.46339e-11 2.93739e-12 0
2.93739e-12 -3.10565e-11 0
0 0 -1.37071e-11

-8.3546e-13 2.56447e-12 0
2.56447e-12 -4.86147e-12 0
0 0 -1.70908e-12

3.44828e-12 1.15489e-12 0
1.15489e-12 7.05945e-12 0
0 0 3.15232e-12

-1.83226e-12 2.40761e-12 0
2.40761e-12 -7.18734e-12 0
0 0 -2.70588e-12

1.15524e-12 7.17828e-14 0
7.17828e-14 1.70903e-12 0
0 0 8.59281e-13

TENSORS velocity_gradient double
-1.77849e-15 -2.14116e-15 0
4.44089e-15 -2.66454e-15 0
0 0 0

-3.17718e-16 -2.93103e-15 0
3.55271e-15 -7.10543e-15 0
0 0 0

-1.77849e-15 -1.11752e-15 0
-8.88178e-16 -4.44089e-15 0
0 0 0

-3.17718e-16 -1.32455e-15 0
0 3.55271e-15 0
0 0 0

6.36057e-16 7.51412e-16 0
-3.55271e-15 -3.55271e-15 0
0 0 0

-2.33126e-15 4.44299e-15 0
-2.66454e-15 -2.04281e-14 0
0 0 0

6.36057e-16 -2.52927e-16 0
-1.33227e-15 -1.55431e-14 0
0 0 0

-2.33126e-15 8.21355e-16 0
0 -2.13163e-14 0
0 0 0

-4.99874e-15 -2.06475e-15 0
-1.22125e-15 2.72005e-14 0
0 0 0

-1.93418e-15 -8.58866e-15 0
4.44089e-15 -9.76996e-15 0
0 0 0

-4.99874e-15 -1.86977e-15 0
-4.44089e-16 2.08722e-14 0
0 0 0

-1.93418e-15 -4.56758e-15 0
0 -1.42109e-14 0
0 0 0

1.51939e-15 -2.84364e-15 0
3.88578e-15 -6.77236e-15 0
0 0 0

1.56367e-15 2.91565e-15 0
8.88178e-16 1.15463e-14 0
0 0 0

1.51939e-15 -1.0926e-15 0
7.10543e-15 -7.10543e-15 0
0 0 0

1.56367e-15 2.39101e-15 0
1.77636e-15 1.24345e-14 0
0 0 0

-2.19728e-15 -2.84234e-16 0
5.21805e-15 -5.44009e-15 0
0 0 0

-1.88526e-15 -4.20444e-16 0
-8.88178e-16 -4.44089e-15 0
0 0 0

-2.19728e-15 3.58692e-16 0
-1.33227e-15 1.28786e-14 0
0 0 0

-1.88526e-15 -2.18716e-16 0
0 0 0
0 0 0

-1.801e-15 -8.89181e-16 0
-5.66214e-15 -2.10942e-15 0
0 0 0

-2.42247e-15 -1.35908e-15 0
-6.21725e-15 -2.04281e-14 0
0 0 0

-1.801e-15 -1.15735e-15 0
1.33227e-15 -5.77316e-15 0
0 0 0

-2.42247e-15 -2.09832e-15 0
-5.32907e-15 -1.95399e-14 0
0 0 0

-2.99906e-15 -1.8166e-15 0
-1.44329e-15 1.9873e-14 0
0 0 0

-2.59855e-15 -2.27525e-15 0
-2.66454e-15 -2.66454e-15 0
0 0 0

-2.99906e-15 -1.90524e-15 0
-6.21725e-15 2.22045e-14 0
0 0 0

-2.59855e-15 -1.71169e-15 0
-8.88178e-15 -1.95399e-14 0
0 0 0

-2.02863e-15 7.7411e-17 0
-8.43769e-15 -1.55431e-14 0
0 0 0

-1.42054e-15 2.43592e-15 0
-2.66454e-15 1.15463e-14 0
0 0 0

-2.02863e-15 6.66389e-16 0
-5.32907e-15 -1.24345e-14 0
0 0 0

-1.42054e-15 3.05038e-15 0
-5.32907e-15 1.24345e-14 0
0 0 0

-2.08319e-15 4.02947e-16 0
9.4369e-15 -1.22125e-15 0
0 0 0

-2.54168e-15 -3.31112e-16 0
0 3.55271e-15 0
0 0 0

-2.08319e-15 -1.51471e-16 0
3.10862e-15 3.10862e-15 0
0 0 0

-2.54168e-15 -7.5763e-16 0
0 -3.55271e-15 0
0 0 0

-2.90771e-15 -1.38372e-15 0
-2.44249e-15 -1.31006e-14 0
0 0 0

-2.91035e-15 -2.43894e-15 0
-3.55271e-15 -2.13163e-14 0
0 0 0

-2.90771e-15 -1.56828e-15 0
-1.77636e-15 -8.88178e-15 0
0 0 0

-2.91035e-15 -2.38094e-15 0
0 -2.13163e-14 0
0 0 0

-2.7159e-15 -1.64767e-15 0
-1.12133e-14 2.43139e-14 0
0 0 0

-1.70173e-15 -8.54431e-16 0
-4.44089e-15 -1.5099e-14 0
0 0 0

-2.7159e-15 -1.04386e-15 0
-2.22045e-15 2.62013e-14 0
0 0 0

-1.70173e-15 2.9653e-16 0
1.77636e-15 -2.30926e-14 0
0 0 0

-9.26059e-16 7.8578e-16 0
-4.44089e-15 -7.99361e-15 0
0 0 0

-2.40492e-15 2.43006e-15 0
-3.55271e-15 1.77636e-14 0
0 0 0

-9.26059e-16 4.35585e-16 0
4.88498e-15 -5.77316e-15 0
0 0 0

-2.40492e-15 5.74984e-16 0
-3.55271e-15 3.55271e-15 0
0 0 0

-9.91295e-16 -1.9356e-16 0
3.21965e-15 -7.43849e-15 0
0 0 0

-5.69043e-16 -7.67762e-16 0
-3.55271e-15 3.55271e-15 0
0 0 0

-9.91295e-16 2.76679e-16 0
-3.9968e-15 -4.44089e-16 0
0 0 0

-5.69043e-16 -3.61507e-16 0
-1.77636e-15 5.32907e-15 0
0 0 0

-4.93714e-16 -2.11928e-15 0
9.99201e-16 -1.32117e-14 0
0 0 0

-2.4064e-15 -3.47415e-15 0
-2.66454e-15 -2.39808e-14 0
0 0 0

-4.93714e-16 -3.03673e-15 0
-4.44089e-15 -4.44089e-15 0
0 0 0

-2.4064e-15 -5.71859e-15 0
5.32907e-15 -8.88178e-15 0
0 0 0

-4.04069e-15 -6.43892e-16 0
3.9968e-15 2.53131e-14 0
0 0 0

-2.00958e-15 2.1934e-15 0
7.99361e-15 -1.68754e-14 0
0 0 0

-4.04069e-15 -4.47752e-16 0
3.9968e-15 3.24185e-14 0
0 0 0

-2.00958e-15 4.83618e-15 0
1.06581e-14 -1.06581e-14 0
0 0 0

7.58735e-17 4.67225e-16 0
2.66454e-15 -1.5099e-14 0
0 0 0

-1.18678e-15 -1.26324e-15 0
1.42109e-14 0 0
0 0 0

7.58735e-17 8.80701e-16 0
1.15463e-14 -9.76996e-15 0
0 0 0

-1.18678e-15 -3.0846e-15 0
5.32907e-15 -1.77636e-15 0
0 0 0

SCALARS active double 1
LOOKUP_TABLE default
1
1
1
1
1
1
1
1
1
1
1
1
1
1
1
1
1
1
1
1
1
1
1
1
1
1
1
1
1
1
1
1
1
1
1
1
1
1
1
1
1
1
1
1
1
1
1
1
1
1
1
1
1
1
1
1
1
1
1
1
1
1
1
1
SCALARS extent double 1
LOOKUP_TABLE default
0.0125
0.0125
0.0125
0.0125
0.0125
0.0125
0.0125
0.0125
0.0125
0.0125
0.0125
0.0125
0.0125
0.0125
0.0125
0.0125
0.0125
0.0125
0.0125
0.0125
0.0125
0.0125
0.0125
0.0125
0.0125
0.0125
0.0125
0.0125
0.0125
0.0125
0.0125
0.0125
0.0125
0.0125
0.0125
0.0125
0.0125
0.0125
0.0125
0.0125
0.0125
0.0125
0.0125
0.0125
0.0125
0.0125
0.0125
0.0125
0.0125
0.0125
0.0125
0.0125
0.0125
0.0125
0.0125
0.0125
0.0125
0.0125
0.0125
0.0125
0.0125
0.0125
0.0125
0.0125
SCALARS pressure double 1
LOOKUP_TABLE default
-1.54507e-12
-2.71128e-12
-6.88695e-13
-3.38436e-12
3.39309e-12
6.83937e-12
3.70361e-12
9.5386e-12
-3.14269e-11
1.71034e-11
-3.10609e-11
1.70664e-11
3.39822e-12
-3.19941e-12
3.06284e-12
-1.56183e-12
-6.46854e-13
-4.1507e-12
-3.4253e-12
-2.29802e-12
2.51645e-12
9.69472e-12
3.03108e-12
7.12733e-12
-3.13394e-11
1.75619e-11
-3.05085e-11
2.17345e-11
5.71921e-12
-2.88485e-12
4.17877e-12
-2.04755e-12
1.95443e-12
-5.14757e-12
-3.93091e-12
-1.48615e-12
5.20263e-12
7.96675e-12
4.22194e-12
7.35613e-12
-2.87661e-11
1.95925e-11
-2.9685e-11
2.18824e-11
4.63478e-12
-3.27485e-12
5.66868e-12
-4.14222e-12
8.99437e-13
-2.86355e-12
-1.98714e-12
-9.69236e-13
2.19698e-12
1.02946e-11
3.09556e-12
8.01175e-12
-2.69445e-11
1.96511e-11
-3.03458e-11
1.97992e-11
2.46867e-12
-4.55335e-12
3.90849e-12
-1.24118e-12
SCALARS density double 1
LOOKUP_TABLE default
1000
1000
1000
1000
1000
1000
1000
1000
1000
1000
1000
1000
1000
1000
1000
1000
1000
1000
1000
1000
1000
1000
1000
1000
1000
1000
1000
1000
1000
1000
1000
1000
1000
1000
1000
1000
1000
1000
1000
1000
1000
1000
1000
1000
1000
1000
1000
1000
1000
1000
1000
1000
1000
1000
1000
1000
1000
1000
1000
1000
1000
1000
1000
1000
