# vtk DataFile Version 3.0
Frame: 27, Time: 0.45
ASCII
DATASET UNSTRUCTURED_GRID
POINTS 64 double
0.395449 0.0863187 0 
0.383718 0.111634 0 
0.414405 0.0995349 0 
0.405157 0.124384 0 
0.370438 0.134376 0 
0.358577 0.155078 0 
0.393794 0.144309 0 
0.381685 0.164326 0 
0.348389 0.176136 0 
0.333886 0.195827 0 
0.37114 0.188126 0 
0.355643 0.208392 0 
0.321885 0.218296 0 
0.3094 0.240015 0 
0.343527 0.230082 0 
0.331502 0.251058 0 
0.436089 0.112744 0 
0.426952 0.136303 0 
0.460385 0.1218 0 
0.449335 0.144704 0 
0.414806 0.156144 0 
0.402957 0.176968 0 
0.437503 0.165201 0 
0.425378 0.186227 0 
0.391771 0.200308 0 
0.376136 0.219454 0 
0.414527 0.209858 0 
0.400684 0.230916 0 
0.365238 0.241067 0 
0.355032 0.265188 0 
0.389146 0.25348 0 
0.378725 0.276154 0 
0.483548 0.131085 0 
0.471332 0.153186 0 
0.505029 0.143184 0 
0.492738 0.165648 0 
0.459402 0.17433 0 
0.447381 0.197658 0 
0.481524 0.186265 0 
0.470392 0.209899 0 
0.436739 0.22161 0 
0.424407 0.242247 0 
0.45876 0.233857 0 
0.449243 0.254385 0 
0.412711 0.264725 0 
0.401217 0.286435 0 
0.438042 0.276058 0 
0.423438 0.298163 0 
0.52681 0.15228 0 
0.513809 0.175555 0 
0.547466 0.165173 0 
0.536652 0.186844 0 
0.50453 0.197816 0 
0.492322 0.220458 0 
0.527522 0.209434 0 
0.515717 0.233045 0 
0.481634 0.243792 0 
0.473106 0.266265 0 
0.506992 0.255859 0 
0.497312 0.278784 0 
0.460535 0.288463 0 
0.445309 0.310084 0 
0.48197 0.300558 0 
0.468631 0.322959 0 
CELLS 64 128
1 0
1 1
1 2
1 3
1 4
1 5
1 6
1 7
1 8
1 9
1 10
1 11
1 12
1 13
1 14
1 15
1 16
1 17
1 18
1 19
1 20
1 21
1 22
1 23
1 24
1 25
1 26
1 27
1 28
1 29
1 30
1 31
1 32
1 33
1 34
1 35
1 36
1 37
1 38
1 39
1 40
1 41
1 42
1 43
1 44
1 45
1 46
1 47
1 48
1 49
1 50
1 51
1 52
1 53
1 54
1 55
1 56
1 57
1 58
1 59
1 60
1 61
1 62
1 63
CELL_TYPES 64
1
1
1
1
1
1
1
1
1
1
1
1
1
1
1
1
1
1
1
1
1
1
1
1
1
1
1
1
1
1
1
1
1
1
1
1
1
1
1
1
1
1
1
1
1
1
1
1
1
1
1
1
1
1
1
1
1
1
1
1
1
1
1
1
POINT_DATA 64
VECTORS displacement double
-0.0170513 -0.326181 0 
-0.0287825 -0.325866 0 
-0.0230948 -0.312965 0 
-0.0323431 -0.313116 0 
-0.0420623 -0.328124 0 
-0.053923 -0.332422 0 
-0.0437058 -0.318191 0 
-0.0558149 -0.323174 0 
-0.0641111 -0.336364 0 
-0.0786143 -0.341673 0 
-0.0663604 -0.324374 0 
-0.0818566 -0.329108 0 
-0.0906152 -0.344204 0 
-0.1031 -0.347485 0 
-0.0939731 -0.332418 0 
-0.105998 -0.336442 0 
-0.0264113 -0.299756 0 
-0.0355482 -0.301197 0 
-0.027115 -0.2907 0 
-0.0381651 -0.292796 0 
-0.047694 -0.306356 0 
-0.0595429 -0.310532 0 
-0.0499974 -0.297299 0 
-0.0621223 -0.301273 0 
-0.0707293 -0.312192 0 
-0.0863644 -0.318046 0 
-0.0729727 -0.302642 0 
-0.0868155 -0.306584 0 
-0.0972616 -0.321433 0 
-0.107468 -0.322312 0 
-0.0983539 -0.30902 0 
-0.108775 -0.311346 0 
-0.0289519 -0.281415 0 
-0.0411676 -0.284314 0 
-0.0324714 -0.269316 0 
-0.0447617 -0.271852 0 
-0.0530978 -0.28817 0 
-0.0651185 -0.289842 0 
-0.0559758 -0.276235 0 
-0.0671084 -0.277601 0 
-0.075761 -0.29089 0 
-0.088093 -0.295253 0 
-0.0787401 -0.278643 0 
-0.0882572 -0.283115 0 
-0.0997895 -0.297775 0 
-0.111283 -0.301065 0 
-0.0994585 -0.286442 0 
-0.114062 -0.289337 0 
-0.0356898 -0.26022 0 
-0.0486909 -0.261945 0 
-0.0400337 -0.247327 0 
-0.050848 -0.250656 0 
-0.0579702 -0.264684 0 
-0.0701777 -0.267042 0 
-0.0599779 -0.253066 0 
-0.0717831 -0.254455 0 
-0.0808662 -0.268708 0 
-0.0893943 -0.271235 0 
-0.0805079 -0.256641 0 
-0.090188 -0.258716 0 
-0.101965 -0.274037 0 
-0.117191 -0.277416 0 
-0.10553 -0.261942 0 
-0.118869 -0.264541 0 
VECTORS velocity double
0.732483 -0.0248183 0 
0.322834 0.115898 0 
0.393997 0.983273 0 
-0.171966 0.927646 0 
0.80557 0.00168194 0 
0.0672339 0.115778 0 
0.870319 -0.0310521 0 
0.167509 0.146791 0 
0.343836 -0.250962 0 
-0.429301 -0.757313 0 
-0.323294 0.406204 0 
-0.478003 0.215597 0 
-0.297566 -0.676866 0 
-0.999543 -0.426411 0 
-0.493849 0.0986698 0 
-1.36485 -0.501502 0 
0.033132 0.608184 0 
0.2672 0.86728 0 
0.273789 0.436778 0 
0.479266 1.06591 0 
0.772936 0.103588 0 
-0.294719 0.242979 0 
0.267644 0.597412 0 
-0.995297 0.549268 0 
-0.769209 0.38252 0 
-0.74648 -0.208316 0 
-0.705059 0.523754 0 
-0.39356 -0.0388374 0 
-1.00982 0.264551 0 
-1.17832 -0.589611 0 
-1.03989 0.66064 0 
-1.15225 -0.474028 0 
0.0224894 1.07684 0 
0.582241 1.25499 0 
-0.56846 1.10751 0 
0.0706345 1.46054 0 
-0.022033 0.758635 0 
-0.913706 0.662798 0 
-0.613281 0.551425 0 
-0.874992 0.387019 0 
0.0303571 0.474662 0 
-0.26728 -0.104515 0 
-0.154628 0.0874808 0 
-0.805168 -0.463058 0 
-1.73675 -0.101369 0 
-1.16828 -0.326826 0 
-1.75409 0.00739803 0 
-0.672211 0.504019 0 
0.120407 0.732175 0 
0.0630601 1.03403 0 
-0.210299 0.689793 0 
-0.243356 0.446687 0 
0.0133714 0.934498 0 
-0.0837257 1.29126 0 
0.0219462 0.597134 0 
-0.126904 1.01901 0 
-0.217812 0.648584 0 
-1.11886 -0.00277594 0 
-0.811674 0.0411618 0 
-1.531 0.655018 0 
-1.33342 -0.0626248 0 
-0.885675 -0.844845 0 
-1.61898 0.54322 0 
-1.46069 0.737 0 
SCALARS mass double 1
LOOKUP_TABLE default
0.625
0.625
0.625
0.625
0.625
0.625
0.625
0.625
0.625
0.625
0.625
0.625
0.625
0.625
0.625
0.625
0.625
0.625
0.625
0.625
0.625
0.625
0.625
0.625
0.625
0.625
0.625
0.625
0.625
0.625
0.625
0.625
0.625
0.625
0.625
0.625
0.625
0.625
0.625
0.625
0.625
0.625
0.625
0.625
0.625
0.625
0.625
0.625
0.625
0.625
0.625
0.625
0.625
0.625
0.625
0.625
0.625
0.625
0.625
0.625
0.625
0.625
0.625
0.625
SCALARS volume double 1
LOOKUP_TABLE default
0.000630727
0.000686323
0.000618677
0.000628469
0.000630744
0.000596486
0.000548249
0.000603165
0.000608609
0.00061502
0.000630013
0.000564387
0.00063562
0.000624701
0.000614293
0.000630282
0.000651058
0.000625918
0.000629901
0.000611657
0.000578152
0.000661484
0.000566981
0.000612122
0.000686477
0.000588044
0.000595853
0.000655406
0.000649076
0.00060476
0.000656476
0.000638541
0.000656105
0.000605908
0.000613219
0.00059517
0.000651156
0.000702492
0.000619674
0.000617529
0.000647207
0.000677053
0.000593273
0.000614599
0.000643052
0.000592971
0.000672151
0.000635089
0.000641219
0.00062742
0.000620059
0.0006009
0.000653981
0.000643672
0.000616914
0.000604122
0.000669677
0.000666165
0.00065391
0.000640956
0.000644657
0.00061825
0.000649467
0.000624294
VECTORS momentum double
0.457802 -0.0155115 0 
0.201771 0.0724361 0 
0.246248 0.614546 0 
-0.107479 0.579779 0 
0.503481 0.00105121 0 
0.0420212 0.0723611 0 
0.54395 -0.0194076 0 
0.104693 0.0917447 0 
0.214897 -0.156851 0 
-0.268313 -0.47332 0 
-0.202059 0.253878 0 
-0.298752 0.134748 0 
-0.185979 -0.423041 0 
-0.624714 -0.266507 0 
-0.308656 0.0616686 0 
-0.853033 -0.313439 0 
0.0207075 0.380115 0 
0.167 0.54205 0 
0.171118 0.272986 0 
0.299541 0.666191 0 
0.483085 0.0647423 0 
-0.184199 0.151862 0 
0.167278 0.373383 0 
-0.622061 0.343293 0 
-0.480756 0.239075 0 
-0.46655 -0.130197 0 
-0.440662 0.327346 0 
-0.245975 -0.0242734 0 
-0.631139 0.165344 0 
-0.736453 -0.368507 0 
-0.649934 0.4129 0 
-0.720158 -0.296268 0 
0.0140559 0.673027 0 
0.363901 0.78437 0 
-0.355288 0.692191 0 
0.0441466 0.912838 0 
-0.0137706 0.474147 0 
-0.571066 0.414249 0 
-0.383301 0.344641 0 
-0.54687 0.241887 0 
0.0189732 0.296664 0 
-0.16705 -0.0653217 0 
-0.0966427 0.0546755 0 
-0.50323 -0.289411 0 
-1.08547 -0.0633557 0 
-0.730172 -0.204266 0 
-1.09631 0.00462377 0 
-0.420132 0.315012 0 
0.0752541 0.457609 0 
0.0394126 0.646267 0 
-0.131437 0.431121 0 
-0.152098 0.27918 0 
0.00835714 0.584061 0 
-0.0523286 0.807037 0 
0.0137164 0.373209 0 
-0.0793149 0.636882 0 
-0.136132 0.405365 0 
-0.699287 -0.00173496 0 
-0.507296 0.0257262 0 
-0.956875 0.409386 0 
-0.83339 -0.0391405 0 
-0.553547 -0.528028 0 
-1.01186 0.339512 0 
-0.912932 0.460625 0 
VECTORS body_force double
0 -9.81 0 
0 -9.81 0 
0 -9.81 0 
0 -9.81 0 
0 -9.81 0 
0 -9.81 0 
0 -9.81 0 
0 -9.81 0 
0 -9.81 0 
0 -9.81 0 
0 -9.81 0 
0 -9.81 0 
0 -9.81 0 
0 -9.81 0 
0 -9.81 0 
0 -9.81 0 
0 -9.81 0 
0 -9.81 0 
0 -9.81 0 
0 -9.81 0 
0 -9.81 0 
0 -9.81 0 
0 -9.81 0 
0 -9.81 0 
0 -9.81 0 
0 -9.81 0 
0 -9.81 0 
0 -9.81 0 
0 -9.81 0 
0 -9.81 0 
0 -9.81 0 
0 -9.81 0 
0 -9.81 0 
0 -9.81 0 
0 -9.81 0 
0 -9.81 0 
0 -9.81 0 
0 -9.81 0 
0 -9.81 0 
0 -9.81 0 
0 -9.81 0 
0 -9.81 0 
0 -9.81 0 
0 -9.81 0 
0 -9.81 0 
0 -9.81 0 
0 -9.81 0 
0 -9.81 0 
0 -9.81 0 
0 -9.81 0 
0 -9.81 0 
0 -9.81 0 
0 -9.81 0 
0 -9.81 0 
0 -9.81 0 
0 -9.81 0 
0 -9.81 0 
0 -9.81 0 
0 -9.81 0 
0 -9.81 0 
0 -9.81 0 
0 -9.81 0 
0 -9.81 0 
0 -9.81 0 
TENSORS cauchy_stress double
-1123.38 -937.35 0
-937.35 2877.54 0
0 0 526.249

-1222.98 4612.4 0
4612.4 19222.2 0
0 0 5399.77

-682.216 -2027.3 0
-2027.3 -1273.25 0
0 0 -586.639

1175.02 -28.4089 0
-28.4089 -110.721 0
0 0 319.289

8172.32 -1444.68 0
-1444.68 -6412.94 0
0 0 527.812

-1809.59 1676.48 0
1676.48 -7170.37 0
0 0 -2693.99

-1035.25 -2013.34 0
-2013.34 -24161.4 0
0 0 -7559

-7618.04 4184.58 0
4184.58 779.557 0
0 0 -2051.54

2440.37 2549.92 0
2549.92 -7550.92 0
0 0 -1533.17

3223.86 -693.676 0
-693.676 -6319.32 0
0 0 -928.638

-3777.91 -2281.16 0
-2281.16 5314.37 0
0 0 460.938

-9047.78 -104.711 0
-104.711 -10569.9 0
0 0 -5885.29

3315.41 -2666.79 0
-2666.79 -75.1022 0
0 0 972.092

478.624 -3246.51 0
-3246.51 -570.733 0
0 0 -27.6327

-3269.61 1053.42 0
1053.42 -53.3989 0
0 0 -996.903

3175.45 1685.28 0
1685.28 -1556.97 0
0 0 485.544

7707.5 6624.49 0
6624.49 147.637 0
0 0 2356.54

-3077.63 1931.51 0
1931.51 3359.81 0
0 0 84.6543

4088.68 1865.59 0
1865.59 -2586.46 0
0 0 450.665

-4485.99 -1622.74 0
-1622.74 336.116 0
0 0 -1244.96

600.698 -974.158 0
-974.158 -15584.3 0
0 0 -4495.08

-336.86 6838.61 0
6838.61 11247.2 0
0 0 3273.1

-1058.84 -5603.48 0
-5603.48 -17676.8 0
0 0 -5620.69

-5797.82 -991.667 0
-991.667 1794.08 0
0 0 -1201.12

8345.92 3451.64 0
3451.64 9696.47 0
0 0 5412.72

5631.07 904.529 0
904.529 -17352.3 0
0 0 -3516.36

-3092.47 -3457.11 0
-3457.11 -6091.76 0
0 0 -2755.27

10770.4 -3910.4 0
-3910.4 -1635.18 0
0 0 2740.58

4038.64 -186.675 0
-186.675 3230.13 0
0 0 2180.63

-581.434 1542.97 0
1542.97 -5749.26 0
0 0 -1899.21

8646.81 552.531 0
552.531 802.184 0
0 0 2834.7

3743 -624.825 0
-624.825 379.021 0
0 0 1236.61

4208.06 7318.78 0
7318.78 5132.07 0
0 0 2802.04

-5338.19 -207.177 0
-207.177 -628.012 0
0 0 -1789.86

-5007.87 2234.13 0
2234.13 1348.31 0
0 0 -1097.87

-7388.22 1479.58 0
1479.58 -2016.46 0
0 0 -2821.41

4077.51 -1533.25 0
-1533.25 3806.66 0
0 0 2365.25

4042.26 5275.43 0
5275.43 18435 0
0 0 6743.19

-1146.18 -2620.7 0
-2620.7 -499.574 0
0 0 -493.725

-1655.26 -4715.61 0
-4715.61 -657.414 0
0 0 -693.801

-3794.89 3020.72 0
3020.72 10509.3 0
0 0 2014.31

1570.91 7276.26 0
7276.26 13813.3 0
0 0 4615.25

94.1857 -6102.17 0
-6102.17 -10112.9 0
0 0 -3005.63

5155.98 1452.33 0
1452.33 -8383.36 0
0 0 -968.216

1059.43 1304.89 0
1304.89 4416.28 0
0 0 1642.71

299.418 -955.519 0
-955.519 -10415.9 0
0 0 -3034.96

13759.8 -3482.47 0
-3482.47 227.045 0
0 0 4196.05

5708.73 -5562.5 0
-5562.5 -2629.14 0
0 0 923.879

5048.97 -4103.9 0
-4103.9 -122.252 0
0 0 1478.02

-611.101 -2370.8 0
-2370.8 1354.25 0
0 0 222.944

-1146.45 -1271.61 0
-1271.61 -379.881 0
0 0 -457.9

-3360.67 179.237 0
179.237 -4201.5 0
0 0 -2268.65

6554.18 -736.226 0
-736.226 2162.37 0
0 0 2614.96

1358.69 4249.93 0
4249.93 4302.34 0
0 0 1698.31

-2538.16 -5338.16 0
-5338.16 33.8514 0
0 0 -751.293

-890.534 1575.29 0
1575.29 -5643.13 0
0 0 -1960.1

4384.66 4651.68 0
4651.68 8892.96 0
0 0 3983.29

2529.11 7525.66 0
7525.66 9737.38 0
0 0 3679.94

6196.98 -793.826 0
-793.826 2498.81 0
0 0 2608.74

5284.89 -6607.42 0
-6607.42 -436.83 0
0 0 1454.42

-29.6868 -1392.94 0
-1392.94 5984.71 0
0 0 1786.51

-2778.29 2135.8 0
2135.8 690.067 0
0 0 -626.466

10795.6 -8344.5 0
-8344.5 -3411.04 0
0 0 2215.38

-1433.48 4346.23 0
4346.23 1216 0
0 0 -65.2416

TENSORS velocity_gradient double
-2.64421 -2.38761 0
5.7861 3.14711 0
0 0 0

-2.72432 -3.15055 0
5.82881 -2.53655 0
0 0 0

-3.32705 -1.50228 0
6.78652 0.474013 0
0 0 0

-2.74563 -1.60188 0
7.74189 -1.59872 0
0 0 0

-0.518715 -4.424 0
6.58517 -2.97325 0
0 0 0

0.4661 -13.0998 0
7.10945 -1.33571 0
0 0 0

0.401932 -2.47852 0
6.90522 -2.17464 0
0 0 0

-0.195614 -15.8718 0
7.16302 -1.02812 0
0 0 0

0.0796862 -13.5567 0
11.4377 -0.585384 0
0 0 0

1.62075 -13.0519 0
11.2228 0.85773 0
0 0 0

-2.22072 -15.0084 0
7.25786 -1.06855 0
0 0 0

-2.87447 -9.7684 0
6.82535 -1.91511 0
0 0 0

1.33268 -9.21526 0
9.04389 0.729788 0
0 0 0

0.707635 -8.86316 0
7.23927 1.74635 0
0 0 0

0.881644 -9.82257 0
7.98375 -1.06409 0
0 0 0

0.999404 -8.97576 0
5.8842 -0.540765 0
0 0 0

-2.92368 -1.48876 0
7.05684 0.66683 0
0 0 0

-2.88942 -1.502 0
8.80553 -0.00886794 0
0 0 0

-4.57939 -1.62092 0
4.23369 1.49534 0
0 0 0

-3.74854 -1.6501 0
6.95327 1.31501 0
0 0 0

-2.22121 -15.1914 0
9.34803 -2.10931 0
0 0 0

-0.297902 -16.7889 0
7.54453 -1.34878 0
0 0 0

-1.28751 -13.3592 0
8.65701 -4.0609 0
0 0 0

1.01399 -14.6438 0
6.90114 -3.08081 0
0 0 0

-2.85349 -12.5293 0
7.10252 -2.5599 0
0 0 0

-2.50119 -8.99196 0
6.13928 -3.15744 0
0 0 0

2.91863 -7.54922 0
4.46465 -6.54013 0
0 0 0

1.50074 -8.0609 0
3.11971 -4.91627 0
0 0 0

-1.68011 -9.39694 0
4.83311 -2.5132 0
0 0 0

-0.00611836 -5.83856 0
4.65941 -4.21634 0
0 0 0

-0.988639 -4.19258 0
4.50497 -3.51789 0
0 0 0

0.864387 -3.83776 0
4.95568 -3.65049 0
0 0 0

-4.71661 -1.96912 0
4.03485 0.990751 0
0 0 0

-4.06703 -5.65515 0
3.83854 -2.44335 0
0 0 0

-1.85554 -1.77837 0
-4.01162 0.112416 0
0 0 0

-1.85982 -2.82527 0
4.26146 -3.18753 0
0 0 0

0.0399369 -9.96253 0
4.65695 -4.67336 0
0 0 0

2.91697 -10.5654 0
5.83771 -6.20301 0
0 0 0

2.58448 -5.20938 0
5.18667 -3.68385 0
0 0 0

4.96964 -7.87514 0
6.4883 -9.66942 0
0 0 0

3.35902 -6.71714 0
2.91762 -9.46309 0
0 0 0

4.13909 -7.1717 0
0.177344 -7.8663 0
0 0 0

3.06164 -6.97908 0
8.19358 -10.4703 0
0 0 0

2.35646 -8.8906 0
4.41397 -2.28509 0
0 0 0

2.3247 -4.09401 0
-0.111056 -2.45514 0
0 0 0

0.00822635 -2.91324 0
2.3363 -2.98051 0
0 0 0

0.699102 -7.72648 0
0.462374 -1.17379 0
0 0 0

-2.77024 -1.7459 0
1.48601 0.440054 0
0 0 0

-0.995318 -0.240653 0
-5.13827 -1.75096 0
0 0 0

-0.0316057 -0.765122 0
-4.42899 -2.24232 0
0 0 0

0.336364 0.490743 0
-2.56732 -0.770908 0
0 0 0

0.395902 0.0911954 0
-3.91692 -1.21662 0
0 0 0

1.31464 -3.44844 0
-2.10157 -3.71376 0
0 0 0

4.14458 -9.59745 0
7.22569 -8.13009 0
0 0 0

1.46658 -8.42032 0
-1.8262 -2.94247 0
0 0 0

2.96464 -9.15152 0
2.17303 -4.8945 0
0 0 0

2.28894 -8.77742 0
8.88419 -8.863 0
0 0 0

-0.53219 -12.746 0
9.22784 -0.796536 0
0 0 0

2.73154 -17.6094 0
5.58092 -0.740684 0
0 0 0

-2.32444 -16.449 0
8.58576 -0.751589 0
0 0 0

-3.73922 -10.9747 0
9.06316 -0.705581 0
0 0 0

-5.30376 -0.287516 0
3.3112 4.81479 0
0 0 0

-4.70603 -6.20072 0
8.94879 1.85468 0
0 0 0

-3.50138 -0.0755162 0
8.62413 4.56426 0
0 0 0

SCALARS active double 1
LOOKUP_TABLE default
1
1
1
1
1
1
1
1
1
1
1
1
1
1
1
1
1
1
1
1
1
1
1
1
1
1
1
1
1
1
1
1
1
1
1
1
1
1
1
1
1
1
1
1
1
1
1
1
1
1
1
1
1
1
1
1
1
1
1
1
1
1
1
1
SCALARS extent double 1
LOOKUP_TABLE default
0.0125
0.0125
0.0125
0.0125
0.0125
0.0125
0.0125
0.0125
0.0125
0.0125
0.0125
0.0125
0.0125
0.0125
0.0125
0.0125
0.0125
0.0125
0.0125
0.0125
0.0125
0.0125
0.0125
0.0125
0.0125
0.0125
0.0125
0.0125
0.0125
0.0125
0.0125
0.0125
0.0125
0.0125
0.0125
0.0125
0.0125
0.0125
0.0125
0.0125
0.0125
0.0125
0.0125
0.0125
0.0125
0.0125
0.0125
0.0125
0.0125
0.0125
0.0125
0.0125
0.0125
0.0125
0.0125
0.0125
0.0125
0.0125
0.0125
0.0125
0.0125
0.0125
0.0125
0.0125
SCALARS pressure double 1
LOOKUP_TABLE default
-760.137
-7799.67
847.368
-461.196
-762.395
3891.32
10918.6
2963.34
2214.57
1341.37
-665.799
8500.98
-1404.13
39.9139
1439.97
-701.341
-3403.89
-122.278
-650.961
1798.28
6492.9
-4727.81
8118.77
1734.95
-7818.37
5079.18
3979.83
-3958.62
-3149.8
2743.3
-4094.56
-1786.21
-4047.39
2585.35
1585.81
4075.36
-3416.47
-9740.16
713.158
1002.16
-2909.56
-6666.48
4341.46
1398.53
-2372.81
4383.82
-6060.96
-1334.49
-2134.91
-322.031
661.411
3276.94
-3777.17
-2453.11
1085.2
2831.25
-5753.64
-5315.48
-3768.18
-2100.83
-2580.51
904.896
-3199.99
94.2378
SCALARS density double 1
LOOKUP_TABLE default
990.92
910.651
1010.22
994.481
990.893
1047.8
1139.99
1036.2
1026.93
1016.23
992.042
1107.4
983.292
1000.48
1017.43
991.619
959.976
998.534
992.219
1021.81
1081.03
944.846
1102.33
1021.04
910.446
1062.85
1048.92
953.607
962.908
1033.47
952.053
978.794
952.592
1031.51
1019.21
1050.12
959.831
889.69
1008.59
1012.1
965.688
923.118
1053.48
1016.92
971.928
1054.01
929.85
984.114
974.706
996.143
1007.97
1040.11
955.686
970.992
1013.11
1034.56
933.286
938.206
955.789
975.105
969.508
1010.92
962.328
1001.13
