# vtk DataFile Version 3.0
Frame: 2, Time: 0.034
ASCII
DATASET UNSTRUCTURED_GRID
POINTS 64 double
0.5125 0.60632 0 
0.5125 0.63132 0 
0.5375 0.60632 0 
0.5375 0.63132 0 
0.5125 0.65632 0 
0.5125 0.68132 0 
0.5375 0.65632 0 
0.5375 0.68132 0 
0.5125 0.70632 0 
0.5125 0.73132 0 
0.5375 0.70632 0 
0.5375 0.73132 0 
0.5125 0.75632 0 
0.5125 0.78132 0 
0.5375 0.75632 0 
0.5375 0.78132 0 
0.5625 0.60632 0 
0.5625 0.63132 0 
0.5875 0.60632 0 
0.5875 0.63132 0 
0.5625 0.65632 0 
0.5625 0.68132 0 
0.5875 0.65632 0 
0.5875 0.68132 0 
0.5625 0.70632 0 
0.5625 0.73132 0 
0.5875 0.70632 0 
0.5875 0.73132 0 
0.5625 0.75632 0 
0.5625 0.78132 0 
0.5875 0.75632 0 
0.5875 0.78132 0 
0.6125 0.60632 0 
0.6125 0.63132 0 
0.6375 0.60632 0 
0.6375 0.63132 0 
0.6125 0.65632 0 
0.6125 0.68132 0 
0.6375 0.65632 0 
0.6375 0.68132 0 
0.6125 0.70632 0 
0.6125 0.73132 0 
0.6375 0.70632 0 
0.6375 0.73132 0 
0.6125 0.75632 0 
0.6125 0.78132 0 
0.6375 0.75632 0 
0.6375 0.78132 0 
0.6625 0.60632 0 
0.6625 0.63132 0 
0.6875 0.60632 0 
0.6875 0.63132 0 
0.6625 0.65632 0 
0.6625 0.68132 0 
0.6875 0.65632 0 
0.6875 0.68132 0 
0.6625 0.70632 0 
0.6625 0.73132 0 
0.6875 0.70632 0 
0.6875 0.73132 0 
0.6625 0.75632 0 
0.6625 0.78132 0 
0.6875 0.75632 0 
0.6875 0.78132 0 
CELLS 64 128
1 0
1 1
1 2
1 3
1 4
1 5
1 6
1 7
1 8
1 9
1 10
1 11
1 12
1 13
1 14
1 15
1 16
1 17
1 18
1 19
1 20
1 21
1 22
1 23
1 24
1 25
1 26
1 27
1 28
1 29
1 30
1 31
1 32
1 33
1 34
1 35
1 36
1 37
1 38
1 39
1 40
1 41
1 42
1 43
1 44
1 45
1 46
1 47
1 48
1 49
1 50
1 51
1 52
1 53
1 54
1 55
1 56
1 57
1 58
1 59
1 60
1 61
1 62
1 63
CELL_TYPES 64
1
1
1
1
1
1
1
1
1
1
1
1
1
1
1
1
1
1
1
1
1
1
1
1
1
1
1
1
1
1
1
1
1
1
1
1
1
1
1
1
1
1
1
1
1
1
1
1
1
1
1
1
1
1
1
1
1
1
1
1
1
1
1
1
POINT_DATA 64
VECTORS displacement double
-6.64201e-19 -0.0061803 0 
-4.9272e-19 -0.0061803 0 
-7.16522e-19 -0.0061803 0 
-4.52425e-19 -0.0061803 0 
-2.80267e-19 -0.0061803 0 
-8.49979e-21 -0.0061803 0 
-1.89741e-19 -0.0061803 0 
7.50969e-20 -0.0061803 0 
2.49077e-19 -0.0061803 0 
4.7484e-19 -0.0061803 0 
2.86901e-19 -0.0061803 0 
4.06482e-19 -0.0061803 0 
7.75962e-19 -0.0061803 0 
1.2051e-18 -0.0061803 0 
6.94906e-19 -0.0061803 0 
1.26746e-18 -0.0061803 0 
-6.77374e-19 -0.0061803 0 
-3.51415e-19 -0.0061803 0 
-5.46757e-19 -0.0061803 0 
-1.8969e-19 -0.0061803 0 
-6.27085e-20 -0.0061803 0 
1.63919e-19 -0.0061803 0 
1.00831e-19 -0.0061803 0 
2.57966e-19 -0.0061803 0 
3.22827e-19 -0.0061803 0 
3.70215e-19 -0.0061803 0 
3.56853e-19 -0.0061803 0 
3.6604e-19 -0.0061803 0 
6.15175e-19 -0.0061803 0 
1.18731e-18 -0.0061803 0 
5.3677e-19 -0.0061803 0 
9.6466e-19 -0.0061803 0 
-3.79492e-19 -0.0061803 0 
-5.19044e-20 -0.0061803 0 
-1.75579e-19 -0.0061803 0 
6.19411e-20 -0.0061803 0 
1.99071e-19 -0.0061803 0 
2.92625e-19 -0.0061803 0 
2.32011e-19 -0.0061803 0 
2.67895e-19 -0.0061803 0 
3.51202e-19 -0.0061803 0 
3.62546e-19 -0.0061803 0 
3.05873e-19 -0.0061803 0 
3.59731e-19 -0.0061803 0 
4.60641e-19 -0.0061803 0 
6.92666e-19 -0.0061803 0 
3.8679e-19 -0.0061803 0 
3.7133e-19 -0.0061803 0 
1.95642e-20 -0.0061803 0 
1.141e-19 -0.0061803 0 
2.05937e-19 -0.0061803 0 
1.04572e-19 -0.0061803 0 
1.99039e-19 -0.0061803 0 
2.49227e-19 -0.0061803 0 
1.00154e-19 -0.0061803 0 
2.36619e-19 -0.0061803 0 
2.84094e-19 -0.0061803 0 
3.06314e-19 -0.0061803 0 
2.85866e-19 -0.0061803 0 
2.02295e-19 -0.0061803 0 
2.325e-19 -0.0061803 0 
9.5675e-21 -0.0061803 0 
-2.2282e-21 -0.0061803 0 
-3.9262e-19 -0.0061803 0 
VECTORS velocity double
-7.99071e-17 -0.34335 0 
-5.98226e-17 -0.34335 0 
-5.2248e-17 -0.34335 0 
-4.16084e-17 -0.34335 0 
-3.52582e-17 -0.34335 0 
-1.68953e-17 -0.34335 0 
-2.72032e-17 -0.34335 0 
-3.95996e-18 -0.34335 0 
-2.96881e-18 -0.34335 0 
8.93445e-18 -0.34335 0 
2.15626e-19 -0.34335 0 
-1.83795e-17 -0.34335 0 
3.3446e-17 -0.34335 0 
7.74284e-17 -0.34335 0 
1.49728e-17 -0.34335 0 
1.25714e-16 -0.34335 0 
-3.98408e-17 -0.34335 0 
-2.27558e-17 -0.34335 0 
-4.26856e-17 -0.34335 0 
-3.26458e-18 -0.34335 0 
-8.39929e-18 -0.34335 0 
7.89848e-18 -0.34335 0 
2.11537e-17 -0.34335 0 
1.868e-17 -0.34335 0 
2.24134e-18 -0.34335 0 
-2.72371e-17 -0.34335 0 
3.10834e-18 -0.34335 0 
-1.76382e-17 -0.34335 0 
5.23995e-18 -0.34335 0 
1.26051e-16 -0.34335 0 
4.24751e-18 -0.34335 0 
7.84406e-17 -0.34335 0 
-6.11442e-17 -0.34335 0 
-1.40477e-18 -0.34335 0 
-9.52167e-17 -0.34335 0 
-1.71763e-17 -0.34335 0 
3.24002e-17 -0.34335 0 
1.73136e-17 -0.34335 0 
2.53404e-17 -0.34335 0 
3.79912e-18 -0.34335 0 
3.90578e-18 -0.34335 0 
6.47526e-18 -0.34335 0 
4.63367e-18 -0.34335 0 
4.51034e-17 -0.34335 0 
2.93173e-17 -0.34335 0 
7.73402e-17 -0.34335 0 
8.04493e-17 -0.34335 0 
1.2275e-16 -0.34335 0 
-1.00125e-16 -0.34335 0 
-3.50585e-17 -0.34335 0 
-7.58677e-17 -0.34335 0 
-5.50512e-17 -0.34335 0 
9.74252e-18 -0.34335 0 
1.11616e-17 -0.34335 0 
-1.43933e-17 -0.34335 0 
3.94011e-17 -0.34335 0 
2.99437e-17 -0.34335 0 
7.50192e-17 -0.34335 0 
7.98358e-17 -0.34335 0 
9.62228e-17 -0.34335 0 
1.0373e-16 -0.34335 0 
1.32802e-16 -0.34335 0 
9.91593e-17 -0.34335 0 
1.07496e-16 -0.34335 0 
SCALARS mass double 1
LOOKUP_TABLE default
0.625
0.625
0.625
0.625
0.625
0.625
0.625
0.625
0.625
0.625
0.625
0.625
0.625
0.625
0.625
0.625
0.625
0.625
0.625
0.625
0.625
0.625
0.625
0.625
0.625
0.625
0.625
0.625
0.625
0.625
0.625
0.625
0.625
0.625
0.625
0.625
0.625
0.625
0.625
0.625
0.625
0.625
0.625
0.625
0.625
0.625
0.625
0.625
0.625
0.625
0.625
0.625
0.625
0.625
0.625
0.625
0.625
0.625
0.625
0.625
0.625
0.625
0.625
0.625
SCALARS volume double 1
LOOKUP_TABLE default
0.000625
0.000625
0.000625
0.000625
0.000625
0.000625
0.000625
0.000625
0.000625
0.000625
0.000625
0.000625
0.000625
0.000625
0.000625
0.000625
0.000625
0.000625
0.000625
0.000625
0.000625
0.000625
0.000625
0.000625
0.000625
0.000625
0.000625
0.000625
0.000625
0.000625
0.000625
0.000625
0.000625
0.000625
0.000625
0.000625
0.000625
0.000625
0.000625
0.000625
0.000625
0.000625
0.000625
0.000625
0.000625
0.000625
0.000625
0.000625
0.000625
0.000625
0.000625
0.000625
0.000625
0.000625
0.000625
0.000625
0.000625
0.000625
0.000625
0.000625
0.000625
0.000625
0.000625
0.000625
VECTORS momentum double
-4.9942e-17 -0.214594 0 
-3.73891e-17 -0.214594 0 
-3.2655e-17 -0.214594 0 
-2.60053e-17 -0.214594 0 
-2.20364e-17 -0.214594 0 
-1.05596e-17 -0.214594 0 
-1.7002e-17 -0.214594 0 
-2.47497e-18 -0.214594 0 
-1.85551e-18 -0.214594 0 
5.58403e-18 -0.214594 0 
1.34766e-19 -0.214594 0 
-1.14872e-17 -0.214594 0 
2.09038e-17 -0.214594 0 
4.83927e-17 -0.214594 0 
9.358e-18 -0.214594 0 
7.85711e-17 -0.214594 0 
-2.49005e-17 -0.214594 0 
-1.42224e-17 -0.214594 0 
-2.66785e-17 -0.214594 0 
-2.04036e-18 -0.214594 0 
-5.24956e-18 -0.214594 0 
4.93655e-18 -0.214594 0 
1.32211e-17 -0.214594 0 
1.1675e-17 -0.214594 0 
1.40084e-18 -0.214594 0 
-1.70232e-17 -0.214594 0 
1.94271e-18 -0.214594 0 
-1.10239e-17 -0.214594 0 
3.27497e-18 -0.214594 0 
7.8782e-17 -0.214594 0 
2.65469e-18 -0.214594 0 
4.90254e-17 -0.214594 0 
-3.82151e-17 -0.214594 0 
-8.77979e-19 -0.214594 0 
-5.95105e-17 -0.214594 0 
-1.07352e-17 -0.214594 0 
2.02502e-17 -0.214594 0 
1.0821e-17 -0.214594 0 
1.58377e-17 -0.214594 0 
2.37445e-18 -0.214594 0 
2.44111e-18 -0.214594 0 
4.04704e-18 -0.214594 0 
2.89604e-18 -0.214594 0 
2.81896e-17 -0.214594 0 
1.83233e-17 -0.214594 0 
4.83376e-17 -0.214594 0 
5.02808e-17 -0.214594 0 
7.67187e-17 -0.214594 0 
-6.25779e-17 -0.214594 0 
-2.19115e-17 -0.214594 0 
-4.74173e-17 -0.214594 0 
-3.4407e-17 -0.214594 0 
6.08907e-18 -0.214594 0 
6.97602e-18 -0.214594 0 
-8.99583e-18 -0.214594 0 
2.46257e-17 -0.214594 0 
1.87148e-17 -0.214594 0 
4.6887e-17 -0.214594 0 
4.98973e-17 -0.214594 0 
6.01392e-17 -0.214594 0 
6.48312e-17 -0.214594 0 
8.30012e-17 -0.214594 0 
6.19745e-17 -0.214594 0 
6.7185e-17 -0.214594 0 
VECTORS body_force double
0 -9.81 0 
0 -9.81 0 
0 -9.81 0 
0 -9.81 0 
0 -9.81 0 
0 -9.81 0 
0 -9.81 0 
0 -9.81 0 
0 -9.81 0 
0 -9.81 0 
0 -9.81 0 
0 -9.81 0 
0 -9.81 0 
0 -9.81 0 
0 -9.81 0 
0 -9.81 0 
0 -9.81 0 
0 -9.81 0 
0 -9.81 0 
0 -9.81 0 
0 -9.81 0 
0 -9.81 0 
0 -9.81 0 
0 -9.81 0 
0 -9.81 0 
0 -9.81 0 
0 -9.81 0 
0 -9.81 0 
0 -9.81 0 
0 -9.81 0 
0 -9.81 0 
0 -9.81 0 
0 -9.81 0 
0 -9.81 0 
0 -9.81 0 
0 -9.81 0 
0 -9.81 0 
0 -9.81 0 
0 -9.81 0 
0 -9.81 0 
0 -9.81 0 
0 -9.81 0 
0 -9.81 0 
0 -9.81 0 
0 -9.81 0 
0 -9.81 0 
0 -9.81 0 
0 -9.81 0 
0 -9.81 0 
0 -9.81 0 
0 -9.81 0 
0 -9.81 0 
0 -9.81 0 
0 -9.81 0 
0 -9.81 0 
0 -9.81 0 
0 -9.81 0 
0 -9.81 0 
0 -9.81 0 
0 -9.81 0 
0 -9.81 0 
0 -9.81 0 
0 -9.81 0 
0 -9.81 0 
TENSORS cauchy_stress double
-5.67467e-14 -2.60144e-14 0
-2.60144e-14 4.04214e-13 0
0 0 1.0424e-13

-1.49722e-13 1.06892e-13 0
1.06892e-13 -7.62631e-13 0
0 0 -2.73706e-13

-1.01992e-12 2.21622e-13 0
2.21622e-13 -1.84319e-12 0
0 0 -8.58932e-13

-1.03523e-12 -2.28408e-14 0
-2.28408e-14 -2.82882e-12 0
0 0 -1.15922e-12

-2.21521e-13 -3.74799e-13 0
-3.74799e-13 -1.44535e-12 0
0 0 -5.00062e-13

1.05222e-12 -2.67246e-13 0
-2.67246e-13 1.59777e-12 0
0 0 7.94998e-13

9.77439e-13 3.39122e-13 0
3.39122e-13 1.35222e-12 0
0 0 6.98898e-13

-6.32332e-13 -8.26612e-13 0
-8.26612e-13 -2.33284e-12 0
0 0 -8.89552e-13

4.3746e-13 -4.17017e-13 0
-4.17017e-13 6.32792e-13 0
0 0 3.21076e-13

2.83641e-13 -3.49763e-13 0
-3.49763e-13 1.36294e-12 0
0 0 4.93973e-13

3.07343e-14 -1.27746e-13 0
-1.27746e-13 -3.16235e-13 0
0 0 -8.56502e-14

2.75634e-13 -5.67566e-13 0
-5.67566e-13 1.34425e-12 0
0 0 4.85967e-13

-9.16843e-13 -3.88088e-13 0
-3.88088e-13 -1.30795e-12 0
0 0 -6.67438e-13

1.86826e-13 -2.33297e-13 0
-2.33297e-13 -2.03588e-13 0
0 0 -5.02855e-15

2.87322e-13 -7.56513e-14 0
-7.56513e-14 1.50177e-12 0
0 0 5.36727e-13

-7.09808e-14 -2.25104e-13 0
-2.25104e-13 -8.05136e-13 0
0 0 -2.62835e-13

-3.53524e-13 -6.25828e-13 0
-6.25828e-13 -2.16455e-12 0
0 0 -7.55423e-13

-8.19354e-14 -7.87024e-13 0
-7.87024e-13 -1.8499e-12 0
0 0 -5.79551e-13

-5.71298e-13 -3.00414e-13 0
-3.00414e-13 -2.67269e-12 0
0 0 -9.73197e-13

-5.79162e-14 -2.74794e-13 0
-2.74794e-13 -1.79386e-12 0
0 0 -5.55532e-13

-4.92103e-13 -1.07248e-12 0
-1.07248e-12 -2.82557e-12 0
0 0 -9.95301e-13

-3.37468e-13 -1.2238e-12 0
-1.2238e-12 -1.75201e-12 0
0 0 -6.26844e-13

9.38243e-13 -9.09043e-13 0
-9.09043e-13 5.11907e-13 0
0 0 4.35045e-13

9.06729e-13 -8.32181e-13 0
-8.32181e-13 1.15111e-12 0
0 0 6.17353e-13

-1.45398e-14 -6.88772e-13 0
-6.88772e-13 -3.82914e-13 0
0 0 -1.19236e-13

-1.13754e-13 -1.35651e-12 0
-1.35651e-12 -2.22605e-13 0
0 0 -1.00908e-13

-1.93083e-13 -8.62302e-13 0
-8.62302e-13 -7.99515e-13 0
0 0 -2.97779e-13

4.48296e-13 -1.38219e-12 0
-1.38219e-12 1.08885e-12 0
0 0 4.61142e-13

-7.52847e-13 -1.10165e-12 0
-1.10165e-12 -9.52487e-13 0
0 0 -5.116e-13

-4.8471e-13 -1.0883e-12 0
-1.0883e-12 1.1526e-12 0
0 0 2.00366e-13

2.58363e-13 -8.58657e-13 0
-8.58657e-13 1.407e-12 0
0 0 4.9961e-13

-2.98961e-13 -7.99943e-13 0
-7.99943e-13 1.58601e-12 0
0 0 3.86115e-13

2.2169e-13 -5.45661e-13 0
-5.45661e-13 -1.57414e-12 0
0 0 -4.05734e-13

2.44719e-13 -1.55748e-13 0
-1.55748e-13 -5.96635e-13 0
0 0 -1.05575e-13

1.37982e-12 -9.96743e-13 0
-9.96743e-13 1.12816e-12 0
0 0 7.52394e-13

-3.47756e-13 -5.61194e-13 0
-5.61194e-13 -1.97908e-12 0
0 0 -6.9805e-13

4.19966e-13 -4.15986e-13 0
-4.15986e-13 6.4207e-13 0
0 0 3.18611e-13

-1.23324e-12 -3.20443e-13 0
-3.20443e-13 -2.62393e-12 0
0 0 -1.15715e-12

1.0051e-13 -6.81384e-13 0
-6.81384e-13 -1.03327e-13 0
0 0 -8.45304e-16

-4.24593e-13 -6.42954e-13 0
-6.42954e-13 -7.3708e-13 0
0 0 -3.48502e-13

1.05232e-14 -9.61466e-13 0
-9.61466e-13 4.8947e-13 0
0 0 1.49998e-13

7.91893e-13 -9.34778e-13 0
-9.34778e-13 1.87661e-12 0
0 0 8.00552e-13

6.81461e-13 -8.99261e-13 0
-8.99261e-13 2.05499e-12 0
0 0 8.20936e-13

-4.95539e-13 -8.94991e-13 0
-8.94991e-13 -1.12739e-12 0
0 0 -4.86879e-13

1.28128e-12 -1.357e-13 0
-1.357e-13 3.74711e-12 0
0 0 1.50852e-12

-1.97527e-12 -1.39436e-13 0
-1.39436e-13 -1.3132e-12 0
0 0 -9.86543e-13

-5.51384e-13 -9.97366e-13 0
-9.97366e-13 -5.29114e-13 0
0 0 -3.24149e-13

-2.25229e-12 -7.64646e-13 0
-7.64646e-13 -1.95959e-12 0
0 0 -1.26356e-12

1.09722e-12 4.7477e-13 0
4.7477e-13 6.48667e-13 0
0 0 5.23767e-13

-2.70678e-13 8.57477e-13 0
8.57477e-13 -5.33864e-13 0
0 0 -2.41363e-13

7.53747e-13 7.92014e-13 0
7.92014e-13 -1.52775e-13 0
0 0 1.80292e-13

6.8849e-13 7.21557e-13 0
7.21557e-13 1.7042e-12 0
0 0 7.17806e-13

-8.04677e-13 3.56902e-13 0
3.56902e-13 -8.63372e-13 0
0 0 -5.00415e-13

-1.40016e-12 6.36593e-13 0
6.36593e-13 -3.13772e-12 0
0 0 -1.36136e-12

-4.727e-14 1.08425e-12 0
1.08425e-12 9.03911e-13 0
0 0 2.56992e-13

-4.10562e-13 1.07464e-12 0
1.07464e-12 -8.28669e-13 0
0 0 -3.71769e-13

-6.96624e-13 9.17026e-13 0
9.17026e-13 -1.64363e-12 0
0 0 -7.02076e-13

1.23641e-13 6.4801e-13 0
6.4801e-13 1.35537e-12 0
0 0 4.43702e-13

-4.81042e-14 8.45009e-13 0
8.45009e-13 -1.30418e-13 0
0 0 -5.35568e-14

-2.85999e-15 5.52507e-13 0
5.52507e-13 1.0602e-12 0
0 0 3.17201e-13

-5.38941e-13 3.70932e-13 0
3.70932e-13 1.14994e-12 0
0 0 1.833e-13

-5.30713e-13 3.00742e-13 0
3.00742e-13 2.88667e-12 0
0 0 7.06786e-13

-1.17105e-12 7.91447e-13 0
7.91447e-13 -3.24974e-13 0
0 0 -4.48807e-13

-1.81334e-12 -7.45785e-13 0
-7.45785e-13 -1.06132e-13 0
0 0 -5.75842e-13

TENSORS velocity_gradient double
6.0824e-16 6.58571e-16 0
-3.33067e-15 3.77476e-15 0
0 0 0

4.36171e-16 6.58571e-16 0
-2.66454e-15 -4.44089e-15 0
0 0 0

6.0824e-16 4.86502e-16 0
-8.88178e-16 -8.88178e-16 0
0 0 0

4.36171e-16 4.86502e-16 0
-1.77636e-15 -8.88178e-15 0
0 0 0

2.73441e-16 5.90995e-16 0
-5.32907e-15 1.77636e-15 0
0 0 0

1.36412e-16 5.90995e-16 0
-3.10862e-15 4.44089e-16 0
0 0 0

2.73441e-16 4.53966e-16 0
4.44089e-16 2.22045e-15 0
0 0 0

1.36412e-16 4.53966e-16 0
-5.32907e-15 1.77636e-15 0
0 0 0

1.94569e-17 5.86138e-16 0
-1.9984e-15 5.10703e-15 0
0 0 0

-4.22523e-17 5.86138e-16 0
1.77636e-15 1.77636e-15 0
0 0 0

1.94569e-17 5.24429e-16 0
-4.44089e-16 3.10862e-15 0
0 0 0

-4.22523e-17 5.24429e-16 0
-1.77636e-15 5.32907e-15 0
0 0 0

-1.96694e-18 1.26694e-15 0
-4.44089e-15 -8.88178e-16 0
0 0 0

3.19011e-16 1.26694e-15 0
-3.9968e-15 -4.44089e-16 0
0 0 0

-1.96694e-18 1.58792e-15 0
8.88178e-16 6.21725e-15 0
0 0 0

3.19011e-16 1.58792e-15 0
-5.32907e-15 -1.77636e-15 0
0 0 0

3.47879e-16 4.73109e-16 0
2.22045e-16 -3.33067e-15 0
0 0 0

4.93161e-16 4.73109e-16 0
-3.10862e-15 -6.66134e-15 0
0 0 0

3.47879e-16 6.18391e-16 0
4.88498e-15 -5.77316e-15 0
0 0 0

4.93161e-16 6.18391e-16 0
3.55271e-15 0 0
0 0 0

5.44322e-16 2.81519e-16 0
-4.66294e-15 2.44249e-15 0
0 0 0

3.36457e-16 2.81519e-16 0
-1.33227e-15 3.9968e-15 0
0 0 0

5.44322e-16 7.36533e-17 0
-1.77636e-15 8.88178e-15 0
0 0 0

3.36457e-16 7.36533e-17 0
0 7.10543e-15 0
0 0 0

1.79388e-16 4.84937e-16 0
8.88178e-16 -8.88178e-16 0
0 0 0

1.62114e-16 4.84937e-16 0
-3.55271e-15 -3.55271e-15 0
0 0 0

1.79388e-16 4.67663e-16 0
4.44089e-16 4.44089e-16 0
0 0 0

1.62114e-16 4.67663e-16 0
-3.55271e-15 -3.55271e-15 0
0 0 0

3.23323e-17 1.5287e-15 0
-6.21725e-15 -2.66454e-15 0
0 0 0

-4.07074e-16 1.5287e-15 0
-8.88178e-16 -8.88178e-16 0
0 0 0

3.23323e-17 1.0893e-15 0
-3.9968e-15 4.88498e-15 0
0 0 0

-4.07074e-16 1.0893e-15 0
-1.77636e-15 3.55271e-15 0
0 0 0

-8.88266e-16 8.71891e-16 0
-8.88178e-16 -6.21725e-15 0
0 0 0

-5.26548e-16 8.71891e-16 0
5.77316e-15 -8.43769e-15 0
0 0 0

-8.88266e-16 1.23361e-15 0
3.55271e-15 -7.10543e-15 0
0 0 0

-5.26548e-16 1.23361e-15 0
5.32907e-15 -3.55271e-15 0
0 0 0

-1.90822e-16 1.01818e-16 0
1.9984e-15 1.9984e-15 0
0 0 0

7.3373e-17 1.01818e-16 0
6.21725e-15 2.66454e-15 0
0 0 0

-1.90822e-16 3.66014e-16 0
4.88498e-15 4.88498e-15 0
0 0 0

7.3373e-17 3.66014e-16 0
0 0 0
0 0 0

3.34893e-16 5.86105e-16 0
-1.55431e-15 -1.55431e-15 0
0 0 0

5.89051e-16 5.86105e-16 0
1.33227e-15 1.33227e-15 0
0 0 0

3.34893e-16 8.40263e-16 0
1.33227e-15 -2.22045e-15 0
0 0 0

5.89051e-16 8.40263e-16 0
3.55271e-15 -3.55271e-15 0
0 0 0

8.23723e-16 9.60119e-16 0
2.22045e-16 5.55112e-15 0
0 0 0

1.00477e-15 9.60119e-16 0
8.88178e-16 2.66454e-15 0
0 0 0

8.23723e-16 1.14117e-15 0
1.77636e-15 3.55271e-15 0
0 0 0

1.00477e-15 1.14117e-15 0
-3.55271e-15 3.55271e-15 0
0 0 0

-1.0167e-16 1.42215e-15 0
4.44089e-16 -1.33227e-15 0
0 0 0

-8.6315e-17 1.42215e-15 0
4.44089e-15 -2.66454e-15 0
0 0 0

-1.0167e-16 1.4375e-15 0
7.54952e-15 -3.10862e-15 0
0 0 0

-8.6315e-17 1.4375e-15 0
3.55271e-15 -3.55271e-15 0
0 0 0

6.04576e-17 7.52331e-16 0
-8.88178e-16 -4.44089e-15 0
0 0 0

5.68896e-16 7.52331e-16 0
-4.44089e-16 -4.44089e-16 0
0 0 0

6.04576e-17 1.26077e-15 0
3.9968e-15 2.22045e-15 0
0 0 0

5.68896e-16 1.26077e-15 0
1.77636e-15 0 0
0 0 0

9.06371e-16 9.0083e-16 0
-8.88178e-16 -8.88178e-16 0
0 0 0

7.73347e-16 9.0083e-16 0
0 0 0
0 0 0

9.06371e-16 7.67805e-16 0
2.22045e-15 -4.88498e-15 0
0 0 0

7.73347e-16 7.67805e-16 0
1.77636e-15 5.32907e-15 0
0 0 0

6.01172e-16 1.09173e-15 0
-2.44249e-15 1.11022e-15 0
0 0 0

3.21255e-16 1.09173e-15 0
1.33227e-15 4.88498e-15 0
0 0 0

6.01172e-16 8.11814e-16 0
5.77316e-15 -1.33227e-15 0
0 0 0

3.21255e-16 8.11814e-16 0
0 -3.55271e-15 0
0 0 0

SCALARS active double 1
LOOKUP_TABLE default
1
1
1
1
1
1
1
1
1
1
1
1
1
1
1
1
1
1
1
1
1
1
1
1
1
1
1
1
1
1
1
1
1
1
1
1
1
1
1
1
1
1
1
1
1
1
1
1
1
1
1
1
1
1
1
1
1
1
1
1
1
1
1
1
SCALARS extent double 1
LOOKUP_TABLE default
0.0125
0.0125
0.0125
0.0125
0.0125
0.0125
0.0125
0.0125
0.0125
0.0125
0.0125
0.0125
0.0125
0.0125
0.0125
0.0125
0.0125
0.0125
0.0125
0.0125
0.0125
0.0125
0.0125
0.0125
0.0125
0.0125
0.0125
0.0125
0.0125
0.0125
0.0125
0.0125
0.0125
0.0125
0.0125
0.0125
0.0125
0.0125
0.0125
0.0125
0.0125
0.0125
0.0125
0.0125
0.0125
0.0125
0.0125
0.0125
0.0125
0.0125
0.0125
0.0125
0.0125
0.0125
0.0125
0.0125
0.0125
0.0125
0.0125
0.0125
0.0125
0.0125
0.0125
0.0125
SCALARS pressure double 1
LOOKUP_TABLE default
-1.50569e-13
3.95353e-13
1.24068e-12
1.67442e-12
7.22312e-13
-1.14833e-12
-1.00952e-12
1.28491e-12
-4.63776e-13
-7.13516e-13
1.23717e-13
-7.01952e-13
9.64078e-13
7.26347e-15
-7.75272e-13
3.79651e-13
1.09117e-12
8.3713e-13
1.40573e-12
8.02435e-13
1.43766e-12
9.05442e-13
-6.28398e-13
-8.91732e-13
1.7223e-13
1.45756e-13
4.30126e-13
-6.66095e-13
7.38978e-13
-2.89417e-13
-7.21659e-13
-5.57721e-13
5.8606e-13
1.52497e-13
-1.08679e-12
1.00829e-12
-4.60215e-13
1.67144e-12
1.22099e-15
5.03391e-13
-2.16664e-13
-1.15635e-12
-1.1858e-12
7.0327e-13
-2.17897e-12
1.42501e-12
4.68216e-13
1.82515e-12
-7.56552e-13
3.48635e-13
-2.60421e-13
-1.03683e-12
7.22821e-13
1.96641e-12
-3.71211e-13
5.37e-13
1.01411e-12
-6.40903e-13
7.73598e-14
-4.58179e-13
-2.64767e-13
-1.02091e-12
6.48276e-13
8.31772e-13
SCALARS density double 1
LOOKUP_TABLE default
1000
1000
1000
1000
1000
1000
1000
1000
1000
1000
1000
1000
1000
1000
1000
1000
1000
1000
1000
1000
1000
1000
1000
1000
1000
1000
1000
1000
1000
1000
1000
1000
1000
1000
1000
1000
1000
1000
1000
1000
1000
1000
1000
1000
1000
1000
1000
1000
1000
1000
1000
1000
1000
1000
1000
1000
1000
1000
1000
1000
1000
1000
1000
1000
