# vtk DataFile Version 3.0
Frame: 35, Time: 0.595
ASCII
DATASET UNSTRUCTURED_GRID
POINTS 64 double
0.15813 0.511478 0 
0.164058 0.487517 0 
0.134143 0.506868 0 
0.140223 0.482906 0 
0.169013 0.462274 0 
0.173673 0.436615 0 
0.144597 0.457881 0 
0.148558 0.432867 0 
0.175478 0.412065 0 
0.180358 0.387056 0 
0.15133 0.407527 0 
0.15666 0.381826 0 
0.18597 0.36306 0 
0.190388 0.336697 0 
0.161406 0.357601 0 
0.167364 0.331449 0 
0.110006 0.503172 0 
0.1144 0.47816 0 
0.0852484 0.49844 0 
0.0902478 0.473847 0 
0.119132 0.453621 0 
0.122736 0.42813 0 
0.0942031 0.448674 0 
0.0987905 0.423828 0 
0.126508 0.403673 0 
0.131674 0.3784 0 
0.102045 0.398206 0 
0.106625 0.373588 0 
0.135616 0.353648 0 
0.140189 0.328387 0 
0.11087 0.347972 0 
0.115977 0.324739 0 
0.0603069 0.494224 0 
0.0652019 0.469203 0 
0.0358769 0.489489 0 
0.0402134 0.464351 0 
0.0691295 0.444183 0 
0.0737867 0.419175 0 
0.0443627 0.440164 0 
0.048767 0.414818 0 
0.078025 0.394747 0 
0.08182 0.370017 0 
0.0533583 0.38998 0 
0.0570252 0.365374 0 
0.0862982 0.345078 0 
0.0920942 0.321097 0 
0.0617427 0.339598 0 
0.0670689 0.315578 0 
0.0107091 0.485385 0 
0.0161435 0.460593 0 
0.986186 0.480975 0 
0.990987 0.455312 0 
0.0194144 0.435525 0 
0.0243756 0.410215 0 
0.993866 0.430317 0 
0.999949 0.40546 0 
0.0285629 0.385667 0 
0.0329636 0.361446 0 
0.00339259 0.381303 0 
0.00741003 0.356655 0 
0.0371209 0.335799 0 
0.0428106 0.310845 0 
0.0110758 0.331763 0 
0.0164003 0.307302 0 
CELLS 64 128
1 0
1 1
1 2
1 3
1 4
1 5
1 6
1 7
1 8
1 9
1 10
1 11
1 12
1 13
1 14
1 15
1 16
1 17
1 18
1 19
1 20
1 21
1 22
1 23
1 24
1 25
1 26
1 27
1 28
1 29
1 30
1 31
1 32
1 33
1 34
1 35
1 36
1 37
1 38
1 39
1 40
1 41
1 42
1 43
1 44
1 45
1 46
1 47
1 48
1 49
1 50
1 51
1 52
1 53
1 54
1 55
1 56
1 57
1 58
1 59
1 60
1 61
1 62
1 63
CELL_TYPES 64
1
1
1
1
1
1
1
1
1
1
1
1
1
1
1
1
1
1
1
1
1
1
1
1
1
1
1
1
1
1
1
1
1
1
1
1
1
1
1
1
1
1
1
1
1
1
1
1
1
1
1
1
1
1
1
1
1
1
1
1
1
1
1
1
POINT_DATA 64
VECTORS displacement double
-0.05437 0.298978 0 
-0.0484415 0.250017 0 
-0.103357 0.294368 0 
-0.0972772 0.245406 0 
-0.0434868 0.199774 0 
-0.0388268 0.149115 0 
-0.0929034 0.195381 0 
-0.0889419 0.145367 0 
-0.0370219 0.0995647 0 
-0.0321425 0.0495562 0 
-0.0861698 0.0950275 0 
-0.0808404 0.0443256 0 
-0.0265296 0.000560259 0 
-0.0221122 -0.0508025 0 
-0.0760943 -0.00489869 0 
-0.0701361 -0.0560508 0 
-0.152494 0.290672 0 
-0.1481 0.24066 0 
-0.202252 0.28594 0 
-0.197252 0.236347 0 
-0.143368 0.191121 0 
-0.139764 0.14063 0 
-0.193297 0.186174 0 
-0.188709 0.136328 0 
-0.135992 0.0911732 0 
-0.130826 0.0409003 0 
-0.185455 0.0857057 0 
-0.180875 0.0360876 0 
-0.126884 -0.00885178 0 
-0.122311 -0.0591127 0 
-0.17663 -0.0145283 0 
-0.171523 -0.0627609 0 
-0.252193 0.281724 0 
-0.247298 0.231703 0 
-0.301623 0.276989 0 
-0.297287 0.226851 0 
-0.24337 0.181683 0 
-0.238713 0.131675 0 
-0.293137 0.177664 0 
-0.288733 0.127318 0 
-0.234475 0.0822472 0 
-0.23068 0.0325169 0 
-0.284142 0.0774802 0 
-0.280475 0.0278743 0 
-0.226202 -0.0174219 0 
-0.220406 -0.0664027 0 
-0.275757 -0.0229019 0 
-0.270431 -0.0719222 0 
-0.351791 0.272885 0 
-0.346356 0.223093 0 
-0.401314 0.268475 0 
-0.396513 0.217812 0 
-0.343086 0.173025 0 
-0.338124 0.122715 0 
-0.393634 0.167817 0 
-0.387551 0.11796 0 
-0.333937 0.0731671 0 
-0.329536 0.0239458 0 
-0.384107 0.0688029 0 
-0.38009 0.0191549 0 
-0.325379 -0.0267013 0 
-0.319689 -0.0766545 0 
-0.376424 -0.0307367 0 
-0.3711 -0.0801977 0 
VECTORS velocity double
-0.313647 -0.0611237 0 
0.0868884 -0.101631 0 
-0.25413 -0.401309 0 
0.0635682 -0.393306 0 
-0.0798924 0.304408 0 
0.301914 -0.403248 0 
0.14246 -0.472122 0 
0.186585 -0.32762 0 
0.361496 0.252008 0 
0.459802 -0.151014 0 
0.461612 -0.114093 0 
0.558624 -0.309445 0 
0.328462 0.0684098 0 
0.886388 0.0723978 0 
0.499201 -0.262138 0 
1.04353 -0.43716 0 
-0.122295 -0.483758 0 
0.406139 -0.368634 0 
-0.391894 -0.561546 0 
0.192414 -0.585885 0 
0.129988 -0.31907 0 
0.24001 -0.489489 0 
0.0324288 -0.517562 0 
0.212078 -0.557875 0 
0.309807 -0.42772 0 
0.436577 -0.889346 0 
0.444043 -0.103555 0 
0.335397 -0.504269 0 
0.668526 -0.226916 0 
0.859592 -0.153427 0 
0.640215 -0.342164 0 
0.801821 -0.296784 0 
-0.0175876 -0.506702 0 
0.356849 -0.621791 0 
-0.0701969 -1.07534 0 
0.205876 -0.742098 0 
0.290014 -0.796492 0 
0.382156 -0.932572 0 
0.0340045 -0.600411 0 
0.317643 -0.636216 0 
0.493081 -0.532889 0 
0.511052 -0.872632 0 
0.528746 -0.736397 0 
0.514174 -1.08734 0 
0.980708 -0.778823 0 
1.07134 -0.709499 0 
0.739011 -0.778308 0 
0.66309 -0.558042 0 
-0.0945609 -0.743615 0 
0.406874 -0.851667 0 
0.000455085 -1.23572 0 
0.328531 -1.0433 0 
0.0714968 -0.741615 0 
0.44346 -0.754602 0 
0.222549 -1.32001 0 
0.468507 -1.19022 0 
0.633688 -0.659621 0 
0.574246 -0.740038 0 
0.529719 -0.899247 0 
0.587635 -1.08693 0 
0.77253 -0.397861 0 
0.803401 -0.751274 0 
0.793389 -0.806287 0 
0.685481 -0.980733 0 
SCALARS mass double 1
LOOKUP_TABLE default
0.625
0.625
0.625
0.625
0.625
0.625
0.625
0.625
0.625
0.625
0.625
0.625
0.625
0.625
0.625
0.625
0.625
0.625
0.625
0.625
0.625
0.625
0.625
0.625
0.625
0.625
0.625
0.625
0.625
0.625
0.625
0.625
0.625
0.625
0.625
0.625
0.625
0.625
0.625
0.625
0.625
0.625
0.625
0.625
0.625
0.625
0.625
0.625
0.625
0.625
0.625
0.625
0.625
0.625
0.625
0.625
0.625
0.625
0.625
0.625
0.625
0.625
0.625
0.625
SCALARS volume double 1
LOOKUP_TABLE default
0.000625118
0.000626194
0.000613861
0.000615893
0.000629576
0.00062246
0.000648222
0.000604616
0.000631077
0.000608865
0.000645715
0.000622203
0.00062609
0.000618383
0.000642297
0.000636809
0.000634372
0.000603417
0.00061865
0.000630264
0.000645919
0.000636567
0.000635611
0.00062021
0.000622789
0.000618775
0.000610467
0.000642399
0.000622952
0.000621416
0.000634246
0.000613441
0.000622786
0.000634627
0.000625754
0.000618282
0.000608962
0.00064306
0.000632436
0.000616859
0.000633707
0.000613586
0.000642553
0.000618686
0.0006281
0.00063987
0.000639717
0.000602282
0.000624459
0.000618026
0.000624104
0.000626585
0.000636813
0.000616307
0.000624976
0.000626654
0.000628892
0.000624254
0.000623441
0.000626432
0.000623341
0.000626953
0.00063711
0.000618691
VECTORS momentum double
-0.19603 -0.0382023 0 
0.0543053 -0.0635194 0 
-0.158831 -0.250818 0 
0.0397301 -0.245816 0 
-0.0499327 0.190255 0 
0.188696 -0.25203 0 
0.0890378 -0.295076 0 
0.116616 -0.204763 0 
0.225935 0.157505 0 
0.287376 -0.0943838 0 
0.288507 -0.0713078 0 
0.34914 -0.193403 0 
0.205289 0.0427561 0 
0.553993 0.0452486 0 
0.312 -0.163836 0 
0.652209 -0.273225 0 
-0.0764343 -0.302349 0 
0.253837 -0.230396 0 
-0.244934 -0.350967 0 
0.120259 -0.366178 0 
0.0812424 -0.199419 0 
0.150006 -0.305931 0 
0.020268 -0.323476 0 
0.132549 -0.348672 0 
0.193629 -0.267325 0 
0.272861 -0.555841 0 
0.277527 -0.0647218 0 
0.209623 -0.315168 0 
0.417829 -0.141822 0 
0.537245 -0.0958919 0 
0.400134 -0.213853 0 
0.501138 -0.18549 0 
-0.0109923 -0.316689 0 
0.22303 -0.388619 0 
-0.0438731 -0.672091 0 
0.128672 -0.463811 0 
0.181259 -0.497808 0 
0.238848 -0.582858 0 
0.0212528 -0.375257 0 
0.198527 -0.397635 0 
0.308176 -0.333055 0 
0.319407 -0.545395 0 
0.330466 -0.460248 0 
0.321359 -0.679585 0 
0.612942 -0.486765 0 
0.669585 -0.443437 0 
0.461882 -0.486442 0 
0.414431 -0.348776 0 
-0.0591006 -0.464759 0 
0.254296 -0.532292 0 
0.000284428 -0.772328 0 
0.205332 -0.652063 0 
0.0446855 -0.463509 0 
0.277162 -0.471626 0 
0.139093 -0.825005 0 
0.292817 -0.74389 0 
0.396055 -0.412263 0 
0.358904 -0.462523 0 
0.331074 -0.562029 0 
0.367272 -0.679331 0 
0.482831 -0.248663 0 
0.502126 -0.469546 0 
0.495868 -0.50393 0 
0.428426 -0.612958 0 
VECTORS body_force double
0 -9.81 0 
0 -9.81 0 
0 -9.81 0 
0 -9.81 0 
0 -9.81 0 
0 -9.81 0 
0 -9.81 0 
0 -9.81 0 
0 -9.81 0 
0 -9.81 0 
0 -9.81 0 
0 -9.81 0 
0 -9.81 0 
0 -9.81 0 
0 -9.81 0 
0 -9.81 0 
0 -9.81 0 
0 -9.81 0 
0 -9.81 0 
0 -9.81 0 
0 -9.81 0 
0 -9.81 0 
0 -9.81 0 
0 -9.81 0 
0 -9.81 0 
0 -9.81 0 
0 -9.81 0 
0 -9.81 0 
0 -9.81 0 
0 -9.81 0 
0 -9.81 0 
0 -9.81 0 
0 -9.81 0 
0 -9.81 0 
0 -9.81 0 
0 -9.81 0 
0 -9.81 0 
0 -9.81 0 
0 -9.81 0 
0 -9.81 0 
0 -9.81 0 
0 -9.81 0 
0 -9.81 0 
0 -9.81 0 
0 -9.81 0 
0 -9.81 0 
0 -9.81 0 
0 -9.81 0 
0 -9.81 0 
0 -9.81 0 
0 -9.81 0 
0 -9.81 0 
0 -9.81 0 
0 -9.81 0 
0 -9.81 0 
0 -9.81 0 
0 -9.81 0 
0 -9.81 0 
0 -9.81 0 
0 -9.81 0 
0 -9.81 0 
0 -9.81 0 
0 -9.81 0 
0 -9.81 0 
TENSORS cauchy_stress double
-102.589 -22.0645 0
-22.0645 138.841 0
0 0 0

277.105 -517.042 0
-517.042 90.0621 0
0 0 0

-3536.98 -40.802 0
-40.802 78.8173 0
0 0 0

1485.9 -452.838 0
-452.838 -4308.62 0
0 0 0

149.757 1133.91 0
1133.91 1252.97 0
0 0 0

1975.52 1128.96 0
1128.96 -2758.52 0
0 0 0

1334.84 1211.23 0
1211.23 5680.72 0
0 0 0

-1755.58 2544.27 0
2544.27 -4620.85 0
0 0 0

-74.5959 -1838.49 0
-1838.49 1935.53 0
0 0 0

-3171.73 2571.24 0
2571.24 -1858.08 0
0 0 0

1956.6 -3174.01 0
-3174.01 4313.88 0
0 0 0

-1593.79 930.771 0
930.771 731.112 0
0 0 0

-145.147 -595.609 0
-595.609 480.145 0
0 0 0

-1852.95 149.126 0
149.126 -193.879 0
0 0 0

3292.82 -1080.47 0
-1080.47 1957.02 0
0 0 0

1684.38 -459.455 0
-459.455 1915.2 0
0 0 0

2110.09 1026.76 0
1026.76 752.097 0
0 0 0

-3544.69 -2676.38 0
-2676.38 -3213.54 0
0 0 0

-1425.42 -927.65 0
-927.65 -538.264 0
0 0 0

1990.21 -604.526 0
-604.526 -377.249 0
0 0 0

3337.31 79.7025 0
79.7025 2993.8 0
0 0 0

1815.92 3093.37 0
3093.37 1710.68 0
0 0 0

1896.73 1690.08 0
1690.08 1340.82 0
0 0 0

-2863.16 -40.5559 0
-40.5559 1383.48 0
0 0 0

-2306.43 1399.93 0
1399.93 1625.07 0
0 0 0

-1032.94 -913.842 0
-913.842 -891.965 0
0 0 0

-2221.4 -1633.04 0
-1633.04 -2303.07 0
0 0 0

2005.75 651.67 0
651.67 3274.5 0
0 0 0

351.576 207.393 0
207.393 -982.825 0
0 0 0

-541.662 124.263 0
124.263 -564.372 0
0 0 0

1527.49 -2238.01 0
-2238.01 1296.67 0
0 0 0

690.209 2313.39 0
2313.39 -4280.23 0
0 0 0

-1153.59 803.863 0
803.863 471.17 0
0 0 0

1602.91 -107.397 0
-107.397 1336.76 0
0 0 0

119.966 -180.288 0
-180.288 111.847 0
0 0 0

69.1143 -726.437 0
-726.437 -2147.44 0
0 0 0

-4338.72 1589.9 0
1589.9 -660.398 0
0 0 0

5199.99 -1160.19 0
-1160.19 278.21 0
0 0 0

1143.67 987.475 0
987.475 1130.83 0
0 0 0

-1570.3 -248.186 0
-248.186 -951.061 0
0 0 0

-730.904 3118.65 0
3118.65 3391.51 0
0 0 0

1042.95 -382.721 0
-382.721 -4587.54 0
0 0 0

1856.99 -200.3 0
-200.3 3469.5 0
0 0 0

-1466.3 833.654 0
833.654 -486.309 0
0 0 0

-135.738 -319.821 0
-319.821 1087.16 0
0 0 0

830.222 -1230.44 0
-1230.44 3691.57 0
0 0 0

246.432 -1082.56 0
-1082.56 4229.32 0
0 0 0

1611.8 1268.24 0
1268.24 -8732.29 0
0 0 0

-137.127 699.368 0
699.368 -29.2587 0
0 0 0

-2728.85 -80.2835 0
-80.2835 571.006 0
0 0 0

-369.093 107.21 0
107.21 93.1439 0
0 0 0

657.578 -41.1588 0
-41.1588 -170.655 0
0 0 0

2544.68 1329.97 0
1329.97 1056.1 0
0 0 0

-1768.33 75.6378 0
75.6378 -925.253 0
0 0 0

-466.028 -281.061 0
-281.061 458.581 0
0 0 0

254.823 377.676 0
377.676 253.551 0
0 0 0

696.733 -42.3406 0
-42.3406 497.22 0
0 0 0

-431.481 2019.53 0
2019.53 201.804 0
0 0 0

618.079 -637.344 0
-637.344 -1098.44 0
0 0 0

-603.959 -23.5778 0
-23.5778 1044.18 0
0 0 0

-367.96 351.82 0
351.82 -143.161 0
0 0 0

-143.377 -873.994 0
-873.994 743.443 0
0 0 0

1895.38 -48.0761 0
-48.0761 1795.19 0
0 0 0

557.418 851.915 0
851.915 -2508.54 0
0 0 0

TENSORS velocity_gradient double
-0.534456 -4.3461 0
4.28858 0.486914 0
0 0 0

-0.399338 -4.58936 0
4.49256 0.524984 0
0 0 0

-0.615212 -4.64723 0
4.98452 0.423185 0
0 0 0

-0.672708 -4.41112 0
5.05353 0.448403 0
0 0 0

-0.170899 -4.63315 0
4.1233 0.595761 0
0 0 0

-0.0881673 -4.98453 0
4.20179 -0.00704491 0
0 0 0

-0.518925 -4.43468 0
5.30761 0.402146 0
0 0 0

-0.0906181 -4.93523 0
4.81909 0.325726 0
0 0 0

-0.143741 -4.98072 0
4.68589 -0.0402146 0
0 0 0

-0.164658 -4.83112 0
4.77029 0.308526 0
0 0 0

0.137093 -4.96464 0
4.69694 0.327807 0
0 0 0

-0.160274 -4.82024 0
4.7088 0.020071 0
0 0 0

-0.152011 -4.83401 0
4.47673 0.375736 0
0 0 0

0.0981302 -5.72211 0
4.25163 0.392145 0
0 0 0

-0.149195 -4.82106 0
4.41134 0.0750674 0
0 0 0

0.193068 -5.29711 0
4.22667 0.280393 0
0 0 0

-0.653801 -4.94852 0
4.95407 0.107834 0
0 0 0

-0.648735 -4.27666 0
5.11434 0.789461 0
0 0 0

-0.759213 -4.65822 0
4.37814 0.728737 0
0 0 0

-0.552866 -4.09595 0
4.09792 0.762854 0
0 0 0

-0.49985 -4.29668 0
5.4001 0.563799 0
0 0 0

0.0255152 -4.36335 0
5.03462 -0.130862 0
0 0 0

-0.392438 -4.0276 0
3.74883 0.117287 0
0 0 0

-0.458541 -3.9512 0
4.49949 -0.458395 0
0 0 0

0.558583 -4.66743 0
4.56334 0.0472511 0
0 0 0

-0.0423536 -5.49597 0
4.93943 0.397829 0
0 0 0

-0.0851825 -5.42986 0
4.62722 0.426836 0
0 0 0

-0.214252 -6.39578 0
5.0434 0.999469 0
0 0 0

-0.849829 -5.18042 0
5.48405 0.224421 0
0 0 0

-0.196716 -4.55095 0
5.1405 -0.0453094 0
0 0 0

-0.834659 -4.43667 0
5.48666 -0.108914 0
0 0 0

-0.0500514 -3.54305 0
5.05875 -0.607122 0
0 0 0

-0.761067 -3.9591 0
4.49086 0.349392 0
0 0 0

-0.503896 -3.82549 0
3.99836 0.212974 0
0 0 0

-0.153587 -3.74295 0
5.02066 -0.015737 0
0 0 0

-0.295783 -3.71897 0
5.20168 -0.046266 0
0 0 0

-0.413274 -4.40335 0
3.72235 0.2032 0
0 0 0

-0.912186 -4.36023 0
4.34327 0.0767543 0
0 0 0

-0.342649 -4.81165 0
5.0892 0.556683 0
0 0 0

-0.50993 -4.77753 0
4.55773 0.544278 0
0 0 0

-1.1121 -5.63117 0
4.73715 0.649328 0
0 0 0

-0.286133 -5.9608 0
4.33126 0.81516 0
0 0 0

-0.71705 -4.98888 0
4.46528 0.257673 0
0 0 0

-0.12645 -5.08638 0
4.25038 0.372305 0
0 0 0

0.570816 -3.02922 0
3.99119 -0.64727 0
0 0 0

1.32228 -2.64063 0
4.02081 -0.941856 0
0 0 0

0.742362 -1.69853 0
3.98287 -0.880229 0
0 0 0

1.49103 -1.86273 0
4.03185 -0.89097 0
0 0 0

-0.176066 -3.88529 0
5.04928 0.165467 0
0 0 0

-0.316306 -3.85512 0
5.2278 0.127051 0
0 0 0

-0.156748 -3.94926 0
4.58037 0.0155283 0
0 0 0

-0.163887 -3.94796 0
4.16227 0.0920605 0
0 0 0

-0.317428 -4.69914 0
5.03773 0.0642095 0
0 0 0

-0.198623 -4.72185 0
4.52978 0.161329 0
0 0 0

0.347715 -4.43252 0
4.19622 -0.272398 0
0 0 0

0.472488 -4.53066 0
4.40546 -0.236974 0
0 0 0

0.110408 -4.44249 0
3.6554 -0.802306 0
0 0 0

0.57216 -4.52419 0
2.48377 -0.59502 0
0 0 0

0.447643 -4.00171 0
3.67891 -1.94922 0
0 0 0

0.662336 -4.03756 0
2.25496 -1.82979 0
0 0 0

0.627405 -1.53507 0
2.22136 -0.524887 0
0 0 0

0.296306 -1.46019 0
2.834 -0.663435 0
0 0 0

0.574695 -1.88014 0
2.31889 0.113598 0
0 0 0

0.250339 -1.8102 0
2.91905 -0.0158128 0
0 0 0

SCALARS active double 1
LOOKUP_TABLE default
1
1
1
1
1
1
1
1
1
1
1
1
1
1
1
1
1
1
1
1
1
1
1
1
1
1
1
1
1
1
1
1
1
1
1
1
1
1
1
1
1
1
1
1
1
1
1
1
1
1
1
1
1
1
1
1
1
1
1
1
1
1
1
1
SCALARS extent double 1
LOOKUP_TABLE default
0.0125
0.0125
0.0125
0.0125
0.0125
0.0125
0.0125
0.0125
0.0125
0.0125
0.0125
0.0125
0.0125
0.0125
0.0125
0.0125
0.0125
0.0125
0.0125
0.0125
0.0125
0.0125
0.0125
0.0125
0.0125
0.0125
0.0125
0.0125
0.0125
0.0125
0.0125
0.0125
0.0125
0.0125
0.0125
0.0125
0.0125
0.0125
0.0125
0.0125
0.0125
0.0125
0.0125
0.0125
0.0125
0.0125
0.0125
0.0125
0.0125
0.0125
0.0125
0.0125
0.0125
0.0125
0.0125
0.0125
0.0125
0.0125
0.0125
0.0125
0.0125
0.0125
0.0125
0.0125
SCALARS pressure double 1
LOOKUP_TABLE default
-18.126
-183.583
1729.08
1411.36
-701.364
391.5
-3507.78
3188.22
-930.467
2514.9
-3135.24
431.341
-167.499
1023.41
-2624.92
-1799.79
-1431.09
3379.12
981.844
-806.483
-3165.56
-1763.3
-1618.77
739.836
340.68
962.452
2262.24
-2640.13
315.625
553.017
-1412.08
1795.01
341.209
-1469.83
-115.906
1039.16
2499.56
-2739.1
-1137.25
1260.68
-1330.3
1772.29
-2663.25
976.303
-475.711
-2260.89
-2237.88
3560.25
83.1928
1078.92
137.974
-243.461
-1800.39
1346.79
3.72317
-254.187
-596.977
114.839
240.179
-220.112
255.561
-300.033
-1845.28
975.559
SCALARS density double 1
LOOKUP_TABLE default
999.812
998.093
1018.15
1014.79
992.732
1004.08
964.177
1033.71
990.37
1026.5
967.919
1004.5
998.26
1010.7
973.07
981.456
985.227
1035.77
1010.26
991.648
967.614
981.829
983.306
1007.72
1003.55
1010.06
1023.81
972.916
1003.29
1005.77
985.422
1018.84
1003.55
984.83
998.795
1010.87
1026.34
971.915
988.242
1013.2
986.26
1018.6
972.682
1010.21
995.065
976.761
976.995
1037.72
1000.87
1011.28
1001.44
997.471
981.45
1014.11
1000.04
997.36
993.811
1001.2
1002.5
997.713
1002.66
996.885
980.992
1010.2
