# vtk DataFile Version 3.0
Frame: 53, Time: 0.901
ASCII
DATASET UNSTRUCTURED_GRID
POINTS 64 double
0.947108 0.320963 0 
0.971808 0.317796 0 
0.943234 0.295554 0 
0.967886 0.293016 0 
0.996548 0.314702 0 
0.0222089 0.31317 0 
0.992559 0.288669 0 
0.0176377 0.287126 0 
0.0454429 0.308371 0 
0.0700312 0.304001 0 
0.0432074 0.282888 0 
0.0677307 0.27923 0 
0.0931796 0.301841 0 
0.120581 0.296993 0 
0.0901546 0.275155 0 
0.117139 0.272201 0 
0.939513 0.271361 0 
0.964374 0.266766 0 
0.936056 0.244509 0 
0.959657 0.241145 0 
0.988448 0.263047 0 
0.012816 0.260755 0 
0.983297 0.236795 0 
0.00746848 0.23553 0 
0.0363523 0.257408 0 
0.0620377 0.254417 0 
0.0315331 0.231845 0 
0.0574165 0.228968 0 
0.0851246 0.248962 0 
0.112058 0.244183 0 
0.0818344 0.223466 0 
0.105435 0.220317 0 
0.930154 0.217296 0 
0.953469 0.214549 0 
0.926925 0.191412 0 
0.950797 0.188256 0 
0.976892 0.210258 0 
0.00253371 0.20977 0 
0.974525 0.185915 0 
0.000150112 0.184702 0 
0.0268187 0.208747 0 
0.0518544 0.204621 0 
0.0247366 0.184042 0 
0.0490338 0.178794 0 
0.0764217 0.199865 0 
0.0995146 0.19678 0 
0.0739971 0.173898 0 
0.0986302 0.170967 0 
0.923208 0.165122 0 
0.947329 0.162631 0 
0.918478 0.139889 0 
0.944488 0.136248 0 
0.972332 0.159986 0 
0.99743 0.159826 0 
0.969958 0.133282 0 
0.994121 0.133608 0 
0.0211574 0.157332 0 
0.0442665 0.155251 0 
0.0170521 0.130626 0 
0.0409612 0.128153 0 
0.0693921 0.149626 0 
0.095779 0.147248 0 
0.0642172 0.125451 0 
0.0897111 0.122427 0 
CELLS 64 128
1 0
1 1
1 2
1 3
1 4
1 5
1 6
1 7
1 8
1 9
1 10
1 11
1 12
1 13
1 14
1 15
1 16
1 17
1 18
1 19
1 20
1 21
1 22
1 23
1 24
1 25
1 26
1 27
1 28
1 29
1 30
1 31
1 32
1 33
1 34
1 35
1 36
1 37
1 38
1 39
1 40
1 41
1 42
1 43
1 44
1 45
1 46
1 47
1 48
1 49
1 50
1 51
1 52
1 53
1 54
1 55
1 56
1 57
1 58
1 59
1 60
1 61
1 62
1 63
CELL_TYPES 64
1
1
1
1
1
1
1
1
1
1
1
1
1
1
1
1
1
1
1
1
1
1
1
1
1
1
1
1
1
1
1
1
1
1
1
1
1
1
1
1
1
1
1
1
1
1
1
1
1
1
1
1
1
1
1
1
1
1
1
1
1
1
1
1
POINT_DATA 64
VECTORS displacement double
-0.265392 0.108463 0 
-0.240692 0.0802963 0 
-0.294266 0.0830543 0 
-0.269614 0.0555159 0 
-0.215952 0.052202 0 
-0.190291 0.0256695 0 
-0.244941 0.0261686 0 
-0.219862 -0.000374091 0 
-0.167057 -0.00412866 0 
-0.142469 -0.0334995 0 
-0.194293 -0.0296118 0 
-0.169769 -0.05827 0 
-0.11932 -0.0606587 0 
-0.0919192 -0.0905075 0 
-0.147345 -0.0873446 0 
-0.120361 -0.115299 0 
-0.322987 0.0588606 0 
-0.298126 0.029266 0 
-0.351444 0.0320091 0 
-0.327843 0.00364486 0 
-0.274052 0.000547244 0 
-0.249684 -0.026745 0 
-0.304203 -0.0257049 0 
-0.280032 -0.0519698 0 
-0.226148 -0.0550918 0 
-0.200462 -0.0830828 0 
-0.255967 -0.0806547 0 
-0.230083 -0.108532 0 
-0.177375 -0.113538 0 
-0.150442 -0.143317 0 
-0.205666 -0.139034 0 
-0.182065 -0.167183 0 
-0.382346 0.0047961 0 
-0.359031 -0.0229508 0 
-0.410575 -0.0210883 0 
-0.386703 -0.0492445 0 
-0.335608 -0.052242 0 
-0.309966 -0.0777302 0 
-0.362975 -0.0765847 0 
-0.33735 -0.102798 0 
-0.285681 -0.103753 0 
-0.260646 -0.132879 0 
-0.312763 -0.128458 0 
-0.288466 -0.158706 0 
-0.236078 -0.162635 0 
-0.212985 -0.19072 0 
-0.263503 -0.188602 0 
-0.23887 -0.216533 0 
-0.439292 -0.0473782 0 
-0.415171 -0.0748689 0 
-0.469022 -0.0726105 0 
-0.443012 -0.101252 0 
-0.390168 -0.102514 0 
-0.36507 -0.127674 0 
-0.417542 -0.129218 0 
-0.393379 -0.153892 0 
-0.341343 -0.155168 0 
-0.318233 -0.182249 0 
-0.370448 -0.181874 0 
-0.346539 -0.209347 0 
-0.293108 -0.212874 0 
-0.266721 -0.240252 0 
-0.323283 -0.237049 0 
-0.297789 -0.265073 0 
VECTORS velocity double
-1.86202 1.17573 0 
-1.92577 1.18983 0 
-1.61065 1.07039 0 
-1.65912 1.24064 0 
-1.79849 1.02722 0 
-1.84742 0.115961 0 
-1.65155 1.12347 0 
-2.03558 1.46897 0 
-2.00909 1.14853 0 
-1.50866 0.855696 0 
-1.73381 1.84222 0 
-1.42742 1.91778 0 
-1.86936 0.812429 0 
-1.31633 1.22011 0 
-1.73691 1.21335 0 
-1.31243 1.45191 0 
-1.26967 1.27117 0 
-1.31171 1.31493 0 
-1.18071 0.666978 0 
-1.54493 0.892219 0 
-1.38608 1.13675 0 
-1.84175 1.10365 0 
-1.10679 0.503781 0 
-1.38278 0.316292 0 
-2.09685 1.03249 0 
-1.793 0.994493 0 
-1.81291 0.768717 0 
-1.79654 0.885908 0 
-2.06218 1.18184 0 
-1.86493 1.07606 0 
-2.09333 1.08031 0 
-1.58334 1.51115 0 
-1.0932 0.725911 0 
-1.57567 1.26951 0 
-1.1119 0.643543 0 
-1.69078 1.11041 0 
-1.23009 0.820671 0 
-1.35219 0.56886 0 
-1.69209 0.975571 0 
-1.43941 0.76911 0 
-1.89591 1.02379 0 
-1.5333 1.23496 0 
-1.61256 0.673279 0 
-1.23973 0.894586 0 
-1.50439 1.2552 0 
-1.41857 2.21048 0 
-1.4237 0.884704 0 
-1.34856 1.81433 0 
-1.36008 0.660947 0 
-1.21184 1.06086 0 
-0.950263 0.297076 0 
-0.817558 1.03698 0 
-1.12908 1.14438 0 
-0.817527 1.09196 0 
-0.688447 0.9336 0 
-1.16687 1.11886 0 
-0.978263 0.722219 0 
-0.989129 1.02691 0 
-1.20459 0.894754 0 
-0.690927 0.948317 0 
-1.33387 1.40046 0 
-1.34286 1.83468 0 
-1.21771 0.883125 0 
-0.776218 1.70897 0 
SCALARS mass double 1
LOOKUP_TABLE default
0.625
0.625
0.625
0.625
0.625
0.625
0.625
0.625
0.625
0.625
0.625
0.625
0.625
0.625
0.625
0.625
0.625
0.625
0.625
0.625
0.625
0.625
0.625
0.625
0.625
0.625
0.625
0.625
0.625
0.625
0.625
0.625
0.625
0.625
0.625
0.625
0.625
0.625
0.625
0.625
0.625
0.625
0.625
0.625
0.625
0.625
0.625
0.625
0.625
0.625
0.625
0.625
0.625
0.625
0.625
0.625
0.625
0.625
0.625
0.625
0.625
0.625
0.625
0.625
SCALARS volume double 1
LOOKUP_TABLE default
0.000620389
0.00061477
0.000633006
0.000625852
0.000614813
0.000584364
0.000630057
0.000619728
0.00061057
0.000606838
0.000652663
0.000574159
0.000625193
0.000635398
0.000664322
0.000614214
0.000633585
0.000621365
0.000640282
0.000618724
0.000643551
0.000617582
0.000659676
0.000614421
0.000646914
0.000587743
0.000616061
0.000671097
0.000609032
0.000645964
0.000616858
0.000642435
0.000639097
0.00061516
0.000613651
0.000622703
0.00061721
0.000623449
0.000610391
0.000624959
0.000591216
0.000619957
0.000651056
0.000638398
0.000585783
0.000606213
0.000635659
0.000623705
0.000643823
0.000641842
0.000644495
0.000609989
0.000623813
0.000603901
0.000638028
0.00058042
0.000628636
0.000602201
0.000617509
0.000636409
0.000611726
0.00062997
0.000613542
0.000630011
VECTORS momentum double
-1.16376 0.734832 0 
-1.20361 0.743641 0 
-1.00666 0.668993 0 
-1.03695 0.775401 0 
-1.12405 0.64201 0 
-1.15464 0.0724758 0 
-1.03222 0.702171 0 
-1.27224 0.918106 0 
-1.25568 0.717834 0 
-0.942913 0.53481 0 
-1.08363 1.15139 0 
-0.892139 1.19861 0 
-1.16835 0.507768 0 
-0.822708 0.762569 0 
-1.08557 0.758344 0 
-0.82027 0.907444 0 
-0.793546 0.794481 0 
-0.819821 0.821829 0 
-0.737944 0.416861 0 
-0.965579 0.557637 0 
-0.866299 0.710469 0 
-1.1511 0.689779 0 
-0.691743 0.314863 0 
-0.864238 0.197683 0 
-1.31053 0.645306 0 
-1.12062 0.621558 0 
-1.13307 0.480448 0 
-1.12284 0.553692 0 
-1.28886 0.738653 0 
-1.16558 0.672536 0 
-1.30833 0.675193 0 
-0.989591 0.944468 0 
-0.683252 0.453694 0 
-0.984792 0.793444 0 
-0.694937 0.402215 0 
-1.05674 0.694007 0 
-0.768808 0.51292 0 
-0.845117 0.355538 0 
-1.05756 0.609732 0 
-0.89963 0.480694 0 
-1.18494 0.639868 0 
-0.958311 0.771853 0 
-1.00785 0.420799 0 
-0.774833 0.559116 0 
-0.940241 0.784502 0 
-0.886606 1.38155 0 
-0.889811 0.55294 0 
-0.842847 1.13395 0 
-0.850048 0.413092 0 
-0.757401 0.663034 0 
-0.593914 0.185672 0 
-0.510974 0.648115 0 
-0.705676 0.715237 0 
-0.510954 0.682475 0 
-0.43028 0.5835 0 
-0.729295 0.699289 0 
-0.611415 0.451387 0 
-0.618206 0.641822 0 
-0.752866 0.559221 0 
-0.431829 0.592698 0 
-0.83367 0.87529 0 
-0.839289 1.14668 0 
-0.761068 0.551953 0 
-0.485136 1.06811 0 
VECTORS body_force double
0 -9.81 0 
0 -9.81 0 
0 -9.81 0 
0 -9.81 0 
0 -9.81 0 
0 -9.81 0 
0 -9.81 0 
0 -9.81 0 
0 -9.81 0 
0 -9.81 0 
0 -9.81 0 
0 -9.81 0 
0 -9.81 0 
0 -9.81 0 
0 -9.81 0 
0 -9.81 0 
0 -9.81 0 
0 -9.81 0 
0 -9.81 0 
0 -9.81 0 
0 -9.81 0 
0 -9.81 0 
0 -9.81 0 
0 -9.81 0 
0 -9.81 0 
0 -9.81 0 
0 -9.81 0 
0 -9.81 0 
0 -9.81 0 
0 -9.81 0 
0 -9.81 0 
0 -9.81 0 
0 -9.81 0 
0 -9.81 0 
0 -9.81 0 
0 -9.81 0 
0 -9.81 0 
0 -9.81 0 
0 -9.81 0 
0 -9.81 0 
0 -9.81 0 
0 -9.81 0 
0 -9.81 0 
0 -9.81 0 
0 -9.81 0 
0 -9.81 0 
0 -9.81 0 
0 -9.81 0 
0 -9.81 0 
0 -9.81 0 
0 -9.81 0 
0 -9.81 0 
0 -9.81 0 
0 -9.81 0 
0 -9.81 0 
0 -9.81 0 
0 -9.81 0 
0 -9.81 0 
0 -9.81 0 
0 -9.81 0 
0 -9.81 0 
0 -9.81 0 
0 -9.81 0 
0 -9.81 0 
TENSORS cauchy_stress double
939.57 -314.301 0
-314.301 -2363.7 0
0 0 0

-1640.92 -239.493 0
-239.493 -1532.67 0
0 0 0

612.208 763.786 0
763.786 1835.62 0
0 0 0

-2640.75 551.476 0
551.476 2902.84 0
0 0 0

-2361.71 1310.08 0
1310.08 -798.692 0
0 0 0

-6224.21 1281.69 0
1281.69 -6704.24 0
0 0 0

907.003 657.755 0
657.755 642.643 0
0 0 0

-2218.62 2714.76 0
2714.76 589.596 0
0 0 0

-4781.59 -737.35 0
-737.35 289.678 0
0 0 0

-6630.55 -2851.81 0
-2851.81 959.523 0
0 0 0

5723.83 2619.74 0
2619.74 2604.91 0
0 0 0

-12047.7 -1025.53 0
-1025.53 -4268.56 0
0 0 0

-1903.72 -521.916 0
-521.916 1963.05 0
0 0 0

-444.852 -354.813 0
-354.813 3618.01 0
0 0 0

3966.37 3322.08 0
3322.08 7767.26 0
0 0 0

-9346.12 -2490.68 0
-2490.68 5998.46 0
0 0 0

-580.385 -1367.37 0
-1367.37 3204.09 0
0 0 0

-2768.7 -995.272 0
-995.272 1647.07 0
0 0 0

-863.782 5074.06 0
5074.06 5509.52 0
0 0 0

-5829.73 3899.1 0
3899.1 3888.97 0
0 0 0

1631.23 3684.27 0
3684.27 3993.66 0
0 0 0

-4981.37 3827.83 0
3827.83 2685.17 0
0 0 0

2383.08 6585.07 0
6585.07 8001.07 0
0 0 0

-3125.4 7292.05 0
7292.05 -157.648 0
0 0 0

2630.97 1507.52 0
1507.52 3996.18 0
0 0 0

-8426.39 107.165 0
107.165 -3393.13 0
0 0 0

-5.6599 4671.39 0
4671.39 -2764.69 0
0 0 0

8062.8 2834.47 0
2834.47 5622.2 0
0 0 0

-2473.41 -1522.39 0
-1522.39 -2503.71 0
0 0 0

2386.99 660.35 0
660.35 3957.7 0
0 0 0

-4329.41 823.847 0
823.847 1807.64 0
0 0 0

3391.22 2906.79 0
2906.79 1900.03 0
0 0 0

-3041.32 4038.1 0
4038.1 7330.62 0
0 0 0

-7120.13 3108.97 0
3108.97 4068.42 0
0 0 0

-5110.45 -1290.65 0
-1290.65 1586.37 0
0 0 0

-3288.07 -247.303 0
-247.303 2579.99 0
0 0 0

-1236.93 409.994 0
409.994 -1175.1 0
0 0 0

-1534.09 7460.88 0
7460.88 1056.41 0
0 0 0

-4039.26 -128.01 0
-128.01 -509.292 0
0 0 0

-64.473 2849.62 0
2849.62 51.7533 0
0 0 0

-4128.95 -5032.06 0
-5032.06 -6557.65 0
0 0 0

-985.082 1413.05 0
1413.05 -572.852 0
0 0 0

-240.325 462.226 0
462.226 8094.91 0
0 0 0

225.317 -2779.96 0
-2779.96 3853.66 0
0 0 0

-6832.63 -3798.27 0
-3798.27 -5629.23 0
0 0 0

-6150.55 1278.53 0
1278.53 281.263 0
0 0 0

-111.062 259.284 0
259.284 3362.99 0
0 0 0

-470.357 -1631.78 0
-1631.78 71.5501 0
0 0 0

-791.044 514.338 0
514.338 6497.09 0
0 0 0

1222.35 2240.42 0
2240.42 3891.16 0
0 0 0

2781.62 810.045 0
810.045 3125.28 0
0 0 0

-3757.08 -642.946 0
-642.946 -917.923 0
0 0 0

-2530.34 1773.61 0
1773.61 2164.87 0
0 0 0

-3528.84 3250.9 0
3250.9 -3075.33 0
0 0 0

2938.93 852.953 0
852.953 1028.61 0
0 0 0

-11756.7 10.7701 0
10.7701 -2473.97 0
0 0 0

-3348.41 4205.74 0
4205.74 4463.9 0
0 0 0

-4719.8 273 0
273 -2426.37 0
0 0 0

-4836.41 -3341.85 0
-3341.85 2517.7 0
0 0 0

-4981.26 1336.06 0
1336.06 8460.04 0
0 0 0

-97.6667 -712.893 0
-712.893 -4030.65 0
0 0 0

641.613 88.2202 0
88.2202 881.562 0
0 0 0

-1306.7 -771.356 0
-771.356 -2251.48 0
0 0 0

-639.387 479.159 0
479.159 2174.95 0
0 0 0

TENSORS velocity_gradient double
-3.67418 -4.81929 0
-1.0937 2.53874 0
0 0 0

-2.16348 -3.86348 0
-3.09764 1.51923 0
0 0 0

-4.12826 -4.64157 0
0.281644 3.7557 0
0 0 0

-2.97443 -4.96038 0
-1.97957 2.99508 0
0 0 0

-1.27976 -2.52353 0
-1.64473 0.0639079 0
0 0 0

0.286693 0.383064 0
0.849563 -3.65861 0
0 0 0

-2.97096 -4.84068 0
-1.61543 2.03254 0
0 0 0

-2.6688 -2.84439 0
3.00404 1.54557 0
0 0 0

1.1852 3.11007 0
0.799279 -7.19959 0
0 0 0

4.90119 3.43818 0
-1.1604 -6.32919 0
0 0 0

-2.41199 -0.225755 0
2.77301 1.16624 0
0 0 0

3.46851 1.60586 0
0.547498 -0.389178 0
0 0 0

5.01168 3.92646 0
-0.725399 -6.08429 0
0 0 0

7.32781 5.06339 0
2.85475 -3.4202 0
0 0 0

3.19641 3.0913 0
0.869107 -2.14488 0
0 0 0

5.19834 5.41376 0
2.16522 -2.20755 0
0 0 0

-2.54775 -4.39366 0
0.835788 3.8875 0
0 0 0

-3.07431 -4.97432 0
-0.953576 3.13828 0
0 0 0

-1.19747 -0.873841 0
1.60421 0.988572 0
0 0 0

-2.72396 -1.15305 0
-1.06496 0.865921 0
0 0 0

-3.08838 -4.88225 0
-0.809026 2.19242 0
0 0 0

-5.38114 -3.35184 0
3.35038 1.61037 0
0 0 0

-2.54334 -2.14535 0
-1.38585 2.62879 0
0 0 0

-5.61154 -3.23728 0
3.55912 3.71581 0
0 0 0

-5.73383 -0.912997 0
3.39542 1.29895 0
0 0 0

1.90289 -0.292623 0
2.6719 0.226916 0
0 0 0

-5.42245 -4.45422 0
3.57877 3.58936 0
0 0 0

1.35562 -5.19738 0
7.10585 1.70315 0
0 0 0

1.68814 -2.45053 0
3.43318 -3.11825 0
0 0 0

2.8488 -4.05347 0
1.31014 -5.92675 0
0 0 0

1.29184 -4.92452 0
8.22568 -3.0879 0
0 0 0

1.65178 -4.38803 0
0.600365 -6.12512 0
0 0 0

-1.59463 -0.960619 0
3.64531 1.43455 0
0 0 0

-1.6134 -0.932267 0
-2.26012 0.508563 0
0 0 0

-1.50287 -3.68591 0
5.48724 1.60038 0
0 0 0

-0.810267 -4.55064 0
-0.0254115 -0.0593965 0
0 0 0

-1.43402 -1.87434 0
-3.35658 2.14733 0
0 0 0

-3.79222 -2.99345 0
2.40506 3.65162 0
0 0 0

-0.427333 -5.51068 0
-2.67336 -2.19281 0
0 0 0

-1.90015 -6.6471 0
0.677078 -3.95546 0
0 0 0

-4.26519 -4.21079 0
3.69902 3.61466 0
0 0 0

-0.15447 -6.00277 0
9.80745 1.76331 0
0 0 0

-2.80198 -8.15455 0
2.65031 -2.7387 0
0 0 0

-1.78087 -9.15004 0
7.55851 -1.3199 0
0 0 0

0.685874 -6.14046 0
12.0405 -1.183 0
0 0 0

0.581047 -4.81614 0
5.68771 -1.44908 0
0 0 0

-1.70064 -7.12658 0
12.074 -0.718214 0
0 0 0

-0.955931 -4.90781 0
8.39362 -0.802293 0
0 0 0

-0.580174 -3.55163 0
7.18232 1.84706 0
0 0 0

-0.101336 -4.41418 0
4.36078 0.221912 0
0 0 0

0.128279 -5.00642 0
7.62925 0.219022 0
0 0 0

0.0226087 -5.35346 0
6.54063 1.30868 0
0 0 0

0.6372 -5.41504 0
-0.273868 -1.97723 0
0 0 0

-0.0918419 -6.49655 0
0.257419 -3.91551 0
0 0 0

-1.4716 -2.62942 0
1.10541 0.92709 0
0 0 0

-1.16962 0.601919 0
1.11285 0.173105 0
0 0 0

-1.10565 -7.91372 0
0.918985 -2.98449 0
0 0 0

-1.27131 -8.15889 0
2.33183 -1.57098 0
0 0 0

1.05771 -0.126823 0
1.36567 -0.730134 0
0 0 0

1.27456 -2.18981 0
1.47139 -1.73591 0
0 0 0

-3.43583 -5.61746 0
11.4731 -0.877154 0
0 0 0

-2.92314 -5.84002 0
10.4286 0.272926 0
0 0 0

-2.0072 -4.04268 0
10.2056 -1.21526 0
0 0 0

-1.75731 -5.98503 0
10.0214 0.216408 0
0 0 0

SCALARS active double 1
LOOKUP_TABLE default
1
1
1
1
1
1
1
1
1
1
1
1
1
1
1
1
1
1
1
1
1
1
1
1
1
1
1
1
1
1
1
1
1
1
1
1
1
1
1
1
1
1
1
1
1
1
1
1
1
1
1
1
1
1
1
1
1
1
1
1
1
1
1
1
SCALARS extent double 1
LOOKUP_TABLE default
0.0125
0.0125
0.0125
0.0125
0.0125
0.0125
0.0125
0.0125
0.0125
0.0125
0.0125
0.0125
0.0125
0.0125
0.0125
0.0125
0.0125
0.0125
0.0125
0.0125
0.0125
0.0125
0.0125
0.0125
0.0125
0.0125
0.0125
0.0125
0.0125
0.0125
0.0125
0.0125
0.0125
0.0125
0.0125
0.0125
0.0125
0.0125
0.0125
0.0125
0.0125
0.0125
0.0125
0.0125
0.0125
0.0125
0.0125
0.0125
0.0125
0.0125
0.0125
0.0125
0.0125
0.0125
0.0125
0.0125
0.0125
0.0125
0.0125
0.0125
0.0125
0.0125
0.0125
0.0125
SCALARS pressure double 1
LOOKUP_TABLE default
712.063
1586.79
-1223.91
-131.045
1580.2
6464.22
-774.823
814.513
2245.96
2835.52
-4164.37
8158.13
-29.6639
-1586.58
-5866.81
1673.83
-1311.85
560.813
-2322.87
970.378
-2812.44
1148.1
-5192.07
1641.52
-3313.57
5909.76
1385.17
-6842.5
2488.56
-3172.34
1260.89
-2645.62
-2144.65
1525.86
1762.04
354.038
1206.01
238.84
2274.28
6.35985
5343.3
778.967
-3927.29
-2039.49
6230.93
2934.64
-1625.97
199.404
-2853.02
-2556.76
-2953.45
2337.5
182.735
3302.09
-1983.77
7115.36
-557.746
3573.08
1159.36
-1739.39
2064.16
-761.588
1779.09
-767.779
SCALARS density double 1
LOOKUP_TABLE default
1007.43
1016.64
987.352
998.638
1016.57
1069.54
991.974
1008.51
1023.63
1029.93
957.615
1088.55
999.692
983.635
940.809
1017.56
986.449
1005.85
976.132
1010.14
971.174
1012.01
947.434
1017.22
966.126
1063.39
1014.51
931.311
1026.22
967.546
1013.2
972.861
977.943
1016
1018.49
1003.69
1012.62
1002.49
1023.93
1000.07
1057.14
1008.13
959.979
979.013
1066.95
1030.99
983.232
1002.08
970.764
973.76
969.751
1024.61
1001.9
1034.94
979.58
1076.81
994.216
1037.86
1012.13
982.073
1021.7
992.111
1018.67
992.047
