# vtk DataFile Version 3.0
Frame: 10, Time: 0.17
ASCII
DATASET UNSTRUCTURED_GRID
POINTS 64 double
0.327369 0.0192729 0 
0.306368 0.025911 0 
0.347356 0.0281116 0 
0.325575 0.0382235 0 
0.284495 0.0316494 0 
0.263737 0.0354415 0 
0.303167 0.0480177 0 
0.280098 0.0558155 0 
0.241951 0.0397681 0 
0.22033 0.0482816 0 
0.256944 0.0616822 0 
0.234362 0.070014 0 
0.199473 0.0601984 0 
0.178708 0.0741614 0 
0.213736 0.0815216 0 
0.193386 0.0945476 0 
0.366612 0.0368482 0 
0.344867 0.0518341 0 
0.385156 0.0472884 0 
0.362516 0.064121 0 
0.322655 0.0637489 0 
0.298427 0.0741892 0 
0.339985 0.0789056 0 
0.31472 0.0902064 0 
0.273401 0.0822461 0 
0.250299 0.0910645 0 
0.289298 0.100633 0 
0.266693 0.11108 0 
0.229311 0.102634 0 
0.209753 0.116114 0 
0.246003 0.122853 0 
0.226192 0.136644 0 
0.400732 0.0629544 0 
0.378806 0.0785028 0 
0.415934 0.0812749 0 
0.394152 0.0959676 0 
0.356034 0.0940462 0 
0.331269 0.106976 0 
0.372459 0.110197 0 
0.348598 0.12353 0 
0.30702 0.117574 0 
0.284087 0.129787 0 
0.32496 0.135421 0 
0.302917 0.147956 0 
0.263376 0.142648 0 
0.243615 0.156293 0 
0.281213 0.161418 0 
0.260253 0.174947 0 
0.430921 0.0999402 0 
0.408705 0.114101 0 
0.444619 0.119856 0 
0.422235 0.134197 0 
0.386948 0.128098 0 
0.363258 0.141698 0 
0.400675 0.148923 0 
0.37754 0.161032 0 
0.341025 0.154261 0 
0.318972 0.166481 0 
0.35542 0.174573 0 
0.333535 0.18706 0 
0.296945 0.180161 0 
0.27569 0.19387 0 
0.313032 0.200041 0 
0.291309 0.213511 0 
CELLS 64 128
1 0
1 1
1 2
1 3
1 4
1 5
1 6
1 7
1 8
1 9
1 10
1 11
1 12
1 13
1 14
1 15
1 16
1 17
1 18
1 19
1 20
1 21
1 22
1 23
1 24
1 25
1 26
1 27
1 28
1 29
1 30
1 31
1 32
1 33
1 34
1 35
1 36
1 37
1 38
1 39
1 40
1 41
1 42
1 43
1 44
1 45
1 46
1 47
1 48
1 49
1 50
1 51
1 52
1 53
1 54
1 55
1 56
1 57
1 58
1 59
1 60
1 61
1 62
1 63
CELL_TYPES 64
1
1
1
1
1
1
1
1
1
1
1
1
1
1
1
1
1
1
1
1
1
1
1
1
1
1
1
1
1
1
1
1
1
1
1
1
1
1
1
1
1
1
1
1
1
1
1
1
1
1
1
1
1
1
1
1
1
1
1
1
1
1
1
1
POINT_DATA 64
VECTORS displacement double
0.114869 -0.193227 0 
0.0938675 -0.211589 0 
0.109856 -0.184388 0 
0.0880746 -0.199277 0 
0.0719945 -0.230851 0 
0.0512367 -0.252059 0 
0.065667 -0.214482 0 
0.0425976 -0.231685 0 
0.0294511 -0.272732 0 
0.00782992 -0.289218 0 
0.0194438 -0.250818 0 
-0.00313779 -0.267486 0 
-0.013027 -0.302302 0 
-0.0337922 -0.313339 0 
-0.0237645 -0.280978 0 
-0.0441139 -0.292952 0 
0.104112 -0.175652 0 
0.0823667 -0.185666 0 
0.097656 -0.165212 0 
0.0750159 -0.173379 0 
0.0601553 -0.198751 0 
0.035927 -0.213311 0 
0.0524848 -0.183594 0 
0.0272198 -0.197294 0 
0.0109009 -0.230254 0 
-0.0122007 -0.246436 0 
0.00179787 -0.211867 0 
-0.0208068 -0.22642 0 
-0.0331891 -0.259866 0 
-0.0527466 -0.271386 0 
-0.0414973 -0.239647 0 
-0.0613075 -0.250856 0 
0.0882318 -0.149546 0 
0.0663065 -0.158997 0 
0.0784344 -0.131225 0 
0.0566516 -0.141532 0 
0.0435337 -0.168454 0 
0.0187688 -0.180524 0 
0.0349586 -0.152303 0 
0.0110976 -0.16397 0 
-0.00548023 -0.194926 0 
-0.0284129 -0.207713 0 
-0.01254 -0.177079 0 
-0.0345832 -0.189544 0 
-0.0491238 -0.219852 0 
-0.0688851 -0.231207 0 
-0.0562866 -0.201082 0 
-0.0772466 -0.212553 0 
0.0684208 -0.11256 0 
0.0462052 -0.123399 0 
0.0571192 -0.0926444 0 
0.0347355 -0.103303 0 
0.0244482 -0.134402 0 
0.000758372 -0.145802 0 
0.0131745 -0.113577 0 
-0.00996006 -0.126468 0 
-0.0214754 -0.158239 0 
-0.0435285 -0.171019 0 
-0.0320795 -0.137927 0 
-0.0539648 -0.15044 0 
-0.0655547 -0.182339 0 
-0.0868099 -0.19363 0 
-0.0744681 -0.162459 0 
-0.0961912 -0.173989 0 
VECTORS velocity double
-0.0159438 -0.408398 0 
-0.703344 -0.150485 0 
-0.0458849 0.492548 0 
-0.836269 0.612664 0 
-0.709299 0.171754 0 
-0.520258 -0.256209 0 
-0.499478 0.701705 0 
-0.530217 0.597056 0 
-0.847949 -0.473727 0 
-1.16662 -0.848307 0 
-1.07409 0.219349 0 
-1.3207 -0.0743614 0 
-0.948914 -0.865774 0 
-1.51536 -1.11582 0 
-1.28544 -0.418886 0 
-2.36274 -1.24252 0 
-0.282007 0.0453326 0 
-0.836174 0.19259 0 
-0.695595 0.192288 0 
-0.962586 0.0591111 0 
-0.415319 0.480278 0 
-0.402915 0.430625 0 
-0.634373 0.216685 0 
-0.701365 0.295467 0 
-0.879559 -0.01262 0 
-1.09359 -0.392194 0 
-1.19412 0.130501 0 
-1.79939 -0.0895322 0 
-1.10931 -0.622281 0 
-1.77298 -1.44115 0 
-1.73418 -0.510431 0 
-1.90147 -1.05787 0 
-0.755275 0.723947 0 
-1.01839 0.357877 0 
-0.866701 0.774891 0 
-0.972451 0.631907 0 
-0.759431 0.12163 0 
-1.07339 0.22919 0 
-0.866044 0.472281 0 
-1.10426 0.642695 0 
-1.67388 0.174683 0 
-2.28488 -0.107537 0 
-1.59552 0.35342 0 
-1.83711 -0.0499494 0 
-2.09858 -0.309775 0 
-2.4318 -0.561907 0 
-1.30986 0.149705 0 
-1.78723 -0.187601 0 
-0.682016 0.512975 0 
-0.805462 0.326574 0 
-1.1324 0.749632 0 
-1.30757 0.780137 0 
-0.863176 0.158071 0 
-0.754896 0.252722 0 
-1.49223 0.811623 0 
-1.54566 0.65922 0 
-0.932088 0.033779 0 
-1.51138 -0.412023 0 
-1.62617 0.679506 0 
-2.04185 -0.113192 0 
-1.51062 0.0928814 0 
-1.85206 -0.903081 0 
-1.73453 0.269663 0 
-1.90814 -0.158952 0 
SCALARS mass double 1
LOOKUP_TABLE default
0.625
0.625
0.625
0.625
0.625
0.625
0.625
0.625
0.625
0.625
0.625
0.625
0.625
0.625
0.625
0.625
0.625
0.625
0.625
0.625
0.625
0.625
0.625
0.625
0.625
0.625
0.625
0.625
0.625
0.625
0.625
0.625
0.625
0.625
0.625
0.625
0.625
0.625
0.625
0.625
0.625
0.625
0.625
0.625
0.625
0.625
0.625
0.625
0.625
0.625
0.625
0.625
0.625
0.625
0.625
0.625
0.625
0.625
0.625
0.625
0.625
0.625
0.625
0.625
SCALARS volume double 1
LOOKUP_TABLE default
0.000280217
0.000373833
0.000386103
0.00049702
0.000400429
0.000428519
0.000547239
0.000574781
0.000514553
0.000582684
0.000608562
0.000607592
0.000619746
0.00061963
0.00061082
0.000633566
0.000477015
0.000521489
0.000575701
0.000565759
0.000557581
0.000585003
0.000563762
0.000590929
0.000590574
0.000608135
0.000581353
0.000587818
0.000619797
0.000636391
0.000625429
0.000631743
0.000579067
0.000628704
0.000619748
0.000599665
0.000593783
0.000615167
0.000594687
0.000602434
0.000624767
0.0006346
0.00061448
0.000622515
0.000622248
0.000652624
0.000617348
0.00061127
0.000634572
0.000604184
0.000628865
0.000642726
0.000624708
0.000618895
0.00063099
0.000641233
0.000636927
0.000636015
0.000631268
0.000614032
0.000613392
0.000616691
0.000633451
0.000624385
VECTORS momentum double
-0.00996488 -0.255249 0 
-0.43959 -0.094053 0 
-0.028678 0.307842 0 
-0.522668 0.382915 0 
-0.443312 0.107346 0 
-0.325161 -0.160131 0 
-0.312174 0.438566 0 
-0.331386 0.37316 0 
-0.529968 -0.29608 0 
-0.729141 -0.530192 0 
-0.671309 0.137093 0 
-0.825437 -0.0464759 0 
-0.593071 -0.541109 0 
-0.947099 -0.697388 0 
-0.803402 -0.261804 0 
-1.47672 -0.776573 0 
-0.176254 0.0283329 0 
-0.522609 0.120369 0 
-0.434747 0.12018 0 
-0.601616 0.0369444 0 
-0.259575 0.300174 0 
-0.251822 0.26914 0 
-0.396483 0.135428 0 
-0.438353 0.184667 0 
-0.549724 -0.0078875 0 
-0.683495 -0.245121 0 
-0.746328 0.0815633 0 
-1.12462 -0.0559576 0 
-0.693319 -0.388926 0 
-1.10811 -0.900717 0 
-1.08386 -0.31902 0 
-1.18842 -0.661169 0 
-0.472047 0.452467 0 
-0.636494 0.223673 0 
-0.541688 0.484307 0 
-0.607782 0.394942 0 
-0.474644 0.0760185 0 
-0.670867 0.143244 0 
-0.541277 0.295175 0 
-0.690165 0.401684 0 
-1.04618 0.109177 0 
-1.42805 -0.0672109 0 
-0.997203 0.220888 0 
-1.14819 -0.0312184 0 
-1.31161 -0.193609 0 
-1.51987 -0.351192 0 
-0.818665 0.0935654 0 
-1.11702 -0.117251 0 
-0.42626 0.320609 0 
-0.503414 0.204109 0 
-0.707751 0.46852 0 
-0.817234 0.487586 0 
-0.539485 0.0987944 0 
-0.47181 0.157951 0 
-0.932644 0.507265 0 
-0.966036 0.412013 0 
-0.582555 0.0211119 0 
-0.944612 -0.257515 0 
-1.01636 0.424691 0 
-1.27616 -0.0707453 0 
-0.944135 0.0580509 0 
-1.15754 -0.564425 0 
-1.08408 0.168539 0 
-1.19258 -0.099345 0 
VECTORS body_force double
0 -9.81 0 
0 -9.81 0 
0 -9.81 0 
0 -9.81 0 
0 -9.81 0 
0 -9.81 0 
0 -9.81 0 
0 -9.81 0 
0 -9.81 0 
0 -9.81 0 
0 -9.81 0 
0 -9.81 0 
0 -9.81 0 
0 -9.81 0 
0 -9.81 0 
0 -9.81 0 
0 -9.81 0 
0 -9.81 0 
0 -9.81 0 
0 -9.81 0 
0 -9.81 0 
0 -9.81 0 
0 -9.81 0 
0 -9.81 0 
0 -9.81 0 
0 -9.81 0 
0 -9.81 0 
0 -9.81 0 
0 -9.81 0 
0 -9.81 0 
0 -9.81 0 
0 -9.81 0 
0 -9.81 0 
0 -9.81 0 
0 -9.81 0 
0 -9.81 0 
0 -9.81 0 
0 -9.81 0 
0 -9.81 0 
0 -9.81 0 
0 -9.81 0 
0 -9.81 0 
0 -9.81 0 
0 -9.81 0 
0 -9.81 0 
0 -9.81 0 
0 -9.81 0 
0 -9.81 0 
0 -9.81 0 
0 -9.81 0 
0 -9.81 0 
0 -9.81 0 
0 -9.81 0 
0 -9.81 0 
0 -9.81 0 
0 -9.81 0 
0 -9.81 0 
0 -9.81 0 
0 -9.81 0 
0 -9.81 0 
0 -9.81 0 
0 -9.81 0 
0 -9.81 0 
0 -9.81 0 
TENSORS cauchy_stress double
-38508.9 6906.16 0
6906.16 -115758 0
0 0 0

-18196 4984.72 0
4984.72 -80639.2 0
0 0 0

-20685.4 -5238.18 0
-5238.18 -71938.9 0
0 0 0

-1175.62 5019.98 0
5019.98 -42886.2 0
0 0 0

-25037 16935 0
16935 -60581.5 0
0 0 0

-22829.4 16445.1 0
16445.1 -49750.7 0
0 0 0

4772 4782.96 0
4782.96 -30323.2 0
0 0 0

5256.57 16087 0
16087 -21364.6 0
0 0 0

-9413.61 11920.3 0
11920.3 -27981.1 0
0 0 0

-4260.93 3117.52 0
3117.52 -9221.23 0
0 0 0

5531 11316.4 0
11316.4 -10656.6 0
0 0 0

-744.223 6259.25 0
6259.25 -4688.16 0
0 0 0

1088.7 3130.51 0
3130.51 -2712.21 0
0 0 0

209.538 -411.819 0
-411.819 -1868.91 0
0 0 0

-1270.04 3360.49 0
3360.49 -3143.39 0
0 0 0

1466.86 3092.84 0
3092.84 1150.96 0
0 0 0

-7647.2 -8971.81 0
-8971.81 -44315.1 0
0 0 0

679.771 -7126.7 0
-7126.7 -35499.7 0
0 0 0

3059.93 -12493.3 0
-12493.3 -18860.6 0
0 0 0

2817.85 -8794.78 0
-8794.78 -21968.4 0
0 0 0

5696.87 3387.31 0
3387.31 -27647.7 0
0 0 0

11744.2 2244.26 0
2244.26 -24462.3 0
0 0 0

3041.8 -4619.35 0
-4619.35 -22872.4 0
0 0 0

12891.1 -1087.39 0
-1087.39 -23671 0
0 0 0

7428.35 8287.84 0
8287.84 -18324 0
0 0 0

5093.88 6944.61 0
6944.61 -10354.3 0
0 0 0

8019.63 2240.36 0
2240.36 -21941.4 0
0 0 0

78.1096 5769.23 0
5769.23 -11873 0
0 0 0

2403.04 5007.34 0
5007.34 -4010.68 0
0 0 0

1223.18 4633.7 0
4633.7 2250.16 0
0 0 0

5308.59 5025.27 0
5025.27 -5176.72 0
0 0 0

1523.3 2405.47 0
2405.47 540.492 0
0 0 0

-5372.24 -2256.35 0
-2256.35 -9307.37 0
0 0 0

9216.87 -7165.45 0
-7165.45 -8080.41 0
0 0 0

2744.66 -3063.35 0
-3063.35 -4367.45 0
0 0 0

3051.37 -1731.24 0
-1731.24 -11009.2 0
0 0 0

5513 -6169.19 0
-6169.19 -15366.4 0
0 0 0

14782.6 1802.59 0
1802.59 -17832.2 0
0 0 0

2744.62 -3916.63 0
-3916.63 -12305.6 0
0 0 0

9362.47 -1564.24 0
-1564.24 -16434.4 0
0 0 0

13128.9 3265.72 0
3265.72 -13200.7 0
0 0 0

11225.3 4396.18 0
4396.18 -8293.81 0
0 0 0

10858.2 1241.66 0
1241.66 -14122.5 0
0 0 0

7996.02 2406.87 0
2406.87 -8762.26 0
0 0 0

5107.39 5128.28 0
5128.28 -5955.9 0
0 0 0

6843.18 3598.77 0
3598.77 1473.9 0
0 0 0

5888.11 1746.95 0
1746.95 -8257.25 0
0 0 0

3206.34 -997.809 0
-997.809 -7478.04 0
0 0 0

1049 -4035.63 0
-4035.63 1873.89 0
0 0 0

920.389 -1585.91 0
-1585.91 -7434.25 0
0 0 0

359.95 -1412.93 0
-1412.93 825.675 0
0 0 0

5429.37 -3083.27 0
-3083.27 -51.0729 0
0 0 0

4086.07 -2481.67 0
-2481.67 -4175.83 0
0 0 0

4226.3 -2916.2 0
-2916.2 -6113.88 0
0 0 0

3489.08 91.7577 0
91.7577 -1654.64 0
0 0 0

5920.21 -627.707 0
-627.707 -989.145 0
0 0 0

5643.54 2675.91 0
2675.91 -2008.41 0
0 0 0

5149.09 -234.481 0
-234.481 -1789.35 0
0 0 0

5605.48 -1715.31 0
-1715.31 -3686.37 0
0 0 0

2829.48 845.596 0
845.596 -6234.3 0
0 0 0

1365.28 -796.906 0
-796.906 -4970.49 0
0 0 0

868.213 275.82 0
275.82 -3441.86 0
0 0 0

3511.88 1416.07 0
1416.07 -928.851 0
0 0 0

1333.79 -1262.56 0
-1262.56 -1523.14 0
0 0 0

TENSORS velocity_gradient double
-0.0387108 -12.0419 0
-0.562771 5.40241 0
0 0 0

-0.0520121 -11.9997 0
-0.756144 6.01666 0
0 0 0

-0.63177 -12.2111 0
0.11913 5.02247 0
0 0 0

-0.0767707 -12.0388 0
-1.11608 5.44841 0
0 0 0

3.43322 -13.6279 0
4.95128 3.84512 0
0 0 0

3.85701 -15.8738 0
5.56246 0.606083 0
0 0 0

1.06324 -11.5188 0
0.514593 3.18122 0
0 0 0

5.32827 -10.5757 0
8.07076 -3.39916 0
0 0 0

5.98366 -18.5266 0
11.3762 -3.72262 0
0 0 0

6.86429 -16.7132 0
13.081 -7.45961 0
0 0 0

5.27657 -10.0798 0
8.37165 -4.73065 0
0 0 0

6.93702 -9.57115 0
13.4381 -4.50355 0
0 0 0

5.25957 -8.55567 0
10.6654 -2.93358 0
0 0 0

2.03794 -7.58764 0
5.06803 -0.944486 0
0 0 0

6.61339 -9.01341 0
12.9673 -3.69228 0
0 0 0

1.80764 -7.85983 0
3.90357 -2.38958 0
0 0 0

-2.45917 -13.2351 0
2.82337 6.06268 0
0 0 0

-0.179578 -8.6723 0
-0.424788 2.31467 0
0 0 0

-2.92346 -11.6768 0
3.50389 5.93295 0
0 0 0

-2.30826 -5.19507 0
3.92508 1.23801 0
0 0 0

1.10786 -8.58676 0
-0.378162 -0.981429 0
0 0 0

3.74743 -10.3836 0
5.16707 -2.79974 0
0 0 0

2.46648 -7.02558 0
0.846596 0.425935 0
0 0 0

3.48298 -9.27528 0
1.76295 -1.60212 0
0 0 0

4.98338 -10.3168 0
9.27775 -3.99802 0
0 0 0

5.4178 -9.95901 0
10.7721 -4.81337 0
0 0 0

4.86054 -11.0608 0
9.88851 -3.37851 0
0 0 0

5.02777 -12.082 0
9.90514 -3.14183 0
0 0 0

5.26802 -9.04042 0
12.2166 -2.92025 0
0 0 0

2.89897 -5.22279 0
11.8889 -2.04825 0
0 0 0

2.83675 -11.6919 0
11.1209 -2.82401 0
0 0 0

-0.980704 -8.37524 0
11.4435 -2.41018 0
0 0 0

-2.07176 -2.5051 0
4.2517 1.24286 0
0 0 0

-1.22272 -3.95114 0
3.99833 1.32194 0
0 0 0

-1.50315 -2.06785 0
3.65041 0.686388 0
0 0 0

-0.0836206 -3.29788 0
4.00675 1.39198 0
0 0 0

-0.0372151 -5.67541 0
4.07832 1.2056 0
0 0 0

4.95087 -8.50406 0
3.01248 -1.47219 0
0 0 0

0.598639 -6.6256 0
4.52071 0.664131 0
0 0 0

3.71848 -7.23668 0
4.56287 -0.40662 0
0 0 0

5.8566 -10.5365 0
3.71181 -3.0415 0
0 0 0

5.51944 -11.6188 0
9.64735 -3.38473 0
0 0 0

7.36412 -9.01368 0
4.87579 -1.86567 0
0 0 0

7.59586 -7.70008 0
6.09061 -2.91711 0
0 0 0

5.86578 -12.1592 0
9.46575 -3.1014 0
0 0 0

-1.91789 3.18771 0
9.3102 2.15664 0
0 0 0

5.10745 0.741486 0
8.62293 -1.31021 0
0 0 0

3.99191 2.44116 0
7.74254 0.0311999 0
0 0 0

-1.10986 -3.35507 0
2.91118 0.588319 0
0 0 0

-0.744569 -5.92527 0
2.59318 1.62719 0
0 0 0

-0.780771 -4.82549 0
2.71404 1.04336 0
0 0 0

-0.19268 -5.54916 0
2.2839 1.41641 0
0 0 0

0.889168 -6.38756 0
5.26657 1.27524 0
0 0 0

1.11294 -6.77209 0
5.84105 0.288064 0
0 0 0

0.332747 -8.37367 0
3.59981 2.47393 0
0 0 0

0.741114 -10.963 0
7.52515 1.49545 0
0 0 0

7.60125 -8.1041 0
5.79619 -1.92332 0
0 0 0

5.6855 -4.30851 0
5.93224 -2.28551 0
0 0 0

0.073972 -9.89513 0
9.24248 -1.25347 0
0 0 0

2.02269 -6.91636 0
6.0484 -2.20281 0
0 0 0

3.44246 -0.771414 0
6.86871 -2.14436 0
0 0 0

2.45391 1.15654 0
6.54668 -0.88813 0
0 0 0

-0.142535 -3.81678 0
6.04163 -0.648901 0
0 0 0

0.418048 -1.73902 0
6.19747 1.25635 0
0 0 0

SCALARS active double 1
LOOKUP_TABLE default
1
1
1
1
1
1
1
1
1
1
1
1
1
1
1
1
1
1
1
1
1
1
1
1
1
1
1
1
1
1
1
1
1
1
1
1
1
1
1
1
1
1
1
1
1
1
1
1
1
1
1
1
1
1
1
1
1
1
1
1
1
1
1
1
SCALARS extent double 1
LOOKUP_TABLE default
0.0125
0.0125
0.0125
0.0125
0.0125
0.0125
0.0125
0.0125
0.0125
0.0125
0.0125
0.0125
0.0125
0.0125
0.0125
0.0125
0.0125
0.0125
0.0125
0.0125
0.0125
0.0125
0.0125
0.0125
0.0125
0.0125
0.0125
0.0125
0.0125
0.0125
0.0125
0.0125
0.0125
0.0125
0.0125
0.0125
0.0125
0.0125
0.0125
0.0125
0.0125
0.0125
0.0125
0.0125
0.0125
0.0125
0.0125
0.0125
0.0125
0.0125
0.0125
0.0125
0.0125
0.0125
0.0125
0.0125
0.0125
0.0125
0.0125
0.0125
0.0125
0.0125
0.0125
0.0125
SCALARS pressure double 1
LOOKUP_TABLE default
77133.4
49417.6
46312.1
22030.9
42809.3
36290
12775.6
8054.03
18697.4
6741.08
2562.79
2716.19
811.758
829.688
2206.72
-1308.91
25981.1
17410
7900.33
9575.27
10975.4
6359.08
9915.3
5389.93
5447.84
2630.23
6960.91
5897.45
803.823
-1736.67
-65.9339
-1031.89
7339.8
-568.226
811.397
3978.91
4926.7
1524.8
4780.49
3535.95
35.8645
-1465.72
1632.17
383.116
424.255
-4158.54
1184.57
2135.85
-1461.44
3256.93
-592.813
-2689.15
44.8804
943.789
-917.22
-2465.53
-1817.57
-1679.87
-959.556
1702.41
1802.6
1286.82
-1291.51
94.6775
SCALARS density double 1
LOOKUP_TABLE default
2230.41
1671.87
1618.74
1257.49
1560.83
1458.51
1142.1
1087.37
1214.65
1072.62
1027.01
1028.65
1008.48
1008.67
1023.22
986.48
1310.23
1198.49
1085.63
1104.71
1120.91
1068.37
1108.62
1057.66
1058.29
1027.73
1075.08
1063.25
1008.39
982.101
999.315
989.326
1079.32
994.108
1008.47
1042.25
1052.57
1015.98
1050.97
1037.46
1000.37
984.872
1017.12
1003.99
1004.42
957.673
1012.4
1022.46
984.916
1034.45
993.854
972.42
1000.47
1009.86
990.506
974.684
981.275
982.681
990.07
1017.86
1018.92
1013.47
986.658
1000.99
