# vtk DataFile Version 3.0
Frame: 22, Time: 0.374
ASCII
DATASET UNSTRUCTURED_GRID
POINTS 64 double
0.153082 0.306693 0 
0.134993 0.290287 0 
0.137563 0.325677 0 
0.119373 0.309461 0 
0.114847 0.274798 0 
0.0975753 0.257463 0 
0.099653 0.29461 0 
0.0812085 0.278351 0 
0.0780207 0.242534 0 
0.0588247 0.226543 0 
0.0622403 0.262296 0 
0.0434912 0.245451 0 
0.0406549 0.209449 0 
0.0196279 0.193185 0 
0.0248393 0.229877 0 
0.00507586 0.212081 0 
0.123106 0.345108 0 
0.102658 0.329568 0 
0.107615 0.364602 0 
0.0878417 0.348969 0 
0.0837866 0.31399 0 
0.0639999 0.298193 0 
0.068226 0.333352 0 
0.0495619 0.317256 0 
0.046439 0.282199 0 
0.0289416 0.266126 0 
0.0297544 0.302577 0 
0.0125376 0.287355 0 
0.0107659 0.25111 0 
0.993163 0.235638 0 
0.995306 0.272004 0 
0.980385 0.257953 0 
0.0920946 0.384475 0 
0.0721126 0.368644 0 
0.0763317 0.403684 0 
0.0561382 0.387967 0 
0.0522991 0.3535 0 
0.0335039 0.337839 0 
0.0362027 0.373202 0 
0.0162258 0.357743 0 
0.0154615 0.323519 0 
0.99711 0.308724 0 
0.997831 0.342366 0 
0.979522 0.327623 0 
0.979237 0.292951 0 
0.963814 0.278967 0 
0.960543 0.311938 0 
0.943659 0.297037 0 
0.0608809 0.423695 0 
0.0411566 0.407294 0 
0.0453975 0.443093 0 
0.0248413 0.427241 0 
0.0208153 0.392579 0 
8.45765e-05 0.376928 0 
0.00430764 0.412826 0 
0.984813 0.396387 0 
0.981214 0.3617 0 
0.962596 0.345981 0 
0.964498 0.381383 0 
0.945556 0.365291 0 
0.942661 0.329921 0 
0.924545 0.313159 0 
0.926299 0.349794 0 
0.907431 0.332722 0 
CELLS 64 128
1 0
1 1
1 2
1 3
1 4
1 5
1 6
1 7
1 8
1 9
1 10
1 11
1 12
1 13
1 14
1 15
1 16
1 17
1 18
1 19
1 20
1 21
1 22
1 23
1 24
1 25
1 26
1 27
1 28
1 29
1 30
1 31
1 32
1 33
1 34
1 35
1 36
1 37
1 38
1 39
1 40
1 41
1 42
1 43
1 44
1 45
1 46
1 47
1 48
1 49
1 50
1 51
1 52
1 53
1 54
1 55
1 56
1 57
1 58
1 59
1 60
1 61
1 62
1 63
CELL_TYPES 64
1
1
1
1
1
1
1
1
1
1
1
1
1
1
1
1
1
1
1
1
1
1
1
1
1
1
1
1
1
1
1
1
1
1
1
1
1
1
1
1
1
1
1
1
1
1
1
1
1
1
1
1
1
1
1
1
1
1
1
1
1
1
1
1
POINT_DATA 64
VECTORS displacement double
-0.0594181 0.094193 0 
-0.0775065 0.0527871 0 
-0.0999374 0.113177 0 
-0.118127 0.0719608 0 
-0.0976529 0.0122979 0 
-0.114925 -0.0300372 0 
-0.137847 0.0321103 0 
-0.156292 -0.00914949 0 
-0.134479 -0.0699656 0 
-0.153675 -0.110957 0 
-0.17526 -0.0502038 0 
-0.194009 -0.092049 0 
-0.171845 -0.153051 0 
-0.192872 -0.194315 0 
-0.212661 -0.132623 0 
-0.232424 -0.175419 0 
-0.139394 0.132608 0 
-0.159842 0.0920681 0 
-0.179885 0.152102 0 
-0.199658 0.111469 0 
-0.178713 0.0514904 0 
-0.1985 0.0106931 0 
-0.219274 0.0708515 0 
-0.237938 0.0297557 0 
-0.216061 -0.0303007 0 
-0.233558 -0.0713742 0 
-0.257746 -0.00992345 0 
-0.274962 -0.050145 0 
-0.251734 -0.11139 0 
-0.269337 -0.151862 0 
-0.292194 -0.0904959 0 
-0.307115 -0.129547 0 
-0.220405 0.171975 0 
-0.240387 0.131144 0 
-0.261168 0.191184 0 
-0.281362 0.150467 0 
-0.260201 0.0910004 0 
-0.278996 0.0503389 0 
-0.301297 0.110702 0 
-0.321274 0.0702426 0 
-0.297039 0.0110194 0 
-0.31539 -0.0287758 0 
-0.339669 0.0298664 0 
-0.357978 -0.00987745 0 
-0.333263 -0.069549 0 
-0.348686 -0.108533 0 
-0.376957 -0.0505623 0 
-0.393841 -0.0904632 0 
-0.301619 0.211195 0 
-0.321343 0.169794 0 
-0.342103 0.230593 0 
-0.362659 0.189741 0 
-0.341685 0.130079 0 
-0.362415 0.0894285 0 
-0.383192 0.150326 0 
-0.402687 0.108887 0 
-0.381286 0.0492002 0 
-0.399904 0.00848055 0 
-0.423002 0.0688833 0 
-0.441944 0.0277908 0 
-0.419839 -0.0325793 0 
-0.437955 -0.074341 0 
-0.461201 -0.0127059 0 
-0.480069 -0.0547779 0 
VECTORS velocity double
-1.07512 1.3323 0 
-0.760061 0.850166 0 
-1.53198 1.03204 0 
-1.44748 0.68903 0 
-0.50128 1.21461 0 
-0.712469 0.687225 0 
-0.881353 0.789438 0 
-0.956878 0.755336 0 
-0.158583 0.948466 0 
0.130412 0.513073 0 
-0.771713 0.495128 0 
-0.604387 0.175193 0 
-0.292666 0.34131 0 
-0.0674311 0.0273989 0 
-0.67049 0.0567026 0 
-0.218068 -0.224488 0 
-0.888804 1.1892 0 
-1.18336 0.725481 0 
-1.53025 0.848483 0 
-1.19093 0.657758 0 
-1.28009 0.831069 0 
-1.00502 0.584042 0 
-1.37806 0.866801 0 
-1.25547 0.508633 0 
-0.415428 0.598318 0 
-0.365698 -0.0231368 0 
-0.624747 0.808097 0 
-0.650154 0.411579 0 
-0.595665 -0.186467 0 
0.31786 0.218004 0 
-0.664954 0.184491 0 
0.60574 0.510361 0 
-1.42102 0.8396 0 
-1.27096 0.427401 0 
-1.80539 0.837816 0 
-1.70249 0.422038 0 
-1.1762 0.748109 0 
-1.23313 0.276847 0 
-1.71067 0.879466 0 
-1.65593 0.411183 0 
-1.00156 0.375717 0 
-0.76526 0.23938 0 
-1.32096 0.345247 0 
-1.11983 0.270717 0 
-0.568139 0.0287617 0 
0.21221 0.246477 0 
-1.07519 0.265129 0 
-0.820403 0.257228 0 
-1.70707 0.691139 0 
-1.56074 0.21242 0 
-2.01111 0.519943 0 
-1.97426 0.0985355 0 
-1.69841 0.675599 0 
-1.52391 0.126884 0 
-1.85364 0.30451 0 
-1.91644 0.0250609 0 
-1.16009 0.130759 0 
-1.21504 0.0884042 0 
-1.78453 0.0105164 0 
-1.70999 -0.522401 0 
-1.23827 0.290469 0 
-0.916856 -0.358382 0 
-1.60552 -0.338036 0 
-1.13848 -0.417716 0 
SCALARS mass double 1
LOOKUP_TABLE default
0.625
0.625
0.625
0.625
0.625
0.625
0.625
0.625
0.625
0.625
0.625
0.625
0.625
0.625
0.625
0.625
0.625
0.625
0.625
0.625
0.625
0.625
0.625
0.625
0.625
0.625
0.625
0.625
0.625
0.625
0.625
0.625
0.625
0.625
0.625
0.625
0.625
0.625
0.625
0.625
0.625
0.625
0.625
0.625
0.625
0.625
0.625
0.625
0.625
0.625
0.625
0.625
0.625
0.625
0.625
0.625
0.625
0.625
0.625
0.625
0.625
0.625
0.625
0.625
SCALARS volume double 1
LOOKUP_TABLE default
0.000626959
0.000617786
0.000621716
0.000605733
0.000618965
0.00060675
0.000626148
0.000606492
0.000630956
0.000617299
0.000635479
0.000586773
0.000640654
0.000612688
0.000643734
0.000635881
0.000633923
0.000609735
0.000617449
0.000628904
0.000607439
0.000617979
0.000612412
0.000614958
0.000615868
0.000584467
0.000601458
0.000625337
0.000597507
0.000496873
0.000589716
0.000501244
0.000613746
0.00062398
0.000624718
0.000622245
0.000615436
0.00063034
0.000624369
0.000619014
0.000603871
0.000596009
0.000603849
0.000605605
0.000605236
0.000546828
0.000627942
0.000538882
0.000631859
0.000624242
0.000618227
0.000626087
0.000633973
0.0006072
0.000629268
0.000626415
0.00062754
0.000630024
0.000620769
0.000630632
0.000612537
0.000628087
0.000622491
0.000619226
VECTORS momentum double
-0.671953 0.832687 0 
-0.475038 0.531354 0 
-0.957486 0.645025 0 
-0.904678 0.430644 0 
-0.3133 0.75913 0 
-0.445293 0.429516 0 
-0.550846 0.493399 0 
-0.598049 0.472085 0 
-0.0991144 0.592791 0 
0.0815074 0.320671 0 
-0.48232 0.309455 0 
-0.377742 0.109496 0 
-0.182916 0.213319 0 
-0.0421445 0.0171243 0 
-0.419056 0.0354391 0 
-0.136292 -0.140305 0 
-0.555502 0.743252 0 
-0.7396 0.453426 0 
-0.956405 0.530302 0 
-0.744333 0.411099 0 
-0.800058 0.519418 0 
-0.628136 0.365026 0 
-0.861286 0.541751 0 
-0.784667 0.317895 0 
-0.259642 0.373949 0 
-0.228562 -0.0144605 0 
-0.390467 0.50506 0 
-0.406346 0.257237 0 
-0.372291 -0.116542 0 
0.198662 0.136253 0 
-0.415596 0.115307 0 
0.378587 0.318976 0 
-0.888139 0.52475 0 
-0.794348 0.267126 0 
-1.12837 0.523635 0 
-1.06406 0.263774 0 
-0.735124 0.467568 0 
-0.770703 0.173029 0 
-1.06917 0.549666 0 
-1.03495 0.256989 0 
-0.625978 0.234823 0 
-0.478288 0.149612 0 
-0.825599 0.21578 0 
-0.699897 0.169198 0 
-0.355087 0.0179761 0 
0.132631 0.154048 0 
-0.671994 0.165706 0 
-0.512752 0.160767 0 
-1.06692 0.431962 0 
-0.975464 0.132762 0 
-1.25694 0.324964 0 
-1.23391 0.0615847 0 
-1.0615 0.422249 0 
-0.952441 0.0793027 0 
-1.15853 0.190319 0 
-1.19778 0.015663 0 
-0.725055 0.0817242 0 
-0.759401 0.0552527 0 
-1.11533 0.00657272 0 
-1.06874 -0.326501 0 
-0.77392 0.181543 0 
-0.573035 -0.223988 0 
-1.00345 -0.211273 0 
-0.711551 -0.261072 0 
VECTORS body_force double
0 -9.81 0 
0 -9.81 0 
0 -9.81 0 
0 -9.81 0 
0 -9.81 0 
0 -9.81 0 
0 -9.81 0 
0 -9.81 0 
0 -9.81 0 
0 -9.81 0 
0 -9.81 0 
0 -9.81 0 
0 -9.81 0 
0 -9.81 0 
0 -9.81 0 
0 -9.81 0 
0 -9.81 0 
0 -9.81 0 
0 -9.81 0 
0 -9.81 0 
0 -9.81 0 
0 -9.81 0 
0 -9.81 0 
0 -9.81 0 
0 -9.81 0 
0 -9.81 0 
0 -9.81 0 
0 -9.81 0 
0 -9.81 0 
0 -9.81 0 
0 -9.81 0 
0 -9.81 0 
0 -9.81 0 
0 -9.81 0 
0 -9.81 0 
0 -9.81 0 
0 -9.81 0 
0 -9.81 0 
0 -9.81 0 
0 -9.81 0 
0 -9.81 0 
0 -9.81 0 
0 -9.81 0 
0 -9.81 0 
0 -9.81 0 
0 -9.81 0 
0 -9.81 0 
0 -9.81 0 
0 -9.81 0 
0 -9.81 0 
0 -9.81 0 
0 -9.81 0 
0 -9.81 0 
0 -9.81 0 
0 -9.81 0 
0 -9.81 0 
0 -9.81 0 
0 -9.81 0 
0 -9.81 0 
0 -9.81 0 
0 -9.81 0 
0 -9.81 0 
0 -9.81 0 
0 -9.81 0 
TENSORS cauchy_stress double
-84.0972 -71.9992 0
-71.9992 685.828 0
0 0 0

-1358.45 -269.049 0
-269.049 -874.005 0
0 0 0

595.159 2162.73 0
2162.73 -1608.24 0
0 0 0

-3500.27 -5289.59 0
-5289.59 -2521.44 0
0 0 0

-3269.58 -2644.93 0
-2644.93 1403.71 0
0 0 0

-4525.03 -1791.29 0
-1791.29 -1174.1 0
0 0 0

4776.01 1801.79 0
1801.79 -4423.21 0
0 0 0

-6533.91 -5810.88 0
-5810.88 752.981 0
0 0 0

-1681.02 -1003.45 0
-1003.45 3505.05 0
0 0 0

1235.3 1070.98 0
1070.98 -3619.49 0
0 0 0

-2290.89 3332.78 0
3332.78 5488.48 0
0 0 0

-6311.75 -98.8379 0
-98.8379 -5825.58 0
0 0 0

999.296 -30.3827 0
-30.3827 3757.84 0
0 0 0

-4183.06 -647.103 0
-647.103 356.932 0
0 0 0

-1273.3 -328.896 0
-328.896 6952.82 0
0 0 0

-2096.68 4486.09 0
4486.09 5415.96 0
0 0 0

1442.3 42.9989 0
42.9989 1283.96 0
0 0 0

-4468.68 2395.48 0
2395.48 -286.704 0
0 0 0

-822.279 714.488 0
714.488 -1515.35 0
0 0 0

-545.106 -480.595 0
-480.595 1742.49 0
0 0 0

-2180 -746.174 0
-746.174 -3300.77 0
0 0 0

-280.149 -456.78 0
-456.78 -1892.45 0
0 0 0

-3621.95 -1216.22 0
-1216.22 -290.937 0
0 0 0

-2136.65 1091.43 0
1091.43 -978.411 0
0 0 0

-2776.93 -3635.52 0
-3635.52 -53.6631 0
0 0 0

-10899.6 -3328.82 0
-3328.82 -1994.97 0
0 0 0

-9231 -2798.92 0
-2798.92 1847.38 0
0 0 0

-4849.23 -5116.94 0
-5116.94 4952.8 0
0 0 0

-8907.21 22.7297 0
22.7297 255.994 0
0 0 0

-35061.3 -4165.82 0
-4165.82 -9057.54 0
0 0 0

-11782.5 -5647.58 0
-5647.58 607.327 0
0 0 0

-28979.3 -13728.7 0
-13728.7 -13455.1 0
0 0 0

628.296 -784.396 0
-784.396 -4122.76 0
0 0 0

468.926 747.055 0
747.055 -783.092 0
0 0 0

243.894 417.208 0
417.208 -330.705 0
0 0 0

-1082.31 93.2005 0
93.2005 232.818 0
0 0 0

-379.634 -1132.05 0
-1132.05 -2585.9 0
0 0 0

-1056.49 -5695.18 0
-5695.18 2692.55 0
0 0 0

3095.49 -731.893 0
-731.893 -3289.75 0
0 0 0

385.622 -1896.93 0
-1896.93 -2236.22 0
0 0 0

-1770.17 -4098.84 0
-4098.84 -4843.65 0
0 0 0

-5750.99 -4473.81 0
-4473.81 -3382.89 0
0 0 0

-1639.84 -2728.41 0
-2728.41 -4980.88 0
0 0 0

-310.389 -3365.64 0
-3365.64 -5751.72 0
0 0 0

-3097.45 -5229.43 0
-5229.43 -3082.07 0
0 0 0

-11380.2 -14543 0
-14543 -14315.6 0
0 0 0

1826.51 -3139.6 0
-3139.6 -923.314 0
0 0 0

-7689.52 -7651.44 0
-7651.44 -20821 0
0 0 0

2291.13 164.265 0
164.265 -192.057 0
0 0 0

411.123 421.732 0
421.732 -644.591 0
0 0 0

1249.01 247.515 0
247.515 -3344.41 0
0 0 0

-95.5829 127.083 0
127.083 429.78 0
0 0 0

2333.07 -110.342 0
-110.342 408.077 0
0 0 0

-2749.08 -83.3282 0
-83.3282 -2807.43 0
0 0 0

415.516 -180.859 0
-180.859 893.155 0
0 0 0

1912.78 7.235 0
7.235 -1477.76 0
0 0 0

-819.175 -1814.44 0
-1814.44 1599.25 0
0 0 0

4195.31 -1145.52 0
-1145.52 -2655.6 0
0 0 0

1198.02 500.083 0
500.083 -2504.23 0
0 0 0

1641.24 1051.69 0
1051.69 83.9603 0
0 0 0

1255.95 -378.59 0
-378.59 -5129.34 0
0 0 0

3818.78 -523.537 0
-523.537 -2871.19 0
0 0 0

-1366.65 855.163 0
855.163 593.167 0
0 0 0

-370.729 1673.09 0
1673.09 -1414.1 0
0 0 0

TENSORS velocity_gradient double
-0.208305 -2.88448 0
5.81713 -0.429584 0
0 0 0

-0.313554 -9.96578 0
5.1434 -0.0650059 0
0 0 0

0.150809 -3.22701 0
5.02363 -0.159059 0
0 0 0

-0.331112 -3.77229 0
5.02781 -0.154329 0
0 0 0

0.079869 -9.44664 0
5.30651 0.150232 0
0 0 0

-1.51262 -9.0024 0
6.84893 0.605748 0
0 0 0

-1.83955 -9.04165 0
4.92407 0.495565 0
0 0 0

-3.1734 -8.59363 0
5.97053 1.72089 0
0 0 0

-1.88353 -7.84257 0
8.77642 0.266377 0
0 0 0

-0.720301 -6.41853 0
10.0418 1.81552 0
0 0 0

-2.774 -8.11206 0
7.21053 3.21601 0
0 0 0

-4.30789 -5.53778 0
4.7334 2.71848 0
0 0 0

-1.43586 -4.98617 0
4.71223 2.56179 0
0 0 0

0.384712 1.04944 0
4.23609 1.73521 0
0 0 0

-3.13378 -3.67739 0
4.68658 2.58156 0
0 0 0

-2.48484 -2.13968 0
3.37744 2.46561 0
0 0 0

0.731047 -3.72468 0
5.00343 -0.215142 0
0 0 0

0.0945439 -4.36297 0
4.82384 -0.140513 0
0 0 0

1.15304 -5.83081 0
4.07911 -0.78212 0
0 0 0

1.22441 -5.74751 0
3.9317 -0.235883 0
0 0 0

-2.3114 -6.00909 0
4.11997 -0.0259753 0
0 0 0

-3.4211 -8.16019 0
4.55143 2.16615 0
0 0 0

-0.226233 -7.66746 0
3.96208 0.0995925 0
0 0 0

-2.11017 -9.53939 0
4.90856 0.20294 0
0 0 0

-3.66209 -7.97755 0
5.42882 3.9877 0
0 0 0

-4.31633 -8.44685 0
5.00119 3.77578 0
0 0 0

-3.05888 -10.0178 0
5.73303 1.30828 0
0 0 0

-3.63655 -8.96806 0
5.45871 3.42499 0
0 0 0

-4.48544 -6.24938 0
4.74158 3.04658 0
0 0 0

-8.61104 -2.53789 0
-5.39079 0.729914 0
0 0 0

-3.16464 -10.22 0
1.36301 2.69082 0
0 0 0

-5.2822 -12.5723 0
-0.605999 1.39947 0
0 0 0

1.9687 -6.05458 0
4.99419 -0.395433 0
0 0 0

1.81197 -6.25403 0
4.44648 -1.09244 0
0 0 0

1.86855 -5.89727 0
5.37743 -1.22122 0
0 0 0

2.00529 -6.41149 0
5.12208 -1.64268 0
0 0 0

1.10048 -7.23572 0
4.4237 -1.19146 0
0 0 0

-1.17909 -10.5878 0
6.09017 0.113348 0
0 0 0

0.287862 -6.90734 0
5.57736 -1.56906 0
0 0 0

-0.235841 -7.5921 0
6.0049 -1.01004 0
0 0 0

-1.95628 -11.5848 0
5.95622 -0.0584792 0
0 0 0

0.0784616 -12.305 0
4.50383 -0.519624 0
0 0 0

0.161528 -12.2831 0
6.33124 -0.469874 0
0 0 0

1.19857 -12.1729 0
5.33014 -1.73254 0
0 0 0

0.449291 -12.6886 0
2.53064 1.33586 0
0 0 0

-1.83755 -15.2514 0
1.27914 -0.0666876 0
0 0 0

1.45129 -11.8634 0
4.1068 -3.23042 0
0 0 0

0.180334 -16.7558 0
2.29095 -4.68926 0
0 0 0

0.903278 -4.97632 0
4.92765 -0.90053 0
0 0 0

1.07102 -4.15226 0
4.91479 -0.655749 0
0 0 0

0.179915 -4.302 0
5.1333 -0.666445 0
0 0 0

0.639928 -3.80338 0
5.19858 -0.885426 0
0 0 0

0.952027 -7.42679 0
5.03514 -1.14499 0
0 0 0

0.415861 -8.02127 0
6.19844 -0.659631 0
0 0 0

0.92806 -3.35906 0
5.00515 -1.16163 0
0 0 0

0.0553619 -6.91676 0
7.48244 -0.370315 0
0 0 0

0.648219 -7.91387 0
7.2473 -0.747074 0
0 0 0

0.899585 -11.1532 0
6.70672 -2.68107 0
0 0 0

0.329634 -7.6478 0
7.50707 -0.964017 0
0 0 0

-0.140421 -7.3306 0
6.21905 -1.22555 0
0 0 0

0.314198 -11.5462 0
5.36921 -4.19416 0
0 0 0

0.66699 -11.157 0
5.18148 -4.40037 0
0 0 0

-0.106733 -9.09756 0
5.60658 -2.95582 0
0 0 0

0.246917 -10.7976 0
5.40217 -4.58918 0
0 0 0

SCALARS active double 1
LOOKUP_TABLE default
1
1
1
1
1
1
1
1
1
1
1
1
1
1
1
1
1
1
1
1
1
1
1
1
1
1
1
1
1
1
1
1
1
1
1
1
1
1
1
1
1
1
1
1
1
1
1
1
1
1
1
1
1
1
1
1
1
1
1
1
1
1
1
1
SCALARS extent double 1
LOOKUP_TABLE default
0.0125
0.0125
0.0125
0.0125
0.0125
0.0125
0.0125
0.0125
0.0125
0.0125
0.0125
0.0125
0.0125
0.0125
0.0125
0.0125
0.0125
0.0125
0.0125
0.0125
0.0125
0.0125
0.0125
0.0125
0.0125
0.0125
0.0125
0.0125
0.0125
0.0125
0.0125
0.0125
0.0125
0.0125
0.0125
0.0125
0.0125
0.0125
0.0125
0.0125
0.0125
0.0125
0.0125
0.0125
0.0125
0.0125
0.0125
0.0125
0.0125
0.0125
0.0125
0.0125
0.0125
0.0125
0.0125
0.0125
0.0125
0.0125
0.0125
0.0125
0.0125
0.0125
0.0125
0.0125
SCALARS pressure double 1
LOOKUP_TABLE default
-300.865
1116.23
506.542
3010.85
932.932
2849.56
-176.398
2890.46
-912.017
1192.1
-1598.8
6068.66
-2378.57
1913.07
-2839.76
-1659.64
-1363.13
2377.69
1168.82
-598.69
2740.39
1086.3
1956.44
1557.53
1415.3
6447.29
3691.81
-51.7832
4325.61
22059.4
5587.6
21217.2
1747.23
157.083
43.4057
424.748
1482.77
-818.031
97.1285
925.298
3306.91
4566.94
3310.36
3031.05
3089.76
12847.9
-451.598
14255.2
-1049.54
116.734
1047.7
-167.098
-1370.58
2778.25
-654.335
-217.511
-390.035
-769.86
653.103
-862.598
1936.69
-473.794
386.742
892.415
SCALARS density double 1
LOOKUP_TABLE default
996.876
1011.68
1005.28
1031.81
1009.75
1030.08
998.167
1030.52
990.56
1012.47
983.51
1065.15
975.566
1020.1
970.898
982.888
985.923
1025.04
1012.23
993.793
1028.91
1011.36
1020.56
1016.33
1014.83
1069.35
1039.14
999.462
1046.01
1257.87
1059.83
1246.9
1018.34
1001.63
1000.45
1004.43
1015.54
991.529
1001.01
1009.67
1034.99
1048.64
1035.03
1032.03
1032.66
1142.96
995.314
1159.81
989.144
1001.21
1010.96
998.264
985.847
1029.32
993.218
997.74
995.952
992.025
1006.82
991.069
1020.35
995.085
1004.03
1009.32
