# vtk DataFile Version 3.0
Frame: 30, Time: 0.51
ASCII
DATASET UNSTRUCTURED_GRID
POINTS 64 double
0.158929 0.489123 0 
0.154881 0.464951 0 
0.134843 0.494168 0 
0.131024 0.46999 0 
0.149289 0.439993 0 
0.144851 0.414579 0 
0.125002 0.445423 0 
0.120249 0.42047 0 
0.138841 0.390815 0 
0.134998 0.365999 0 
0.114676 0.395541 0 
0.110472 0.370222 0 
0.131399 0.341963 0 
0.123162 0.316058 0 
0.105796 0.346868 0 
0.0996909 0.321288 0 
0.111041 0.50012 0 
0.105113 0.475511 0 
0.0861099 0.50538 0 
0.0811784 0.480916 0 
0.0996975 0.451169 0 
0.0945727 0.426111 0 
0.075151 0.45624 0 
0.070937 0.431398 0 
0.0903512 0.401935 0 
0.085896 0.376847 0 
0.065515 0.406312 0 
0.0606922 0.382122 0 
0.0801777 0.352667 0 
0.0742972 0.327879 0 
0.0549908 0.357189 0 
0.0514007 0.333073 0 
0.0609798 0.511409 0 
0.056327 0.486273 0 
0.0361724 0.516388 0 
0.0312383 0.491223 0 
0.0506265 0.46154 0 
0.0460934 0.436458 0 
0.0264006 0.467086 0 
0.0215235 0.441914 0 
0.0415612 0.411943 0 
0.0361014 0.387808 0 
0.0170155 0.417001 0 
0.0116236 0.392907 0 
0.0311645 0.363463 0 
0.0279547 0.338423 0 
0.00687097 0.367211 0 
0.00294447 0.342303 0 
0.0110159 0.521797 0 
0.00728254 0.496824 0 
0.986462 0.526616 0 
0.981817 0.500946 0 
0.00167396 0.47227 0 
0.997473 0.446909 0 
0.975925 0.476669 0 
0.972824 0.451243 0 
0.992633 0.422402 0 
0.988097 0.3982 0 
0.967554 0.427138 0 
0.962795 0.402521 0 
0.983001 0.372585 0 
0.979081 0.346567 0 
0.957677 0.378236 0 
0.953748 0.353157 0 
CELLS 64 128
1 0
1 1
1 2
1 3
1 4
1 5
1 6
1 7
1 8
1 9
1 10
1 11
1 12
1 13
1 14
1 15
1 16
1 17
1 18
1 19
1 20
1 21
1 22
1 23
1 24
1 25
1 26
1 27
1 28
1 29
1 30
1 31
1 32
1 33
1 34
1 35
1 36
1 37
1 38
1 39
1 40
1 41
1 42
1 43
1 44
1 45
1 46
1 47
1 48
1 49
1 50
1 51
1 52
1 53
1 54
1 55
1 56
1 57
1 58
1 59
1 60
1 61
1 62
1 63
CELL_TYPES 64
1
1
1
1
1
1
1
1
1
1
1
1
1
1
1
1
1
1
1
1
1
1
1
1
1
1
1
1
1
1
1
1
1
1
1
1
1
1
1
1
1
1
1
1
1
1
1
1
1
1
1
1
1
1
1
1
1
1
1
1
1
1
1
1
POINT_DATA 64
VECTORS displacement double
-0.0535714 0.276623 0 
-0.0576185 0.227451 0 
-0.102657 0.281668 0 
-0.106476 0.23249 0 
-0.0632115 0.177493 0 
-0.0676486 0.127079 0 
-0.112498 0.182923 0 
-0.117251 0.13297 0 
-0.0736593 0.0783148 0 
-0.0775024 0.0284994 0 
-0.122824 0.0830406 0 
-0.127028 0.0327221 0 
-0.081101 -0.0205372 0 
-0.0893385 -0.0714423 0 
-0.131704 -0.0156318 0 
-0.137809 -0.0662121 0 
-0.151459 0.28762 0 
-0.157387 0.238011 0 
-0.20139 0.29288 0 
-0.206322 0.243416 0 
-0.162803 0.188669 0 
-0.167927 0.138611 0 
-0.212349 0.19374 0 
-0.216563 0.143898 0 
-0.172149 0.0894354 0 
-0.176604 0.0393466 0 
-0.221985 0.0938117 0 
-0.226808 0.0446224 0 
-0.182322 -0.00983347 0 
-0.188203 -0.0596206 0 
-0.232509 -0.00531089 0 
-0.236099 -0.0544269 0 
-0.25152 0.298909 0 
-0.256173 0.248773 0 
-0.301328 0.303888 0 
-0.306262 0.253723 0 
-0.261874 0.19904 0 
-0.266407 0.148958 0 
-0.311099 0.204586 0 
-0.315977 0.154414 0 
-0.270939 0.0994428 0 
-0.276399 0.0503082 0 
-0.320484 0.104501 0 
-0.325876 0.0554066 0 
-0.281336 0.000963347 0 
-0.284545 -0.0490771 0 
-0.330629 0.0047112 0 
-0.334556 -0.0451966 0 
-0.351484 0.309297 0 
-0.355217 0.259324 0 
-0.401038 0.314116 0 
-0.405683 0.263446 0 
-0.360826 0.20977 0 
-0.365027 0.159409 0 
-0.411575 0.214169 0 
-0.414676 0.163743 0 
-0.369867 0.109902 0 
-0.374403 0.0607001 0 
-0.419946 0.114638 0 
-0.424705 0.0650211 0 
-0.379499 0.0100852 0 
-0.383419 -0.0409325 0 
-0.429823 0.0157355 0 
-0.433752 -0.0343427 0 
VECTORS velocity double
0.145223 0.888071 0 
0.143325 0.606948 0 
-0.0453951 0.460188 0 
-0.069551 0.408671 0 
0.447543 1.02933 0 
0.546578 0.476258 0 
0.338902 0.423564 0 
0.257929 0.509646 0 
0.313715 1.0668 0 
0.681948 0.82575 0 
0.206517 0.625541 0 
0.449296 0.366462 0 
0.841153 1.13296 0 
1.31545 0.684149 0 
0.688606 0.365613 0 
1.18367 0.29198 0 
0.116199 0.44025 0 
0.398625 0.516256 0 
-0.282734 0.373737 0 
0.228951 0.27158 0 
0.0534989 0.681936 0 
0.343301 0.51211 0 
-0.125222 0.542183 0 
0.23014 0.429485 0 
0.570917 0.594942 0 
0.660223 -0.104658 0 
0.717011 0.666918 0 
0.450278 0.252022 0 
0.828148 0.23872 0 
0.852364 0.478443 0 
0.481065 0.574197 0 
0.844079 0.212366 0 
-0.0523522 0.533118 0 
0.330247 0.107072 0 
-0.161969 0.112232 0 
0.173701 0.123453 0 
0.14317 0.236091 0 
0.247707 0.0622683 0 
-0.0995779 0.344241 0 
0.179433 0.330239 0 
0.434728 0.0959678 0 
0.272231 -0.224233 0 
0.500854 0.137872 0 
0.317535 -0.196637 0 
0.532173 0.198532 0 
1.08508 -0.139248 0 
0.266584 0.139343 0 
0.748561 0.0221289 0 
-0.142658 0.479844 0 
0.388196 0.341909 0 
-0.314167 -0.262531 0 
0.221631 0.0174948 0 
-0.113392 0.123606 0 
0.34054 -0.0104328 0 
-0.0239921 -0.498602 0 
0.150645 -0.413449 0 
0.856196 0.20087 0 
0.699877 0.0636744 0 
0.367456 -0.00534309 0 
0.433393 -0.476257 0 
0.528608 0.241557 0 
0.862184 -0.319821 0 
0.548442 -0.336438 0 
0.622247 -0.237832 0 
SCALARS mass double 1
LOOKUP_TABLE default
0.625
0.625
0.625
0.625
0.625
0.625
0.625
0.625
0.625
0.625
0.625
0.625
0.625
0.625
0.625
0.625
0.625
0.625
0.625
0.625
0.625
0.625
0.625
0.625
0.625
0.625
0.625
0.625
0.625
0.625
0.625
0.625
0.625
0.625
0.625
0.625
0.625
0.625
0.625
0.625
0.625
0.625
0.625
0.625
0.625
0.625
0.625
0.625
0.625
0.625
0.625
0.625
0.625
0.625
0.625
0.625
0.625
0.625
0.625
0.625
0.625
0.625
0.625
0.625
SCALARS volume double 1
LOOKUP_TABLE default
0.00063051
0.000620804
0.000617172
0.00061931
0.000624675
0.00059528
0.000650944
0.000612299
0.000618715
0.000608244
0.000646822
0.000611233
0.000640965
0.000622183
0.00064392
0.000640457
0.000638139
0.000608146
0.000623336
0.000628192
0.000644423
0.00062899
0.000625335
0.000617002
0.000620849
0.000618953
0.000614989
0.000640108
0.000628416
0.000581182
0.000637286
0.000624077
0.000634467
0.000637874
0.00063651
0.000628018
0.00060146
0.000643046
0.000626731
0.000611716
0.000635405
0.000592042
0.000641235
0.000607839
0.000611543
0.000666689
0.000643551
0.000598281
0.000624094
0.000625132
0.000630163
0.000622357
0.000635503
0.000613031
0.000626976
0.000633471
0.000627117
0.00061441
0.000634192
0.000617076
0.000626524
0.000636582
0.000621546
0.00062719
VECTORS momentum double
0.0907643 0.555045 0 
0.0895781 0.379342 0 
-0.0283719 0.287618 0 
-0.0434694 0.255419 0 
0.279714 0.64333 0 
0.341611 0.297661 0 
0.211814 0.264727 0 
0.161206 0.318529 0 
0.196072 0.666752 0 
0.426217 0.516094 0 
0.129073 0.390963 0 
0.28081 0.229039 0 
0.525721 0.708101 0 
0.822157 0.427593 0 
0.430379 0.228508 0 
0.739795 0.182488 0 
0.0726247 0.275156 0 
0.249141 0.32266 0 
-0.176709 0.233586 0 
0.143094 0.169738 0 
0.0334368 0.42621 0 
0.214563 0.320069 0 
-0.0782638 0.338865 0 
0.143837 0.268428 0 
0.356823 0.371838 0 
0.412639 -0.0654114 0 
0.448132 0.416824 0 
0.281423 0.157514 0 
0.517592 0.1492 0 
0.532728 0.299027 0 
0.300665 0.358873 0 
0.527549 0.132729 0 
-0.0327201 0.333199 0 
0.206404 0.0669203 0 
-0.101231 0.0701452 0 
0.108563 0.0771583 0 
0.0894814 0.147557 0 
0.154817 0.0389177 0 
-0.0622362 0.215151 0 
0.112146 0.206399 0 
0.271705 0.0599799 0 
0.170144 -0.140145 0 
0.313034 0.0861701 0 
0.198459 -0.122898 0 
0.332608 0.124082 0 
0.678178 -0.0870303 0 
0.166615 0.0870895 0 
0.46785 0.0138306 0 
-0.0891614 0.299902 0 
0.242623 0.213693 0 
-0.196355 -0.164082 0 
0.138519 0.0109342 0 
-0.0708697 0.0772535 0 
0.212837 -0.00652049 0 
-0.014995 -0.311626 0 
0.0941531 -0.258405 0 
0.535123 0.125544 0 
0.437423 0.0397965 0 
0.22966 -0.00333943 0 
0.270871 -0.297661 0 
0.33038 0.150973 0 
0.538865 -0.199888 0 
0.342776 -0.210274 0 
0.388904 -0.148645 0 
VECTORS body_force double
0 -9.81 0 
0 -9.81 0 
0 -9.81 0 
0 -9.81 0 
0 -9.81 0 
0 -9.81 0 
0 -9.81 0 
0 -9.81 0 
0 -9.81 0 
0 -9.81 0 
0 -9.81 0 
0 -9.81 0 
0 -9.81 0 
0 -9.81 0 
0 -9.81 0 
0 -9.81 0 
0 -9.81 0 
0 -9.81 0 
0 -9.81 0 
0 -9.81 0 
0 -9.81 0 
0 -9.81 0 
0 -9.81 0 
0 -9.81 0 
0 -9.81 0 
0 -9.81 0 
0 -9.81 0 
0 -9.81 0 
0 -9.81 0 
0 -9.81 0 
0 -9.81 0 
0 -9.81 0 
0 -9.81 0 
0 -9.81 0 
0 -9.81 0 
0 -9.81 0 
0 -9.81 0 
0 -9.81 0 
0 -9.81 0 
0 -9.81 0 
0 -9.81 0 
0 -9.81 0 
0 -9.81 0 
0 -9.81 0 
0 -9.81 0 
0 -9.81 0 
0 -9.81 0 
0 -9.81 0 
0 -9.81 0 
0 -9.81 0 
0 -9.81 0 
0 -9.81 0 
0 -9.81 0 
0 -9.81 0 
0 -9.81 0 
0 -9.81 0 
0 -9.81 0 
0 -9.81 0 
0 -9.81 0 
0 -9.81 0 
0 -9.81 0 
0 -9.81 0 
0 -9.81 0 
0 -9.81 0 
TENSORS cauchy_stress double
1119.69 -245.852 0
-245.852 568.32 0
0 0 0

-787.779 -205.947 0
-205.947 -507.782 0
0 0 0

-2325.33 608.355 0
608.355 -98.4549 0
0 0 0

1780.34 -1844.78 0
-1844.78 -3539.25 0
0 0 0

210.529 1072.51 0
1072.51 -310.473 0
0 0 0

-3236.48 -851.769 0
-851.769 -6132.56 0
0 0 0

3919.55 3035.82 0
3035.82 3901.86 0
0 0 0

-452.346 -1459.93 0
-1459.93 -3495.96 0
0 0 0

-2695.5 223.358 0
223.358 751.77 0
0 0 0

64.4203 2337.27 0
2337.27 -5290.47 0
0 0 0

-798.332 -3963.16 0
-3963.16 7398.29 0
0 0 0

-586.047 -50.4551 0
-50.4551 -3697.17 0
0 0 0

2438.41 -982.067 0
-982.067 2412.24 0
0 0 0

-1631.45 821.836 0
821.836 762.57 0
0 0 0

5455.78 -693.46 0
-693.46 279.394 0
0 0 0

4386.58 1995.45 0
1995.45 311.486 0
0 0 0

3448.15 443.607 0
443.607 552.821 0
0 0 0

-4063.07 -1332.36 0
-1332.36 -1194.04 0
0 0 0

-218.23 -1209.86 0
-1209.86 -294.517 0
0 0 0

868.095 -1232.6 0
-1232.6 111.514 0
0 0 0

3339.32 419.694 0
419.694 2546.02 0
0 0 0

1624.81 -659.375 0
-659.375 -401.124 0
0 0 0

960.182 1172.75 0
1172.75 -857.183 0
0 0 0

-3513.96 -599.105 0
-599.105 1037.31 0
0 0 0

-1748.12 -587.051 0
-587.051 466.617 0
0 0 0

-1045.18 -1238.5 0
-1238.5 -824.439 0
0 0 0

-2136.2 -2476.59 0
-2476.59 -968.889 0
0 0 0

3500.63 761.361 0
761.361 1092.7 0
0 0 0

1784.01 -356.034 0
-356.034 -735.688 0
0 0 0

-7385.28 2956.78 0
2956.78 -6593.1 0
0 0 0

582.459 -2731.76 0
-2731.76 3161.13 0
0 0 0

625.934 -547.249 0
-547.249 -910.246 0
0 0 0

1709.34 -721.782 0
-721.782 1181.83 0
0 0 0

1663.58 -387.068 0
-387.068 2257.35 0
0 0 0

1540.55 -997.115 0
-997.115 1968.89 0
0 0 0

657.766 -1820.91 0
-1820.91 268.713 0
0 0 0

-4481.29 2196.17 0
2196.17 -2901.7 0
0 0 0

2880.02 -3352.01 0
-3352.01 2593.85 0
0 0 0

417.685 -222.93 0
-222.93 114.054 0
0 0 0

-3462.81 -912.333 0
-912.333 -668.704 0
0 0 0

1868.35 3424.31 0
3424.31 1306.85 0
0 0 0

-2719.48 -1878.71 0
-1878.71 -7698.77 0
0 0 0

1024.49 -819.41 0
-819.41 3907.1 0
0 0 0

-2631.78 -271.83 0
-271.83 -2722.41 0
0 0 0

-3310.93 889.532 0
889.532 -875.01 0
0 0 0

2385.12 593.677 0
593.677 10032.5 0
0 0 0

-1556.18 -158.769 0
-158.769 7181.09 0
0 0 0

-509.828 -1673.83 0
-1673.83 -7892.24 0
0 0 0

612.206 -271.528 0
-271.528 -891.175 0
0 0 0

-1247.99 -47.7885 0
-47.7885 1288.47 0
0 0 0

353.117 -152.803 0
-152.803 1229.12 0
0 0 0

324.164 -188.78 0
-188.78 -1139.1 0
0 0 0

2499.44 -973.72 0
-973.72 705.525 0
0 0 0

-2532.49 -388.212 0
-388.212 -1186.11 0
0 0 0

-382.669 -384.898 0
-384.898 989.724 0
0 0 0

1876.16 168.461 0
168.461 712.701 0
0 0 0

-237.802 -249.353 0
-249.353 888.179 0
0 0 0

-1037.34 2283.47 0
2283.47 -2249.15 0
0 0 0

1228.9 -1261.6 0
-1261.6 1578.77 0
0 0 0

-2164.22 560.466 0
560.466 -289.526 0
0 0 0

-1371.88 61.129 0
61.129 1840.38 0
0 0 0

-261.698 773.417 0
773.417 3792.81 0
0 0 0

-1396.82 -1210.44 0
-1210.44 331.017 0
0 0 0

-345.667 83.7916 0
83.7916 1018.47 0
0 0 0

TENSORS velocity_gradient double
0.0333249 -2.83467 0
4.10261 -0.367906 0
0 0 0

0.409793 -2.79341 0
2.95669 -0.542548 0
0 0 0

0.840745 -2.87353 0
3.6222 -1.05012 0
0 0 0

0.569846 -2.91705 0
3.21686 -1.11524 0
0 0 0

0.845018 -4.71267 0
2.56508 -1.37575 0
0 0 0

0.607684 -4.51987 0
3.89978 -1.43113 0
0 0 0

0.370121 -4.32305 0
3.0963 -0.826236 0
0 0 0

0.413577 -4.44105 0
3.92412 -0.622169 0
0 0 0

0.0806699 -5.075 0
5.18816 -1.08572 0
0 0 0

-0.857223 -5.22513 0
6.65079 -0.851585 0
0 0 0

0.239613 -5.83476 0
4.91739 0.262053 0
0 0 0

-0.691563 -6.15182 0
6.39245 0.593576 0
0 0 0

-1.31223 -8.80209 0
7.49126 0.097325 0
0 0 0

-0.945923 -8.68198 0
7.30822 0.0373063 0
0 0 0

-0.989955 -7.95323 0
7.15215 0.093433 0
0 0 0

2.01566 -8.09848 0
5.06286 -0.245963 0
0 0 0

0.551421 -3.00786 0
3.2747 -1.52965 0
0 0 0

0.579941 -3.19338 0
3.3614 -1.51409 0
0 0 0

-0.0112497 -2.07759 0
2.91458 -0.309297 0
0 0 0

0.05554 -3.07139 0
3.59983 -0.908938 0
0 0 0

0.332602 -3.76369 0
3.93042 -0.79718 0
0 0 0

-0.0624333 -4.51095 0
5.12662 0.154765 0
0 0 0

0.299283 -3.06796 0
4.53871 -0.638957 0
0 0 0

0.0168575 -4.93818 0
5.09302 0.565511 0
0 0 0

-0.375626 -5.1542 0
5.51532 0.518843 0
0 0 0

0.488836 -5.87601 0
5.17812 0.894579 0
0 0 0

-0.433947 -5.03865 0
5.51951 0.657961 0
0 0 0

0.250123 -4.76434 0
5.28118 0.414645 0
0 0 0

1.62722 -5.96095 0
4.68017 0.25146 0
0 0 0

3.47424 -6.22072 0
3.81523 -1.13408 0
0 0 0

1.17774 -4.52519 0
4.73235 0.322471 0
0 0 0

1.8118 -4.62044 0
4.79242 -1.66637 0
0 0 0

0.102878 -2.51344 0
2.92479 -0.377835 0
0 0 0

0.0001133 -2.82052 0
3.3919 0.0402695 0
0 0 0

0.393829 -3.317 0
3.38487 -0.47929 0
0 0 0

-0.374689 -2.9904 0
3.54048 0.685777 0
0 0 0

-0.209068 -2.82705 0
4.26519 0.2129 0
0 0 0

-0.717101 -5.29749 0
4.49245 0.889554 0
0 0 0

-0.672774 -3.05117 0
4.06094 0.791882 0
0 0 0

-0.882191 -5.3173 0
4.40484 0.846582 0
0 0 0

-0.883182 -5.31664 0
4.32714 0.898058 0
0 0 0

-0.566833 -3.94596 0
4.30356 0.228869 0
0 0 0

-0.883012 -5.31745 0
4.34049 0.834566 0
0 0 0

-0.70026 -3.31827 0
4.30069 0.242374 0
0 0 0

0.0568285 -3.81689 0
4.31698 0.231646 0
0 0 0

0.326202 -4.46532 0
5.2927 -0.145389 0
0 0 0

-0.0419551 -3.19419 0
4.31485 0.245043 0
0 0 0

0.347404 -4.57441 0
4.41022 1.44574 0
0 0 0

0.617459 -4.33895 0
3.39799 -0.539254 0
0 0 0

-0.262789 -3.57086 0
3.45303 0.790893 0
0 0 0

0.56389 -4.92975 0
6.58834 -0.37115 0
0 0 0

0.278029 -4.43107 0
6.87285 0.261374 0
0 0 0

-0.447032 -3.36756 0
4.90222 1.23212 0
0 0 0

-0.581453 -4.80339 0
5.5118 0.796946 0
0 0 0

-0.10693 -3.78364 0
6.55341 0.922129 0
0 0 0

-0.46316 -4.28486 0
6.06021 0.486143 0
0 0 0

-0.217896 -5.22268 0
5.17225 0.539067 0
0 0 0

0.0424622 -3.77617 0
4.51482 0.298328 0
0 0 0

-0.277791 -4.9143 0
5.33091 -0.277804 0
0 0 0

0.00841381 -4.30184 0
4.58715 -0.241371 0
0 0 0

0.141244 -2.97971 0
4.44113 0.248205 0
0 0 0

0.286511 -3.96774 0
3.68927 -0.917602 0
0 0 0

0.123688 -2.9026 0
4.44122 0.247772 0
0 0 0

0.333763 -3.03292 0
3.26629 -1.04964 0
0 0 0

SCALARS active double 1
LOOKUP_TABLE default
1
1
1
1
1
1
1
1
1
1
1
1
1
1
1
1
1
1
1
1
1
1
1
1
1
1
1
1
1
1
1
1
1
1
1
1
1
1
1
1
1
1
1
1
1
1
1
1
1
1
1
1
1
1
1
1
1
1
1
1
1
1
1
1
SCALARS extent double 1
LOOKUP_TABLE default
0.0125
0.0125
0.0125
0.0125
0.0125
0.0125
0.0125
0.0125
0.0125
0.0125
0.0125
0.0125
0.0125
0.0125
0.0125
0.0125
0.0125
0.0125
0.0125
0.0125
0.0125
0.0125
0.0125
0.0125
0.0125
0.0125
0.0125
0.0125
0.0125
0.0125
0.0125
0.0125
0.0125
0.0125
0.0125
0.0125
0.0125
0.0125
0.0125
0.0125
0.0125
0.0125
0.0125
0.0125
0.0125
0.0125
0.0125
0.0125
0.0125
0.0125
0.0125
0.0125
0.0125
0.0125
0.0125
0.0125
0.0125
0.0125
0.0125
0.0125
0.0125
0.0125
0.0125
0.0125
SCALARS pressure double 1
LOOKUP_TABLE default
-844.007
647.78
1211.89
879.457
49.9722
4684.52
-3910.7
1974.15
971.867
2613.03
-3299.98
2141.61
-2425.33
434.441
-2867.59
-2349.03
-2000.49
2628.55
256.373
-489.805
-2942.67
-611.841
-51.4993
1238.32
640.752
934.808
1552.55
-2296.66
-524.16
6989.19
-1871.8
142.156
-1445.59
-1960.47
-1754.72
-463.239
3691.49
-2736.93
-265.87
2065.76
-1587.6
5209.12
-2465.8
2677.09
2092.97
-6208.83
-2812.46
4201.04
139.485
-20.2403
-791.118
407.466
-1602.48
1859.3
-303.527
-1294.43
-325.189
1643.25
-1403.83
1226.87
-234.25
-1765.55
532.901
-336.402
SCALARS density double 1
LOOKUP_TABLE default
991.261
1006.76
1012.68
1009.19
1000.52
1049.93
960.145
1020.74
1010.16
1027.55
966.262
1022.52
975.092
1004.53
970.617
975.866
979.41
1027.71
1002.67
994.919
969.86
993.657
999.465
1012.96
1006.69
1009.77
1016.28
976.398
994.564
1075.39
980.722
1001.48
985.078
979.818
981.916
995.194
1039.14
971.937
997.239
1021.72
983.625
1055.67
974.682
1028.23
1022.01
937.469
971.174
1044.66
1001.45
999.79
991.806
1004.25
983.472
1019.52
996.848
986.628
996.624
1017.24
985.506
1012.84
997.567
981.806
1005.56
996.508
