# vtk DataFile Version 3.0
Frame: 34, Time: 0.578
ASCII
DATASET UNSTRUCTURED_GRID
POINTS 64 double
0.159736 0.51297 0 
0.163597 0.48877 0 
0.135329 0.510447 0 
0.139383 0.486182 0 
0.166309 0.463463 0 
0.168953 0.437723 0 
0.14158 0.46102 0 
0.143642 0.435947 0 
0.169132 0.413203 0 
0.172198 0.387962 0 
0.14469 0.410668 0 
0.148025 0.384752 0 
0.175905 0.363661 0 
0.177914 0.337208 0 
0.150779 0.360307 0 
0.154389 0.333794 0 
0.11082 0.508953 0 
0.113071 0.483774 0 
0.0855246 0.50635 0 
0.0884889 0.481551 0 
0.115674 0.459077 0 
0.117557 0.433491 0 
0.0903416 0.456279 0 
0.0934025 0.431234 0 
0.119836 0.408933 0 
0.122943 0.383535 0 
0.0951753 0.405548 0 
0.0976636 0.380978 0 
0.124739 0.358737 0 
0.1272 0.333074 0 
0.099634 0.355414 0 
0.103005 0.331636 0 
0.0600541 0.504231 0 
0.0630365 0.4789 0 
0.0351301 0.50151 0 
0.0376684 0.476031 0 
0.0650325 0.453648 0 
0.0680477 0.428511 0 
0.0400388 0.45154 0 
0.0426505 0.426106 0 
0.0707317 0.404008 0 
0.0725647 0.37939 0 
0.0455263 0.401193 0 
0.0474291 0.376648 0 
0.0750487 0.354449 0 
0.0793209 0.32978 0 
0.0504557 0.350721 0 
0.0546601 0.325851 0 
0.0095884 0.499379 0 
0.01332 0.474272 0 
0.984704 0.496818 0 
0.987798 0.471003 0 
0.0147925 0.449038 0 
0.0179448 0.423426 0 
0.988929 0.445889 0 
0.993225 0.420512 0 
0.0204302 0.398616 0 
0.0232012 0.374152 0 
0.995043 0.395885 0 
0.997508 0.37071 0 
0.0259063 0.348257 0 
0.0306683 0.322597 0 
0.999933 0.345513 0 
0.00439925 0.320665 0 
CELLS 64 128
1 0
1 1
1 2
1 3
1 4
1 5
1 6
1 7
1 8
1 9
1 10
1 11
1 12
1 13
1 14
1 15
1 16
1 17
1 18
1 19
1 20
1 21
1 22
1 23
1 24
1 25
1 26
1 27
1 28
1 29
1 30
1 31
1 32
1 33
1 34
1 35
1 36
1 37
1 38
1 39
1 40
1 41
1 42
1 43
1 44
1 45
1 46
1 47
1 48
1 49
1 50
1 51
1 52
1 53
1 54
1 55
1 56
1 57
1 58
1 59
1 60
1 61
1 62
1 63
CELL_TYPES 64
1
1
1
1
1
1
1
1
1
1
1
1
1
1
1
1
1
1
1
1
1
1
1
1
1
1
1
1
1
1
1
1
1
1
1
1
1
1
1
1
1
1
1
1
1
1
1
1
1
1
1
1
1
1
1
1
1
1
1
1
1
1
1
1
POINT_DATA 64
VECTORS displacement double
-0.0527638 0.30047 0 
-0.0489028 0.25127 0 
-0.102171 0.297947 0 
-0.0981169 0.248682 0 
-0.0461914 0.200963 0 
-0.0435466 0.150223 0 
-0.0959199 0.19852 0 
-0.0938576 0.148447 0 
-0.0433679 0.100703 0 
-0.0403024 0.0504617 0 
-0.0928098 0.0981676 0 
-0.0894746 0.0472522 0 
-0.0365947 0.00116102 0 
-0.0345864 -0.0502919 0 
-0.0867207 -0.00219342 0 
-0.0831113 -0.0537062 0 
-0.15168 0.296453 0 
-0.149429 0.246274 0 
-0.201975 0.29385 0 
-0.199011 0.244051 0 
-0.146826 0.196577 0 
-0.144943 0.145991 0 
-0.197158 0.193779 0 
-0.194097 0.143734 0 
-0.142664 0.0964334 0 
-0.139557 0.0460351 0 
-0.192325 0.0930485 0 
-0.189836 0.0434778 0 
-0.137761 -0.00376325 0 
-0.1353 -0.0544263 0 
-0.187866 -0.00708569 0 
-0.184495 -0.0558638 0 
-0.252446 0.291731 0 
-0.249463 0.2414 0 
-0.30237 0.28901 0 
-0.299832 0.238531 0 
-0.247468 0.191148 0 
-0.244452 0.141011 0 
-0.297461 0.18904 0 
-0.29485 0.138606 0 
-0.241768 0.0915078 0 
-0.239935 0.0418899 0 
-0.291974 0.0886929 0 
-0.290071 0.0391477 0 
-0.237451 -0.0080514 0 
-0.233179 -0.0577196 0 
-0.287044 -0.0117787 0 
-0.28284 -0.0616491 0 
-0.352912 0.286879 0 
-0.34918 0.236772 0 
-0.402796 0.284318 0 
-0.399702 0.233503 0 
-0.347707 0.186538 0 
-0.344555 0.135926 0 
-0.398571 0.183389 0 
-0.394275 0.133012 0 
-0.34207 0.0861156 0 
-0.339299 0.0366524 0 
-0.392457 0.0833851 0 
-0.389992 0.0332096 0 
-0.336594 -0.0142428 0 
-0.331832 -0.064903 0 
-0.387567 -0.0169865 0 
-0.383101 -0.0668351 0 
VECTORS velocity double
-0.221511 0.10718 0 
0.23125 0.07575 0 
-0.231124 -0.232759 0 
0.11519 -0.260743 0 
0.0950425 0.541363 0 
0.422188 -0.136431 0 
0.287937 -0.350737 0 
0.290131 -0.176815 0 
0.379812 0.467 0 
0.47592 0.0353779 0 
0.434953 0.0852527 0 
0.526581 -0.130005 0 
0.436144 0.290482 0 
0.872525 0.402696 0 
0.544419 -0.13049 0 
1.00407 -0.262796 0 
-0.109658 -0.278944 0 
0.420065 -0.16582 0 
-0.42229 -0.374065 0 
0.179633 -0.369667 0 
0.220589 -0.0918413 0 
0.332135 -0.298976 0 
0.0874568 -0.254401 0 
0.309844 -0.36088 0 
0.366832 -0.271367 0 
0.43721 -0.755137 0 
0.570841 0.00591956 0 
0.335438 -0.402117 0 
0.643676 -0.128125 0 
0.819194 -0.0549624 0 
0.515056 -0.245465 0 
0.74736 -0.268931 0 
-0.100785 -0.372491 0 
0.334478 -0.484728 0 
-0.177776 -0.911615 0 
0.18721 -0.627682 0 
0.348366 -0.647412 0 
0.444069 -0.767604 0 
0.0837433 -0.502367 0 
0.335142 -0.464051 0 
0.541991 -0.373597 0 
0.40895 -0.697408 0 
0.485591 -0.508866 0 
0.305371 -0.839114 0 
0.763179 -0.603028 0 
1.07564 -0.675502 0 
0.477137 -0.515979 0 
0.810156 -0.441377 0 
-0.17973 -0.510881 0 
0.393852 -0.67688 0 
-0.114032 -0.955547 0 
0.294887 -0.770599 0 
0.0996194 -0.580411 0 
0.444554 -0.538979 0 
0.211983 -1.05324 0 
0.427193 -0.924889 0 
0.585765 -0.450109 0 
0.404424 -0.635235 0 
0.468624 -0.739218 0 
0.492138 -1.2056 0 
0.595818 -0.298616 0 
1.02083 -0.593123 0 
0.718333 -0.920306 0 
0.851433 -0.783101 0 
SCALARS mass double 1
LOOKUP_TABLE default
0.625
0.625
0.625
0.625
0.625
0.625
0.625
0.625
0.625
0.625
0.625
0.625
0.625
0.625
0.625
0.625
0.625
0.625
0.625
0.625
0.625
0.625
0.625
0.625
0.625
0.625
0.625
0.625
0.625
0.625
0.625
0.625
0.625
0.625
0.625
0.625
0.625
0.625
0.625
0.625
0.625
0.625
0.625
0.625
0.625
0.625
0.625
0.625
0.625
0.625
0.625
0.625
0.625
0.625
0.625
0.625
0.625
0.625
0.625
0.625
0.625
0.625
0.625
0.625
SCALARS volume double 1
LOOKUP_TABLE default
0.000624986
0.000620758
0.000614604
0.000616556
0.000622624
0.000619677
0.000648869
0.000600636
0.000630987
0.000611085
0.000638534
0.00062082
0.000629595
0.000614825
0.000643792
0.000638084
0.000639353
0.000603451
0.000621786
0.000630474
0.000646235
0.000633293
0.000633026
0.000619878
0.0006141
0.000609995
0.00060748
0.000632661
0.000618088
0.000620653
0.000631511
0.000614857
0.000624086
0.000638531
0.000630733
0.000622855
0.0006069
0.000642883
0.000630057
0.000614083
0.000634711
0.000607071
0.000641425
0.000612451
0.000624088
0.000636369
0.000643523
0.000600619
0.000627185
0.000619221
0.000624479
0.000624801
0.000637345
0.000616802
0.000627572
0.000628439
0.0006314
0.000621969
0.000629645
0.000629258
0.000627415
0.00063302
0.000634425
0.000616532
VECTORS momentum double
-0.138444 0.0669877 0 
0.144531 0.0473438 0 
-0.144453 -0.145474 0 
0.0719938 -0.162964 0 
0.0594015 0.338352 0 
0.263868 -0.0852695 0 
0.17996 -0.219211 0 
0.181332 -0.11051 0 
0.237382 0.291875 0 
0.29745 0.0221112 0 
0.271846 0.0532829 0 
0.329113 -0.0812533 0 
0.27259 0.181551 0 
0.545328 0.251685 0 
0.340262 -0.081556 0 
0.627546 -0.164247 0 
-0.068536 -0.17434 0 
0.26254 -0.103637 0 
-0.263931 -0.233791 0 
0.112271 -0.231042 0 
0.137868 -0.0574008 0 
0.207584 -0.18686 0 
0.0546605 -0.159001 0 
0.193652 -0.22555 0 
0.22927 -0.169605 0 
0.273256 -0.471961 0 
0.356776 0.00369973 0 
0.209649 -0.251323 0 
0.402297 -0.0800783 0 
0.511996 -0.0343515 0 
0.32191 -0.153416 0 
0.4671 -0.168082 0 
-0.0629907 -0.232807 0 
0.209049 -0.302955 0 
-0.11111 -0.569759 0 
0.117006 -0.392302 0 
0.217728 -0.404632 0 
0.277543 -0.479753 0 
0.0523396 -0.313979 0 
0.209464 -0.290032 0 
0.338744 -0.233498 0 
0.255594 -0.43588 0 
0.303495 -0.318041 0 
0.190857 -0.524446 0 
0.476987 -0.376893 0 
0.672276 -0.422189 0 
0.298211 -0.322487 0 
0.506348 -0.275861 0 
-0.112331 -0.319301 0 
0.246158 -0.42305 0 
-0.0712697 -0.597217 0 
0.184304 -0.481625 0 
0.0622621 -0.362757 0 
0.277846 -0.336862 0 
0.13249 -0.658274 0 
0.266995 -0.578056 0 
0.366103 -0.281318 0 
0.252765 -0.397022 0 
0.29289 -0.462011 0 
0.307586 -0.753499 0 
0.372386 -0.186635 0 
0.638021 -0.370702 0 
0.448958 -0.575191 0 
0.532146 -0.489438 0 
VECTORS body_force double
0 -9.81 0 
0 -9.81 0 
0 -9.81 0 
0 -9.81 0 
0 -9.81 0 
0 -9.81 0 
0 -9.81 0 
0 -9.81 0 
0 -9.81 0 
0 -9.81 0 
0 -9.81 0 
0 -9.81 0 
0 -9.81 0 
0 -9.81 0 
0 -9.81 0 
0 -9.81 0 
0 -9.81 0 
0 -9.81 0 
0 -9.81 0 
0 -9.81 0 
0 -9.81 0 
0 -9.81 0 
0 -9.81 0 
0 -9.81 0 
0 -9.81 0 
0 -9.81 0 
0 -9.81 0 
0 -9.81 0 
0 -9.81 0 
0 -9.81 0 
0 -9.81 0 
0 -9.81 0 
0 -9.81 0 
0 -9.81 0 
0 -9.81 0 
0 -9.81 0 
0 -9.81 0 
0 -9.81 0 
0 -9.81 0 
0 -9.81 0 
0 -9.81 0 
0 -9.81 0 
0 -9.81 0 
0 -9.81 0 
0 -9.81 0 
0 -9.81 0 
0 -9.81 0 
0 -9.81 0 
0 -9.81 0 
0 -9.81 0 
0 -9.81 0 
0 -9.81 0 
0 -9.81 0 
0 -9.81 0 
0 -9.81 0 
0 -9.81 0 
0 -9.81 0 
0 -9.81 0 
0 -9.81 0 
0 -9.81 0 
0 -9.81 0 
0 -9.81 0 
0 -9.81 0 
0 -9.81 0 
TENSORS cauchy_stress double
253.764 290.166 0
290.166 -257.926 0
0 0 0

-302.463 -213.298 0
-213.298 -1007.08 0
0 0 0

-2983.68 -69.6446 0
-69.6446 -241.962 0
0 0 0

1958.86 -1040.2 0
-1040.2 -4574.78 0
0 0 0

-385.725 1726.92 0
1726.92 -346.842 0
0 0 0

1813.81 457.029 0
457.029 -3458.52 0
0 0 0

2160.37 1467.76 0
1467.76 5047.25 0
0 0 0

-1680.69 1606.09 0
1606.09 -5966.11 0
0 0 0

-80.0488 -2223.61 0
-2223.61 1913.44 0
0 0 0

-2013.54 2500.44 0
2500.44 -2316.53 0
0 0 0

579.662 -3586.89 0
-3586.89 3540.05 0
0 0 0

-1423.76 985.44 0
985.44 133.322 0
0 0 0

759.57 -719.633 0
-719.633 649.062 0
0 0 0

-1723.63 1270.62 0
1270.62 -1432.89 0
0 0 0

3710.32 -1292.7 0
-1292.7 1986.68 0
0 0 0

1926.15 234.997 0
234.997 2058.16 0
0 0 0

3231.42 689.864 0
689.864 1135.06 0
0 0 0

-3481.26 -2706.88 0
-2706.88 -3266.12 0
0 0 0

-424.024 -852.408 0
-852.408 -567.535 0
0 0 0

2299.37 -622.241 0
-622.241 -622.315 0
0 0 0

3883.73 -82.6581 0
-82.6581 2541.54 0
0 0 0

1950.76 1983.51 0
1983.51 584.03 0
0 0 0

1880.34 1869.94 0
1869.94 573.624 0
0 0 0

-2665.64 -631.587 0
-631.587 1083.03 0
0 0 0

-3518.02 798.807 0
798.807 134.589 0
0 0 0

-2425.09 -972.095 0
-972.095 -2248.29 0
0 0 0

-2463.3 -2108.28 0
-2108.28 -3004.55 0
0 0 0

1239.17 992.976 0
992.976 1103.65 0
0 0 0

-116.819 -307.385 0
-307.385 -2021.79 0
0 0 0

-1234.42 -228.842 0
-228.842 -107.805 0
0 0 0

879.963 -2612.5 0
-2612.5 1112.95 0
0 0 0

408.425 1196.91 0
1196.91 -3554.88 0
0 0 0

-110.276 637.208 0
637.208 -171.283 0
0 0 0

2250.29 -151.769 0
-151.769 1868.65 0
0 0 0

1080.44 -543.53 0
-543.53 675.551 0
0 0 0

617.208 -1260.13 0
-1260.13 -1278.19 0
0 0 0

-4315.55 1859.12 0
1859.12 -1335.98 0
0 0 0

5467.64 -2022.84 0
-2022.84 -42.4041 0
0 0 0

1174.79 529.528 0
529.528 374.923 0
0 0 0

-1616.55 -530.312 0
-530.312 -1772.23 0
0 0 0

783.629 3128.19 0
3128.19 2181.32 0
0 0 0

612.29 -581.937 0
-581.937 -6209.42 0
0 0 0

2260.78 -211.736 0
-211.736 2727.9 0
0 0 0

-1859.01 968.223 0
968.223 -2041.57 0
0 0 0

-1219.97 -458.752 0
-458.752 939.01 0
0 0 0

-1402.34 -1327.23 0
-1327.23 4868.96 0
0 0 0

-393.99 -1834.57 0
-1834.57 6010.52 0
0 0 0

-461.456 -129.988 0
-129.988 -7190.76 0
0 0 0

681.675 245.787 0
245.787 -10.6675 0
0 0 0

-2384.37 -334.896 0
-334.896 597.883 0
0 0 0

64.3348 -120.735 0
-120.735 -224.662 0
0 0 0

644.723 -306.089 0
-306.089 -705.928 0
0 0 0

2869.05 726.452 0
726.452 892.498 0
0 0 0

-1560.92 -112.635 0
-112.635 -978.353 0
0 0 0

-398.412 -246.723 0
-246.723 1188.03 0
0 0 0

287.109 413.527 0
413.527 768.163 0
0 0 0

999.781 -73.3493 0
-73.3493 959.431 0
0 0 0

-634.61 2562.55 0
2562.55 -300.203 0
0 0 0

793.476 -866.117 0
-866.117 630.393 0
0 0 0

-935.297 338.709 0
338.709 2241.03 0
0 0 0

-529.672 -128.296 0
-128.296 1271.43 0
0 0 0

-396.067 -1801.01 0
-1801.01 2848.18 0
0 0 0

985.931 -761.074 0
-761.074 1892.36 0
0 0 0

-315.011 -418.528 0
-418.528 -2308.24 0
0 0 0

TENSORS velocity_gradient double
0.239375 -5.07416 0
4.09825 -0.255432 0
0 0 0

0.534862 -5.0753 0
4.56991 -0.287701 0
0 0 0

0.287924 -4.67865 0
4.88555 -0.0613741 0
0 0 0

0.233085 -5.27595 0
4.87197 -0.161597 0
0 0 0

0.361062 -5.05758 0
4.70301 -0.301269 0
0 0 0

0.089533 -3.0589 0
4.79162 0.0287883 0
0 0 0

-0.0207141 -5.25514 0
5.00155 -0.172221 0
0 0 0

-0.0115524 -3.27213 0
5.22471 0.135418 0
0 0 0

-0.267496 -3.05739 0
4.82742 0.0286369 0
0 0 0

-0.588803 -4.4455 0
5.1972 -0.325021 0
0 0 0

0.186298 -3.27434 0
5.49568 0.126715 0
0 0 0

0.0984838 -4.62713 0
5.59964 0.273266 0
0 0 0

-0.849531 -4.40689 0
5.9026 -0.429471 0
0 0 0

-0.604345 -5.96756 0
5.80723 0.427326 0
0 0 0

-0.169216 -4.6223 0
5.93215 0.227892 0
0 0 0

-0.220125 -5.27702 0
5.76312 -0.405146 0
0 0 0

0.298752 -4.4857 0
4.87462 -0.256182 0
0 0 0

0.210097 -5.54126 0
4.88371 -0.026142 0
0 0 0

-0.0885628 -4.38202 0
5.0289 -0.174563 0
0 0 0

0.0878435 -5.56421 0
5.00386 -0.0256627 0
0 0 0

-0.0390012 -5.5164 0
5.01088 -0.0388384 0
0 0 0

0.0085807 -3.04555 0
5.25227 0.445499 0
0 0 0

0.322569 -5.5801 0
4.85958 -0.0158949 0
0 0 0

0.141696 -2.98733 0
4.60636 0.569055 0
0 0 0

0.221837 -3.06469 0
5.54413 0.419306 0
0 0 0

0.416019 -4.48355 0
5.74014 0.452273 0
0 0 0

-0.157155 -3.01224 0
4.4106 0.576477 0
0 0 0

0.0132193 -4.30543 0
4.62221 0.554424 0
0 0 0

0.591027 -4.49544 0
5.87321 0.443233 0
0 0 0

0.860084 -4.85356 0
6.07079 -0.393789 0
0 0 0

0.278818 -4.3268 0
4.87968 0.521241 0
0 0 0

0.656033 -4.56831 0
5.3633 -0.23003 0
0 0 0

-0.0799871 -4.46495 0
5.03893 0.084171 0
0 0 0

0.111284 -5.32778 0
4.98945 -0.17099 0
0 0 0

-0.236561 -4.34447 0
3.52858 0.0593564 0
0 0 0

0.0315982 -5.11045 0
3.72133 -0.114598 0
0 0 0

0.322005 -5.00761 0
4.8389 -0.0925899 0
0 0 0

0.107398 -3.32121 0
4.57589 0.272496 0
0 0 0

0.189975 -4.63686 0
3.94222 -0.0929967 0
0 0 0

0.0473896 -3.61779 0
3.84686 0.0150763 0
0 0 0

-0.197328 -3.40517 0
4.29793 0.332864 0
0 0 0

-0.133305 -4.12979 0
4.19674 0.516741 0
0 0 0

-0.148084 -3.73249 0
3.77132 0.204564 0
0 0 0

-0.169646 -3.98982 0
3.89488 0.501086 0
0 0 0

0.0404277 -4.17054 0
4.1366 0.401689 0
0 0 0

0.195427 -4.39799 0
3.7923 -0.530553 0
0 0 0

-0.0592934 -4.08128 0
4.01381 -0.0831 0
0 0 0

0.189476 -4.24207 0
3.78247 -0.935948 0
0 0 0

-0.203796 -4.1137 0
3.53198 0.062836 0
0 0 0

0.0446333 -4.92011 0
3.73875 0.139775 0
0 0 0

-0.0439231 -4.2011 0
3.43767 0.329606 0
0 0 0

0.0560318 -4.778 0
3.85302 0.49495 0
0 0 0

0.189454 -4.36503 0
3.9469 -0.0268921 0
0 0 0

0.0260617 -3.82166 0
3.82993 -0.146683 0
0 0 0

0.0525088 -4.28079 0
4.17641 -0.151096 0
0 0 0

-0.28222 -4.06805 0
4.02958 -0.313331 0
0 0 0

-0.152268 -3.9101 0
3.70913 0.296103 0
0 0 0

-0.189656 -3.99408 0
3.80824 0.620425 0
0 0 0

-0.455279 -3.93578 0
3.99252 0.617058 0
0 0 0

-0.096406 -3.92331 0
4.42102 0.856383 0
0 0 0

-0.162955 -3.9635 0
3.94212 -0.297568 0
0 0 0

0.0980712 -3.99613 0
4.04297 -0.953448 0
0 0 0

0.134706 -3.70939 0
4.49213 -0.645444 0
0 0 0

0.22695 -3.69819 0
4.00214 -0.921974 0
0 0 0

SCALARS active double 1
LOOKUP_TABLE default
1
1
1
1
1
1
1
1
1
1
1
1
1
1
1
1
1
1
1
1
1
1
1
1
1
1
1
1
1
1
1
1
1
1
1
1
1
1
1
1
1
1
1
1
1
1
1
1
1
1
1
1
1
1
1
1
1
1
1
1
1
1
1
1
SCALARS extent double 1
LOOKUP_TABLE default
0.0125
0.0125
0.0125
0.0125
0.0125
0.0125
0.0125
0.0125
0.0125
0.0125
0.0125
0.0125
0.0125
0.0125
0.0125
0.0125
0.0125
0.0125
0.0125
0.0125
0.0125
0.0125
0.0125
0.0125
0.0125
0.0125
0.0125
0.0125
0.0125
0.0125
0.0125
0.0125
0.0125
0.0125
0.0125
0.0125
0.0125
0.0125
0.0125
0.0125
0.0125
0.0125
0.0125
0.0125
0.0125
0.0125
0.0125
0.0125
0.0125
0.0125
0.0125
0.0125
0.0125
0.0125
0.0125
0.0125
0.0125
0.0125
0.0125
0.0125
0.0125
0.0125
0.0125
0.0125
SCALARS pressure double 1
LOOKUP_TABLE default
2.08127
654.774
1612.82
1307.96
366.283
822.354
-3603.81
3823.4
-916.697
2165.04
-2059.86
645.218
-704.316
1578.26
-2848.5
-1992.15
-2183.24
3373.69
495.78
-838.525
-3212.64
-1267.4
-1226.98
791.308
1691.72
2336.69
2733.92
-1171.41
1069.3
671.114
-996.454
1573.23
140.78
-2059.47
-877.996
330.492
2825.76
-2712.62
-774.856
1694.39
-1482.47
2798.57
-2494.34
1950.29
140.481
-1733.31
-2808.27
3826.11
-335.504
893.245
80.1634
30.6027
-1880.78
1269.63
-394.807
-527.636
-979.606
467.406
-711.935
-652.868
-370.878
-1226.06
-1439.15
1311.63
SCALARS density double 1
LOOKUP_TABLE default
1000.02
1006.83
1016.91
1013.7
1003.82
1008.59
963.214
1040.56
990.512
1022.77
978.805
1006.73
992.702
1016.55
970.81
979.495
977.55
1035.71
1005.17
991.317
967.141
986.906
987.32
1008.26
1017.75
1024.6
1028.84
987.891
1011.18
1007
989.69
1016.5
1001.47
978.809
990.91
1003.44
1029.82
972.183
991.974
1017.78
984.701
1029.53
974.392
1020.49
1001.46
982.135
971.216
1040.59
996.517
1009.33
1000.83
1000.32
980.63
1013.29
995.902
994.528
989.864
1004.87
992.623
993.233
996.15
987.33
985.144
1013.73
