# vtk DataFile Version 3.0
Frame: 55, Time: 0.935
ASCII
DATASET UNSTRUCTURED_GRID
POINTS 64 double
0.881551 0.340689 0 
0.906876 0.340924 0 
0.880951 0.315218 0 
0.906171 0.315958 0 
0.932467 0.340273 0 
0.959013 0.340802 0 
0.931711 0.31417 0 
0.95722 0.314617 0 
0.983697 0.338272 0 
0.00989814 0.336746 0 
0.983923 0.312836 0 
0.00924425 0.312094 0 
0.0340773 0.336661 0 
0.062948 0.334604 0 
0.032685 0.310633 0 
0.0611478 0.3109 0 
0.880682 0.292166 0 
0.907449 0.290985 0 
0.880977 0.266973 0 
0.90743 0.266878 0 
0.932994 0.289742 0 
0.958115 0.28866 0 
0.933483 0.265016 0 
0.958643 0.263886 0 
0.982147 0.286947 0 
0.00745334 0.286603 0 
0.98333 0.261133 0 
0.00864146 0.260655 0 
0.031275 0.284471 0 
0.0592069 0.283783 0 
0.0339063 0.258961 0 
0.0581061 0.25981 0 
0.879074 0.24148 0 
0.904836 0.241971 0 
0.878847 0.217698 0 
0.904715 0.217684 0 
0.930481 0.23945 0 
0.95722 0.237754 0 
0.929918 0.21609 0 
0.956716 0.212863 0 
0.98181 0.237146 0 
0.00695232 0.235702 0 
0.981714 0.212327 0 
0.0069316 0.210045 0 
0.0324831 0.235225 0 
0.0563387 0.236467 0 
0.0331843 0.209399 0 
0.0583401 0.210726 0 
0.877344 0.192866 0 
0.902414 0.192978 0 
0.875182 0.168621 0 
0.901075 0.16709 0 
0.928259 0.190889 0 
0.955362 0.189257 0 
0.926164 0.164538 0 
0.952641 0.164321 0 
0.980927 0.186849 0 
0.00557115 0.186968 0 
0.978599 0.16167 0 
0.00550101 0.161074 0 
0.0323319 0.184734 0 
0.0587175 0.1868 0 
0.0308699 0.160348 0 
0.0571141 0.161569 0 
CELLS 64 128
1 0
1 1
1 2
1 3
1 4
1 5
1 6
1 7
1 8
1 9
1 10
1 11
1 12
1 13
1 14
1 15
1 16
1 17
1 18
1 19
1 20
1 21
1 22
1 23
1 24
1 25
1 26
1 27
1 28
1 29
1 30
1 31
1 32
1 33
1 34
1 35
1 36
1 37
1 38
1 39
1 40
1 41
1 42
1 43
1 44
1 45
1 46
1 47
1 48
1 49
1 50
1 51
1 52
1 53
1 54
1 55
1 56
1 57
1 58
1 59
1 60
1 61
1 62
1 63
CELL_TYPES 64
1
1
1
1
1
1
1
1
1
1
1
1
1
1
1
1
1
1
1
1
1
1
1
1
1
1
1
1
1
1
1
1
1
1
1
1
1
1
1
1
1
1
1
1
1
1
1
1
1
1
1
1
1
1
1
1
1
1
1
1
1
1
1
1
POINT_DATA 64
VECTORS displacement double
-0.330949 0.128189 0 
-0.305624 0.103424 0 
-0.356549 0.102718 0 
-0.331329 0.0784582 0 
-0.280033 0.0777729 0 
-0.253487 0.0533018 0 
-0.305789 0.0516696 0 
-0.28028 0.0271172 0 
-0.228803 0.025772 0 
-0.202602 -0.00075449 0 
-0.253577 0.000335781 0 
-0.228256 -0.0254064 0 
-0.178423 -0.0258392 0 
-0.149552 -0.0528963 0 
-0.204815 -0.051867 0 
-0.176352 -0.0765998 0 
-0.381818 0.0796658 0 
-0.355051 0.0534848 0 
-0.406523 0.0544735 0 
-0.38007 0.029378 0 
-0.329506 0.0272418 0 
-0.304385 0.00115961 0 
-0.354017 0.00251589 0 
-0.328857 -0.0236138 0 
-0.280353 -0.025553 0 
-0.255047 -0.0508968 0 
-0.30417 -0.051367 0 
-0.278859 -0.0768452 0 
-0.231225 -0.0780291 0 
-0.203293 -0.103717 0 
-0.253594 -0.103539 0 
-0.229394 -0.12769 0 
-0.433426 0.0289802 0 
-0.407664 0.00447068 0 
-0.458653 0.00519825 0 
-0.432785 -0.0198159 0 
-0.382019 -0.0230497 0 
-0.35528 -0.0497457 0 
-0.407582 -0.0464098 0 
-0.380784 -0.0746374 0 
-0.33069 -0.0753539 0 
-0.305548 -0.101798 0 
-0.355786 -0.100173 0 
-0.330568 -0.127455 0 
-0.280017 -0.127275 0 
-0.256161 -0.151033 0 
-0.304316 -0.153101 0 
-0.27916 -0.176774 0 
-0.485156 -0.0196341 0 
-0.460086 -0.0445216 0 
-0.512318 -0.043879 0 
-0.486425 -0.0704099 0 
-0.434241 -0.071611 0 
-0.407138 -0.0982431 0 
-0.461336 -0.0979622 0 
-0.434859 -0.123179 0 
-0.381573 -0.125651 0 
-0.356929 -0.150532 0 
-0.408901 -0.15083 0 
-0.381999 -0.176426 0 
-0.330168 -0.177766 0 
-0.303782 -0.2007 0 
-0.35663 -0.202152 0 
-0.330386 -0.225931 0 
VECTORS velocity double
-1.75599 0.499334 0 
-1.77688 0.823909 0 
-1.34826 0.20649 0 
-1.46725 0.597365 0 
-1.67759 1.26305 0 
-1.94583 0.521576 0 
-1.40083 0.557359 0 
-1.72574 0.610408 0 
-2.28568 1.20932 0 
-1.73907 1.00637 0 
-1.67614 0.865713 0 
-1.4932 1.36061 0 
-2.20285 1.1472 0 
-1.87608 1.73491 0 
-1.79878 1.02799 0 
-1.3346 1.78785 0 
-1.09007 0.502152 0 
-1.17248 0.846115 0 
-1.19939 -0.0484631 0 
-1.44455 0.385424 0 
-1.28912 1.07067 0 
-1.41306 0.980401 0 
-1.22746 0.693851 0 
-1.06837 0.644087 0 
-1.47338 0.652693 0 
-1.19293 0.597402 0 
-1.03078 0.8513 0 
-0.952253 0.702515 0 
-1.55563 1.08438 0 
-1.6826 1.27594 0 
-1.37353 0.898725 0 
-1.25663 1.12727 0 
-0.905582 -0.107096 0 
-1.1082 0.601161 0 
-1.0568 -0.253231 0 
-1.20827 0.492651 0 
-1.11013 0.677612 0 
-1.24273 0.569379 0 
-1.51352 0.631573 0 
-1.55978 0.566213 0 
-1.66612 1.07409 0 
-1.36403 1.24775 0 
-2.04307 0.692724 0 
-1.77842 0.990444 0 
-1.27229 1.13692 0 
-1.3071 1.50817 0 
-1.86716 0.753946 0 
-1.86083 0.870971 0 
-1.56081 -0.12886 0 
-1.18886 0.359704 0 
-0.998445 -0.287121 0 
-0.920405 0.208969 0 
-1.20381 0.566772 0 
-0.897602 0.671116 0 
-0.936954 0.127741 0 
-1.19967 0.593634 0 
-1.38718 0.493457 0 
-1.61497 0.804008 0 
-1.4951 0.808297 0 
-1.24857 0.816982 0 
-2.06653 0.913361 0 
-2.24947 0.857449 0 
-1.85631 0.308863 0 
-1.65365 0.851884 0 
SCALARS mass double 1
LOOKUP_TABLE default
0.625
0.625
0.625
0.625
0.625
0.625
0.625
0.625
0.625
0.625
0.625
0.625
0.625
0.625
0.625
0.625
0.625
0.625
0.625
0.625
0.625
0.625
0.625
0.625
0.625
0.625
0.625
0.625
0.625
0.625
0.625
0.625
0.625
0.625
0.625
0.625
0.625
0.625
0.625
0.625
0.625
0.625
0.625
0.625
0.625
0.625
0.625
0.625
0.625
0.625
0.625
0.625
0.625
0.625
0.625
0.625
0.625
0.625
0.625
0.625
0.625
0.625
0.625
0.625
SCALARS volume double 1
LOOKUP_TABLE default
0.000619542
0.000629832
0.000622133
0.000625878
0.000625785
0.00061074
0.000622744
0.000636857
0.000615501
0.00062576
0.000659984
0.000603319
0.000625599
0.000641699
0.000663599
0.000610614
0.000611972
0.000614791
0.000633228
0.00062667
0.000617281
0.000606487
0.000641175
0.00062472
0.000629326
0.000590278
0.000617323
0.000664302
0.000605191
0.000638699
0.00061672
0.000636887
0.000613242
0.000621707
0.000602126
0.00062225
0.000623597
0.000657478
0.000616608
0.000621536
0.000608701
0.000620195
0.000636511
0.000638829
0.000589253
0.000605502
0.000641798
0.000637556
0.000637959
0.000633972
0.000612111
0.000584931
0.000641989
0.000618435
0.000654818
0.00062226
0.000632095
0.000616412
0.000645312
0.000657526
0.000609528
0.000629914
0.000619694
0.000639278
VECTORS momentum double
-1.09749 0.312084 0 
-1.11055 0.514943 0 
-0.842663 0.129056 0 
-0.917032 0.373353 0 
-1.04849 0.789406 0 
-1.21614 0.325985 0 
-0.875518 0.34835 0 
-1.07859 0.381505 0 
-1.42855 0.755825 0 
-1.08692 0.628979 0 
-1.04759 0.54107 0 
-0.933249 0.850381 0 
-1.37678 0.717 0 
-1.17255 1.08432 0 
-1.12424 0.642493 0 
-0.834122 1.1174 0 
-0.681292 0.313845 0 
-0.732799 0.528822 0 
-0.749618 -0.0302894 0 
-0.902845 0.24089 0 
-0.805701 0.669168 0 
-0.883161 0.612751 0 
-0.767165 0.433657 0 
-0.667734 0.402555 0 
-0.92086 0.407933 0 
-0.745579 0.373376 0 
-0.644239 0.532062 0 
-0.595158 0.439072 0 
-0.972268 0.677739 0 
-1.05163 0.797462 0 
-0.858458 0.561703 0 
-0.785394 0.704546 0 
-0.565989 -0.0669347 0 
-0.692625 0.375726 0 
-0.660502 -0.15827 0 
-0.755167 0.307907 0 
-0.693834 0.423507 0 
-0.776708 0.355862 0 
-0.945952 0.394733 0 
-0.974863 0.353883 0 
-1.04132 0.671304 0 
-0.852521 0.779845 0 
-1.27692 0.432953 0 
-1.11151 0.619028 0 
-0.795178 0.710577 0 
-0.816936 0.942604 0 
-1.16697 0.471216 0 
-1.16302 0.544357 0 
-0.975504 -0.0805376 0 
-0.743038 0.224815 0 
-0.624028 -0.179451 0 
-0.575253 0.130606 0 
-0.752382 0.354232 0 
-0.561001 0.419447 0 
-0.585596 0.0798383 0 
-0.749791 0.371021 0 
-0.866986 0.308411 0 
-1.00936 0.502505 0 
-0.934438 0.505185 0 
-0.780358 0.510614 0 
-1.29158 0.57085 0 
-1.40592 0.535906 0 
-1.16019 0.19304 0 
-1.03353 0.532428 0 
VECTORS body_force double
0 -9.81 0 
0 -9.81 0 
0 -9.81 0 
0 -9.81 0 
0 -9.81 0 
0 -9.81 0 
0 -9.81 0 
0 -9.81 0 
0 -9.81 0 
0 -9.81 0 
0 -9.81 0 
0 -9.81 0 
0 -9.81 0 
0 -9.81 0 
0 -9.81 0 
0 -9.81 0 
0 -9.81 0 
0 -9.81 0 
0 -9.81 0 
0 -9.81 0 
0 -9.81 0 
0 -9.81 0 
0 -9.81 0 
0 -9.81 0 
0 -9.81 0 
0 -9.81 0 
0 -9.81 0 
0 -9.81 0 
0 -9.81 0 
0 -9.81 0 
0 -9.81 0 
0 -9.81 0 
0 -9.81 0 
0 -9.81 0 
0 -9.81 0 
0 -9.81 0 
0 -9.81 0 
0 -9.81 0 
0 -9.81 0 
0 -9.81 0 
0 -9.81 0 
0 -9.81 0 
0 -9.81 0 
0 -9.81 0 
0 -9.81 0 
0 -9.81 0 
0 -9.81 0 
0 -9.81 0 
0 -9.81 0 
0 -9.81 0 
0 -9.81 0 
0 -9.81 0 
0 -9.81 0 
0 -9.81 0 
0 -9.81 0 
0 -9.81 0 
0 -9.81 0 
0 -9.81 0 
0 -9.81 0 
0 -9.81 0 
0 -9.81 0 
0 -9.81 0 
0 -9.81 0 
0 -9.81 0 
TENSORS cauchy_stress double
1074.89 246.675 0
246.675 -2761.53 0
0 0 0

1669.04 -237.876 0
-237.876 -188.129 0
0 0 0

-287.402 523.276 0
523.276 -596.713 0
0 0 0

-1208.88 -1002.08 0
-1002.08 1478.73 0
0 0 0

26.8036 200.451 0
200.451 214.659 0
0 0 0

389.836 1407.77 0
1407.77 -4828.21 0
0 0 0

1184.02 -2737.45 0
-2737.45 -1879.46 0
0 0 0

1420.41 -1306.73 0
-1306.73 2193.66 0
0 0 0

-1628.77 800.373 0
800.373 -1316.54 0
0 0 0

572.901 -50.0996 0
-50.0996 -339.34 0
0 0 0

6067.22 376.584 0
376.584 4406.7 0
0 0 0

-5542.77 -2180.5 0
-2180.5 -1246.78 0
0 0 0

772.872 658.48 0
658.48 -588.689 0
0 0 0

3154.17 663.198 0
663.198 1916.55 0
0 0 0

5339.3 2366.15 0
2366.15 6185.01 0
0 0 0

-4379.71 -3407.21 0
-3407.21 -98.5406 0
0 0 0

376.868 -2561.5 0
-2561.5 -4427.72 0
0 0 0

1594.08 -4000.63 0
-4000.63 -4761.17 0
0 0 0

2665 2918.96 0
2918.96 -149.685 0
0 0 0

2204.86 352.167 0
352.167 -1691.84 0
0 0 0

663.963 -2325.22 0
-2325.22 -3053.78 0
0 0 0

-5244.47 -4174.94 0
-4174.94 -537.924 0
0 0 0

2885.44 -362.552 0
-362.552 2028.31 0
0 0 0

-1316.86 -1963.45 0
-1963.45 1230.6 0
0 0 0

-422.919 -3536.4 0
-3536.4 1749.33 0
0 0 0

-8200.66 -2080.19 0
-2080.19 -2791.34 0
0 0 0

-2136.42 -1406.01 0
-1406.01 -240.232 0
0 0 0

5382.99 -1834.45 0
-1834.45 6344.81 0
0 0 0

-2080.79 -1778.26 0
-1778.26 -4112.96 0
0 0 0

3779.38 -1002.62 0
-1002.62 390.227 0
0 0 0

-3199.32 -2922.17 0
-2922.17 634.478 0
0 0 0

3063.63 -916.18 0
-916.18 559.439 0
0 0 0

-2059.75 3166.28 0
3166.28 -1592.57 0
0 0 0

692.259 2743.33 0
2743.33 -1708.12 0
0 0 0

-708.053 -146.738 0
-146.738 -6462.14 0
0 0 0

1810.02 646.081 0
646.081 -2658.06 0
0 0 0

3079.57 -2880.07 0
-2880.07 -3511.83 0
0 0 0

3596.2 1248.34 0
1248.34 6146.09 0
0 0 0

-29.1861 -2917.11 0
-2917.11 -2570.57 0
0 0 0

1870.63 -2375.71 0
-2375.71 -2939.42 0
0 0 0

-1514.5 -5118.6 0
-5118.6 -3567.26 0
0 0 0

-1574.29 1653.73 0
1653.73 90.2712 0
0 0 0

-503.547 1740.69 0
1740.69 4013.06 0
0 0 0

3369.85 -1930.51 0
-1930.51 838.756 0
0 0 0

-3384.28 -1788.16 0
-1788.16 -7941.92 0
0 0 0

-4809.64 1274.41 0
1274.41 -1285.22 0
0 0 0

1654.6 2752.02 0
2752.02 3445.84 0
0 0 0

2244.13 1177.5 0
1177.5 1580.83 0
0 0 0

2081.98 1453.94 0
1453.94 1864.5 0
0 0 0

1497.86 3120 0
3120 1243.16 0
0 0 0

77.304 1873.74 0
1873.74 -4084.71 0
0 0 0

-8621.95 -260.981 0
-260.981 -4119.96 0
0 0 0

3027 -592.008 0
-592.008 2130.66 0
0 0 0

3444.61 -2795.24 0
-2795.24 -5475.26 0
0 0 0

6197.63 851.735 0
851.735 2764.99 0
0 0 0

844.322 -731.037 0
-731.037 -1689.2 0
0 0 0

1299.38 1989.96 0
1989.96 871.48 0
0 0 0

1629.73 -2980.11 0
-2980.11 -4290.55 0
0 0 0

8799.82 -1047.27 0
-1047.27 -2649.39 0
0 0 0

4964.89 -898.018 0
-898.018 4791.47 0
0 0 0

-246.907 -463.484 0
-463.484 -4573.7 0
0 0 0

688.016 246.944 0
246.944 818.128 0
0 0 0

1450.09 -1238.83 0
-1238.83 -3089.71 0
0 0 0

2434.58 34.0957 0
34.0957 1909.35 0
0 0 0

TENSORS velocity_gradient double
-0.494639 -7.22405 0
4.22003 2.72976 0
0 0 0

-2.97557 -6.85283 0
3.79157 2.0595 0
0 0 0

-1.15374 -7.24439 0
5.05474 2.75553 0
0 0 0

-2.78085 -6.84596 0
4.13179 2.0715 0
0 0 0

-2.96973 -7.05342 0
3.80177 1.70903 0
0 0 0

-2.51685 -7.52756 0
2.98575 1.62359 0
0 0 0

-2.76607 -7.04605 0
4.15761 1.7219 0
0 0 0

-1.66766 -7.4628 0
2.66839 1.59939 0
0 0 0

-2.43242 -8.33085 0
2.9542 1.92379 0
0 0 0

0.460654 -8.4017 0
6.35512 1.75586 0
0 0 0

-1.60758 -8.3313 0
2.64594 1.92396 0
0 0 0

-0.378951 -8.43108 0
7.07691 1.78112 0
0 0 0

0.452532 -7.57699 0
6.3621 1.04688 0
0 0 0

0.746118 -6.36988 0
8.29155 0.513652 0
0 0 0

-0.434395 -7.63125 0
7.12457 1.09352 0
0 0 0

-0.420324 -6.46604 0
8.48324 0.529456 0
0 0 0

-1.57268 -3.29383 0
5.61955 4.59369 0
0 0 0

-2.74706 -3.13356 0
4.79544 4.00009 0
0 0 0

-1.68619 -3.29287 0
5.86719 4.59158 0
0 0 0

-2.96228 -3.13441 0
5.93331 4.00455 0
0 0 0

-2.75927 -2.90399 0
4.85998 2.78633 0
0 0 0

-1.01572 -2.92454 0
2.91461 1.72049 0
0 0 0

-2.98031 -2.90023 0
6.02865 2.76649 0
0 0 0

-0.599611 -2.93221 0
3.75755 1.70496 0
0 0 0

-0.985753 -3.32917 0
2.97532 0.900788 0
0 0 0

-0.832717 -3.5581 0
6.56119 0.86401 0
0 0 0

-0.551771 -3.34764 0
3.85447 0.863388 0
0 0 0

-0.969408 -3.55232 0
5.0437 0.928201 0
0 0 0

-0.844754 -3.43246 0
6.42756 2.25873 0
0 0 0

-1.36235 -3.05154 0
6.28254 4.66143 0
0 0 0

-0.978985 -3.41904 0
4.93738 2.40775 0
0 0 0

-2.00804 -3.08337 0
3.17976 4.5085 0
0 0 0

-1.21486 1.98524 0
6.1843 3.27407 0
0 0 0

-2.94041 0.652639 0
6.93711 2.75412 0
0 0 0

0.270369 1.99648 0
6.59907 3.27721 0
0 0 0

-2.50041 0.656791 0
7.61725 2.75655 0
0 0 0

-2.92817 0.227358 0
7.0284 2.0185 0
0 0 0

-1.96908 0.979481 0
4.23383 1.47654 0
0 0 0

-2.54758 0.236495 0
7.69616 2.03453 0
0 0 0

-5.02105 0.920366 0
4.28885 1.47761 0
0 0 0

-2.05645 4.00551 0
4.23541 1.422 0
0 0 0

-1.81089 6.50567 0
3.64078 1.84589 0
0 0 0

-5.09991 4.00593 0
4.29027 1.42199 0
0 0 0

-3.14195 6.51328 0
2.23421 1.85393 0
0 0 0

-1.84043 7.83525 0
3.60956 3.25088 0
0 0 0

-2.42103 8.76474 0
1.06964 4.66334 0
0 0 0

-3.17846 7.88233 0
2.19563 3.30063 0
0 0 0

-2.73583 8.79217 0
-0.663445 4.81433 0
0 0 0

1.65093 -3.93703 0
6.81068 1.69908 0
0 0 0

-1.58253 -4.6096 0
7.79775 2.02114 0
0 0 0

2.59256 -3.84937 0
6.48774 1.66901 0
0 0 0

-1.16235 -4.59765 0
7.35003 2.0035 0
0 0 0

-2.50788 -4.10752 0
8.03966 2.30515 0
0 0 0

-6.75855 -3.50399 0
4.2213 2.58311 0
0 0 0

-3.10021 -4.15735 0
7.75487 2.28119 0
0 0 0

-6.4837 -3.56533 0
4.73021 2.55659 0
0 0 0

-6.81154 -2.96059 0
4.20041 2.79732 0
0 0 0

-4.3389 -2.21418 0
1.29034 3.17274 0
0 0 0

-7.34158 -3.0117 0
3.99147 2.77717 0
0 0 0

-5.68206 -2.22084 0
0.47004 3.16867 0
0 0 0

-4.45649 -0.815694 0
1.21852 4.02683 0
0 0 0

-3.0454 0.15513 0
0.194868 3.38985 0
0 0 0

-5.7203 -0.893241 0
0.446684 3.97947 0
0 0 0

-3.38429 0.133497 0
2.91326 3.56338 0
0 0 0

SCALARS active double 1
LOOKUP_TABLE default
1
1
1
1
1
1
1
1
1
1
1
1
1
1
1
1
1
1
1
1
1
1
1
1
1
1
1
1
1
1
1
1
1
1
1
1
1
1
1
1
1
1
1
1
1
1
1
1
1
1
1
1
1
1
1
1
1
1
1
1
1
1
1
1
SCALARS extent double 1
LOOKUP_TABLE default
0.0125
0.0125
0.0125
0.0125
0.0125
0.0125
0.0125
0.0125
0.0125
0.0125
0.0125
0.0125
0.0125
0.0125
0.0125
0.0125
0.0125
0.0125
0.0125
0.0125
0.0125
0.0125
0.0125
0.0125
0.0125
0.0125
0.0125
0.0125
0.0125
0.0125
0.0125
0.0125
0.0125
0.0125
0.0125
0.0125
0.0125
0.0125
0.0125
0.0125
0.0125
0.0125
0.0125
0.0125
0.0125
0.0125
0.0125
0.0125
0.0125
0.0125
0.0125
0.0125
0.0125
0.0125
0.0125
0.0125
0.0125
0.0125
0.0125
0.0125
0.0125
0.0125
0.0125
0.0125
SCALARS pressure double 1
LOOKUP_TABLE default
843.319
-740.457
442.057
-134.926
-120.731
2219.19
347.721
-1807.03
1472.65
-116.78
-5236.96
3394.77
-92.0914
-2535.36
-5762.16
2239.12
2025.43
1583.55
-1257.66
-256.513
1194.91
2891.2
-2456.88
43.1313
-663.205
5496
1188.33
-5863.9
3096.88
-2084.81
1282.42
-1811.54
1826.16
507.929
3585.1
424.018
216.133
-4871.15
1299.88
534.398
2540.88
742.012
-1754.76
-2104.3
5663.1
3047.43
-2550.22
-1912.48
-1973.24
-1370.51
2003.7
6370.95
-2578.83
1015.32
-4481.31
422.439
-1085.43
1330.41
-3075.22
-4878.18
2410.3
-753.072
819.811
-2171.96
SCALARS density double 1
LOOKUP_TABLE default
1008.81
992.329
1004.61
998.598
998.745
1023.35
1003.62
981.382
1015.43
998.786
946.992
1035.94
999.043
973.977
941.834
1023.56
1021.29
1016.61
987.006
997.336
1012.5
1030.53
974.772
1000.45
993.126
1058.82
1012.44
940.838
1032.73
978.551
1013.43
981.336
1019.17
1005.3
1037.99
1004.42
1002.25
950.602
1013.61
1005.57
1026.78
1007.75
981.916
978.353
1060.67
1032.2
973.826
980.307
979.687
985.848
1021.06
1068.5
973.537
1010.62
954.464
1004.4
988.775
1013.93
968.524
950.532
1025.38
992.199
1008.56
977.665
