# vtk DataFile Version 3.0
Frame: 51, Time: 0.867
ASCII
DATASET UNSTRUCTURED_GRID
POINTS 64 double
0.468832 0.238074 0 
0.46631 0.214668 0 
0.44033 0.24009 0 
0.439122 0.215612 0 
0.465619 0.18865 0 
0.469228 0.165048 0 
0.438795 0.18934 0 
0.440657 0.164061 0 
0.466297 0.139705 0 
0.468819 0.114382 0 
0.440121 0.138973 0 
0.441607 0.113429 0 
0.472446 0.0920774 0 
0.476824 0.0662587 0 
0.445349 0.0886638 0 
0.450272 0.0634322 0 
0.411407 0.239243 0 
0.412486 0.214387 0 
0.386722 0.243352 0 
0.385985 0.217502 0 
0.414009 0.189768 0 
0.415055 0.163713 0 
0.388656 0.191259 0 
0.39052 0.163588 0 
0.414284 0.136959 0 
0.41748 0.112115 0 
0.389508 0.137685 0 
0.392086 0.110801 0 
0.421668 0.0871637 0 
0.425318 0.0604769 0 
0.396419 0.0851224 0 
0.399256 0.0609871 0 
0.359936 0.242539 0 
0.361017 0.215631 0 
0.331778 0.242506 0 
0.335203 0.213889 0 
0.362908 0.190284 0 
0.365217 0.163139 0 
0.338134 0.188072 0 
0.340084 0.161272 0 
0.365314 0.135987 0 
0.366853 0.109592 0 
0.341439 0.135386 0 
0.342038 0.109129 0 
0.370346 0.0834045 0 
0.372399 0.0576358 0 
0.345526 0.0821586 0 
0.347255 0.05562 0 
0.307973 0.240053 0 
0.310902 0.211367 0 
0.282073 0.235798 0 
0.284982 0.208583 0 
0.312204 0.186652 0 
0.313977 0.161129 0 
0.285365 0.18364 0 
0.289469 0.157693 0 
0.316293 0.134517 0 
0.318358 0.107444 0 
0.293121 0.131225 0 
0.292951 0.105462 0 
0.320806 0.0812033 0 
0.322267 0.0536663 0 
0.294053 0.0792115 0 
0.295091 0.0553675 0 
CELLS 64 128
1 0
1 1
1 2
1 3
1 4
1 5
1 6
1 7
1 8
1 9
1 10
1 11
1 12
1 13
1 14
1 15
1 16
1 17
1 18
1 19
1 20
1 21
1 22
1 23
1 24
1 25
1 26
1 27
1 28
1 29
1 30
1 31
1 32
1 33
1 34
1 35
1 36
1 37
1 38
1 39
1 40
1 41
1 42
1 43
1 44
1 45
1 46
1 47
1 48
1 49
1 50
1 51
1 52
1 53
1 54
1 55
1 56
1 57
1 58
1 59
1 60
1 61
1 62
1 63
CELL_TYPES 64
1
1
1
1
1
1
1
1
1
1
1
1
1
1
1
1
1
1
1
1
1
1
1
1
1
1
1
1
1
1
1
1
1
1
1
1
1
1
1
1
1
1
1
1
1
1
1
1
1
1
1
1
1
1
1
1
1
1
1
1
1
1
1
1
POINT_DATA 64
VECTORS displacement double
-0.143668 -0.0744263 0 
-0.14619 -0.122832 0 
-0.19717 -0.0724102 0 
-0.198378 -0.121888 0 
-0.146881 -0.17385 0 
-0.143272 -0.222452 0 
-0.198705 -0.17316 0 
-0.196843 -0.223439 0 
-0.146203 -0.272795 0 
-0.143681 -0.323118 0 
-0.197379 -0.273527 0 
-0.195893 -0.324071 0 
-0.140054 -0.370423 0 
-0.135676 -0.421241 0 
-0.192151 -0.373836 0 
-0.187228 -0.424068 0 
-0.251093 -0.0732572 0 
-0.250014 -0.123113 0 
-0.300778 -0.0691484 0 
-0.301515 -0.119998 0 
-0.248491 -0.172732 0 
-0.247445 -0.223787 0 
-0.298844 -0.171241 0 
-0.29698 -0.223912 0 
-0.248216 -0.275541 0 
-0.24502 -0.325385 0 
-0.297992 -0.274815 0 
-0.295414 -0.326699 0 
-0.240832 -0.375336 0 
-0.237182 -0.427023 0 
-0.291081 -0.377378 0 
-0.288244 -0.426513 0 
-0.352564 -0.0699612 0 
-0.351483 -0.121869 0 
-0.405722 -0.0699943 0 
-0.402297 -0.123611 0 
-0.349592 -0.172216 0 
-0.347283 -0.224361 0 
-0.399366 -0.174428 0 
-0.397416 -0.226228 0 
-0.347186 -0.276513 0 
-0.345647 -0.327908 0 
-0.396061 -0.277114 0 
-0.395462 -0.328371 0 
-0.342154 -0.379095 0 
-0.340101 -0.429864 0 
-0.391974 -0.380341 0 
-0.390245 -0.43188 0 
-0.454527 -0.0724473 0 
-0.451598 -0.126133 0 
-0.505427 -0.0767022 0 
-0.502518 -0.128917 0 
-0.450296 -0.175848 0 
-0.448523 -0.226371 0 
-0.502135 -0.17886 0 
-0.498031 -0.229807 0 
-0.446207 -0.277983 0 
-0.444142 -0.330056 0 
-0.494379 -0.281275 0 
-0.494549 -0.332038 0 
-0.441694 -0.381297 0 
-0.440233 -0.433834 0 
-0.493447 -0.383289 0 
-0.492409 -0.432132 0 
VECTORS velocity double
-0.244417 -0.251228 0 
-0.49263 -0.14247 0 
-0.0458488 0.501844 0 
-0.686708 0.711247 0 
-0.923601 -0.496697 0 
-0.211769 0.0621567 0 
-0.783601 0.20055 0 
-0.419928 -0.0222712 0 
-0.682447 -0.330058 0 
-0.192217 -0.52497 0 
-0.318006 -0.150077 0 
-0.354668 -0.605175 0 
-0.629795 -0.271488 0 
-0.535484 -0.518034 0 
-0.39771 -0.711171 0 
-0.535683 -0.904759 0 
-0.18004 -0.106428 0 
-0.481251 0.363627 0 
-0.00252396 0.449911 0 
-0.669733 0.478118 0 
-0.100399 0.333042 0 
0.0962394 -0.0178601 0 
-0.566308 0.0481737 0 
-0.354065 -0.11329 0 
-0.240067 0.288932 0 
0.0154135 -0.157952 0 
-0.421314 0.340423 0 
-0.024209 0.00790767 0 
-0.0921101 -0.368888 0 
-0.661994 -0.556381 0 
-0.453494 0.247278 0 
-1.17701 0.229989 0 
-0.0858708 -0.0879648 0 
-0.0746611 0.591697 0 
-0.661292 0.825887 0 
-0.0910672 0.35648 0 
-0.340992 -0.024707 0 
0.230801 -0.36652 0 
-0.392983 0.627634 0 
-0.0946479 0.216121 0 
0.11021 0.34846 0 
0.301775 -0.114026 0 
-0.179621 0.756712 0 
-0.391309 0.419398 0 
-0.326289 0.450826 0 
-0.68991 0.607773 0 
-0.764013 0.291954 0 
-0.655122 0.64831 0 
-0.40592 0.224463 0 
-0.00823505 -0.0602255 0 
-0.521926 -0.0720083 0 
0.300392 0.0373568 0 
0.0178174 0.624783 0 
-0.0709522 0.326432 0 
-0.0892463 0.0923385 0 
-0.281783 0.110714 0 
-0.329783 0.446115 0 
-0.146477 0.542692 0 
0.329857 0.397629 0 
-0.147906 0.353447 0 
-0.0806319 0.325291 0 
-0.335103 0.125657 0 
-1.13435 0.634522 0 
-0.335619 0.660889 0 
SCALARS mass double 1
LOOKUP_TABLE default
0.625
0.625
0.625
0.625
0.625
0.625
0.625
0.625
0.625
0.625
0.625
0.625
0.625
0.625
0.625
0.625
0.625
0.625
0.625
0.625
0.625
0.625
0.625
0.625
0.625
0.625
0.625
0.625
0.625
0.625
0.625
0.625
0.625
0.625
0.625
0.625
0.625
0.625
0.625
0.625
0.625
0.625
0.625
0.625
0.625
0.625
0.625
0.625
0.625
0.625
0.625
0.625
0.625
0.625
0.625
0.625
0.625
0.625
0.625
0.625
0.625
0.625
0.625
0.625
SCALARS volume double 1
LOOKUP_TABLE default
0.000617138
0.000624805
0.000625928
0.000625901
0.000634362
0.000623089
0.000627267
0.000592542
0.00061868
0.000620901
0.00060111
0.00060376
0.000616643
0.000619104
0.000654729
0.000622818
0.000614495
0.000667859
0.000635886
0.00061633
0.000592255
0.000643739
0.000667267
0.00061593
0.000624694
0.000619874
0.00061992
0.000657869
0.000597754
0.000632862
0.000609068
0.000661916
0.000649878
0.000621204
0.000647279
0.00062735
0.000677057
0.000615269
0.000629129
0.000624078
0.000643032
0.000652364
0.000617484
0.000624135
0.000621281
0.000640895
0.000630116
0.000643719
0.000631001
0.000615484
0.000604045
0.000629784
0.000657655
0.000655273
0.000648604
0.000652872
0.000641395
0.000627702
0.000591885
0.000626532
0.000631213
0.000662601
0.000642113
0.000603836
VECTORS momentum double
-0.152761 -0.157018 0 
-0.307894 -0.0890439 0 
-0.0286555 0.313653 0 
-0.429192 0.444529 0 
-0.577251 -0.310436 0 
-0.132356 0.0388479 0 
-0.489751 0.125344 0 
-0.262455 -0.0139195 0 
-0.42653 -0.206287 0 
-0.120135 -0.328107 0 
-0.198754 -0.0937982 0 
-0.221668 -0.378234 0 
-0.393622 -0.16968 0 
-0.334678 -0.323771 0 
-0.248569 -0.444482 0 
-0.334802 -0.565474 0 
-0.112525 -0.0665176 0 
-0.300782 0.227267 0 
-0.00157748 0.281194 0 
-0.418583 0.298824 0 
-0.0627494 0.208151 0 
0.0601496 -0.0111626 0 
-0.353943 0.0301086 0 
-0.221291 -0.0708063 0 
-0.150042 0.180582 0 
0.00963341 -0.0987202 0 
-0.263321 0.212764 0 
-0.0151306 0.0049423 0 
-0.0575688 -0.230555 0 
-0.413746 -0.347738 0 
-0.283434 0.154549 0 
-0.735628 0.143743 0 
-0.0536692 -0.054978 0 
-0.0466632 0.369811 0 
-0.413307 0.516179 0 
-0.056917 0.2228 0 
-0.21312 -0.0154419 0 
0.144251 -0.229075 0 
-0.245614 0.392271 0 
-0.0591549 0.135076 0 
0.0688813 0.217787 0 
0.188609 -0.0712665 0 
-0.112263 0.472945 0 
-0.244568 0.262124 0 
-0.203931 0.281767 0 
-0.431194 0.379858 0 
-0.477508 0.182471 0 
-0.409451 0.405194 0 
-0.2537 0.140289 0 
-0.00514691 -0.0376409 0 
-0.326204 -0.0450052 0 
0.187745 0.023348 0 
0.0111359 0.390489 0 
-0.0443451 0.20402 0 
-0.0557789 0.0577116 0 
-0.176114 0.0691961 0 
-0.206114 0.278822 0 
-0.0915484 0.339183 0 
0.20616 0.248518 0 
-0.0924414 0.220904 0 
-0.0503949 0.203307 0 
-0.209439 0.0785354 0 
-0.708967 0.396576 0 
-0.209762 0.413055 0 
VECTORS body_force double
0 -9.81 0 
0 -9.81 0 
0 -9.81 0 
0 -9.81 0 
0 -9.81 0 
0 -9.81 0 
0 -9.81 0 
0 -9.81 0 
0 -9.81 0 
0 -9.81 0 
0 -9.81 0 
0 -9.81 0 
0 -9.81 0 
0 -9.81 0 
0 -9.81 0 
0 -9.81 0 
0 -9.81 0 
0 -9.81 0 
0 -9.81 0 
0 -9.81 0 
0 -9.81 0 
0 -9.81 0 
0 -9.81 0 
0 -9.81 0 
0 -9.81 0 
0 -9.81 0 
0 -9.81 0 
0 -9.81 0 
0 -9.81 0 
0 -9.81 0 
0 -9.81 0 
0 -9.81 0 
0 -9.81 0 
0 -9.81 0 
0 -9.81 0 
0 -9.81 0 
0 -9.81 0 
0 -9.81 0 
0 -9.81 0 
0 -9.81 0 
0 -9.81 0 
0 -9.81 0 
0 -9.81 0 
0 -9.81 0 
0 -9.81 0 
0 -9.81 0 
0 -9.81 0 
0 -9.81 0 
0 -9.81 0 
0 -9.81 0 
0 -9.81 0 
0 -9.81 0 
0 -9.81 0 
0 -9.81 0 
0 -9.81 0 
0 -9.81 0 
0 -9.81 0 
0 -9.81 0 
0 -9.81 0 
0 -9.81 0 
0 -9.81 0 
0 -9.81 0 
0 -9.81 0 
0 -9.81 0 
TENSORS cauchy_stress double
822.526 1203.15 0
1203.15 -3256.79 0
0 0 0

905.026 -2164.13 0
-2164.13 -965.186 0
0 0 0

2373.84 -107.45 0
-107.45 -2088.62 0
0 0 0

2165.48 -2855.38 0
-2855.38 -1888.4 0
0 0 0

1986.06 -1990.1 0
-1990.1 873.157 0
0 0 0

3270.42 -283.766 0
-283.766 -3859.24 0
0 0 0

869.58 361.193 0
361.193 -173.233 0
0 0 0

-2927.38 189.169 0
189.169 -7328.25 0
0 0 0

-1142.08 390.519 0
390.519 -812.334 0
0 0 0

4617.43 209.368 0
209.368 -5882.71 0
0 0 0

-2727.56 2181.97 0
2181.97 -4767.27 0
0 0 0

-2813.35 -3069.41 0
-3069.41 -3835.82 0
0 0 0

2765.12 -2608.41 0
-2608.41 -5353.88 0
0 0 0

-8172.42 -3433.93 0
-3433.93 6349.65 0
0 0 0

6380.19 -902.894 0
-902.894 2556.41 0
0 0 0

5906.22 7387.93 0
7387.93 -6578.85 0
0 0 0

1871.67 3930.25 0
3930.25 -5131.54 0
0 0 0

4391.62 96.3569 0
96.3569 8363.23 0
0 0 0

2617.35 1090.8 0
1090.8 703.221 0
0 0 0

244.316 -375.915 0
-375.915 -2930.84 0
0 0 0

-2342.07 -1975.23 0
-1975.23 -8006.75 0
0 0 0

2813.02 1189.62 0
1189.62 2868.22 0
0 0 0

2685.56 -3999.11 0
-3999.11 9898.9 0
0 0 0

-3167.36 1550.96 0
1550.96 356.064 0
0 0 0

-639.574 1027.99 0
1027.99 545.26 0
0 0 0

411.841 -1965.14 0
-1965.14 -1995.66 0
0 0 0

-3489 -3364.91 0
-3364.91 1919.6 0
0 0 0

1512.94 -23.7354 0
-23.7354 8343.77 0
0 0 0

-3910.04 -3370.73 0
-3370.73 -4661.64 0
0 0 0

1149.09 -2744.11 0
-2744.11 1254.93 0
0 0 0

-166.715 -4944.93 0
-4944.93 -4798.9 0
0 0 0

8168.92 -4825.82 0
-4825.82 2867.13 0
0 0 0

2993.06 3026.32 0
3026.32 4513.16 0
0 0 0

41.013 1284.12 0
1284.12 -1212.56 0
0 0 0

1604.55 -1932.29 0
-1932.29 5131.15 0
0 0 0

-1563.84 -1147.59 0
-1147.59 2285.45 0
0 0 0

6878.42 -1274.96 0
-1274.96 8506.98 0
0 0 0

-2275.25 3909.5 0
3909.5 -742.53 0
0 0 0

-187.375 -650.289 0
-650.289 1453.71 0
0 0 0

549.094 -2260.78 0
-2260.78 -832.871 0
0 0 0

20.2976 -1810.22 0
-1810.22 5449.44 0
0 0 0

4203.5 3494.7 0
3494.7 4037.03 0
0 0 0

-1911.63 802.151 0
802.151 -415.059 0
0 0 0

-3653.17 -5201.82 0
-5201.82 3386.77 0
0 0 0

-880.529 -1638.53 0
-1638.53 -267.195 0
0 0 0

721.721 1643.47 0
1643.47 4107.9 0
0 0 0

-754.069 -3756.34 0
-3756.34 2321.89 0
0 0 0

-219.891 4114.84 0
4114.84 5895.06 0
0 0 0

-1755.8 814.664 0
814.664 3593.56 0
0 0 0

-2431.72 2196.72 0
2196.72 -518.672 0
0 0 0

-2214.2 -3033.2 0
-3033.2 -4344.19 0
0 0 0

-1666.3 -1584.98 0
-1584.98 3132.75 0
0 0 0

9440.71 3758.07 0
3758.07 353.433 0
0 0 0

5118.27 -3909.74 0
-3909.74 3977.91 0
0 0 0

5204.71 5060.6 0
5060.6 1924.33 0
0 0 0

3334.38 -3986.39 0
-3986.39 5055.87 0
0 0 0

-3347.91 4169.43 0
4169.43 8327.54 0
0 0 0

-1631.41 381.401 0
381.401 2461.06 0
0 0 0

-10279.3 5191.78 0
5191.78 -189.76 0
0 0 0

-54.4092 627.216 0
627.216 525.305 0
0 0 0

-1214.97 637.873 0
637.873 3117.08 0
0 0 0

4870.9 2941.52 0
2941.52 6364.1 0
0 0 0

5489.14 -445.536 0
-445.536 -294.523 0
0 0 0

-694.434 9.21709 0
9.21709 -5930.26 0
0 0 0

TENSORS velocity_gradient double
-1.06672 5.92195 0
-7.93684 1.33924 0
0 0 0

-1.32945 5.89514 0
-7.15328 1.41919 0
0 0 0

-1.2236 5.153 0
-1.02695 1.73926 0
0 0 0

-2.66828 5.08888 0
-1.66005 1.71116 0
0 0 0

-2.06383 -3.15318 0
-5.4441 3.28217 0
0 0 0

-3.24769 -2.97459 0
-2.91263 2.9003 0
0 0 0

-3.48563 -3.87052 0
-2.46947 4.61234 0
0 0 0

-3.26088 -3.88634 0
-3.42732 4.67976 0
0 0 0

-3.8366 -0.387538 0
-0.766386 6.16311 0
0 0 0

-3.40021 -0.431246 0
0.516649 6.0346 0
0 0 0

-3.03839 -0.0128855 0
-5.39569 5.75497 0
0 0 0

-2.81279 -0.0261282 0
-8.74077 5.95133 0
0 0 0

-2.43861 2.90651 0
1.51744 2.50414 0
0 0 0

0.00383902 2.48441 0
2.37778 2.35546 0
0 0 0

-1.37787 5.68293 0
-9.37426 2.79577 0
0 0 0

1.0748 5.10519 0
-4.51578 2.92281 0
0 0 0

-1.27538 3.44124 0
-1.04964 0.989121 0
0 0 0

-2.74325 3.51026 0
-1.6929 1.01937 0
0 0 0

-0.10103 1.8008 0
-2.1474 0.846852 0
0 0 0

-1.98379 1.75038 0
-1.82949 0.855366 0
0 0 0

-3.48889 -3.64833 0
-2.45556 3.66539 0
0 0 0

-3.257 -3.65685 0
-3.44383 3.70171 0
0 0 0

-2.89225 -3.08954 0
-2.05073 2.58286 0
0 0 0

-1.81692 -3.15898 0
-3.387 2.66915 0
0 0 0

-3.01929 0.217426 0
-5.67891 2.34003 0
0 0 0

-2.79927 0.188887 0
-8.94118 2.76319 0
0 0 0

-0.859925 0.705594 0
-4.52861 0.0195273 0
0 0 0

0.0763953 0.615104 0
-5.5891 0.122017 0
0 0 0

-1.00371 8.80878 0
-11.6087 0.931288 0
0 0 0

2.54973 8.29124 0
-13.8332 1.25528 0
0 0 0

-0.963068 11.0753 0
-7.83149 -0.954594 0
0 0 0

-0.517029 11.0238 0
-10.5705 -0.76886 0
0 0 0

-0.164397 -0.15199 0
-2.1367 1.17658 0
0 0 0

-2.12336 -0.0733343 0
-1.80592 1.1633 0
0 0 0

1.70683 -2.8929 0
2.68667 0.892699 0
0 0 0

-1.47796 -2.52016 0
2.03468 0.969007 0
0 0 0

-2.85224 -2.08318 0
-2.10044 1.33227 0
0 0 0

-1.79611 -2.17109 0
-3.41287 1.44152 0
0 0 0

-2.35472 -0.959212 0
1.00287 0.00393231 0
0 0 0

-0.953671 -1.0599 0
-0.581643 0.11781 0
0 0 0

-0.796889 1.54934 0
-4.60001 -0.936107 0
0 0 0

0.1235 1.49431 0
-5.64245 -0.873781 0
0 0 0

0.174056 2.40039 0
-1.47464 -1.68404 0
0 0 0

1.14914 2.37585 0
-1.90296 -1.67327 0
0 0 0

-1.24029 8.815 0
-6.61854 -1.96642 0
0 0 0

-3.82911 9.04463 0
-7.54767 -1.884 0
0 0 0

-0.00258942 6.50383 0
-2.30149 -2.49122 0
0 0 0

-2.22509 5.11225 0
-2.75166 -1.48543 0
0 0 0

1.44086 -5.54081 0
2.63222 0.350618 0
0 0 0

-1.75319 -5.2318 0
1.97834 0.413879 0
0 0 0

0.215221 -7.11911 0
6.02617 -0.863187 0
0 0 0

-0.799676 -7.01793 0
4.44216 -0.705274 0
0 0 0

-2.28174 0.399583 0
0.920344 -1.5328 0
0 0 0

-0.945396 0.306263 0
-0.591002 -1.42726 0
0 0 0

-0.557282 1.53214 0
2.65573 -3.39971 0
0 0 0

0.317337 1.393 0
0.619227 -3.07574 0
0 0 0

0.207732 3.33241 0
-1.48943 -2.09344 0
0 0 0

1.21343 3.25258 0
-1.9312 -2.05838 0
0 0 0

0.446636 3.90109 0
-1.51745 -2.90603 0
0 0 0

0.264539 3.82942 0
-3.52625 -2.67019 0
0 0 0

0.21533 4.848 0
-1.36795 -1.6958 0
0 0 0

-1.43592 1.21645 0
-0.440877 1.03075 0
0 0 0

-0.578902 3.24091 0
-2.48848 -0.552415 0
0 0 0

-1.52339 1.91242 0
-0.879942 0.532879 0
0 0 0

SCALARS active double 1
LOOKUP_TABLE default
1
1
1
1
1
1
1
1
1
1
1
1
1
1
1
1
1
1
1
1
1
1
1
1
1
1
1
1
1
1
1
1
1
1
1
1
1
1
1
1
1
1
1
1
1
1
1
1
1
1
1
1
1
1
1
1
1
1
1
1
1
1
1
1
SCALARS extent double 1
LOOKUP_TABLE default
0.0125
0.0125
0.0125
0.0125
0.0125
0.0125
0.0125
0.0125
0.0125
0.0125
0.0125
0.0125
0.0125
0.0125
0.0125
0.0125
0.0125
0.0125
0.0125
0.0125
0.0125
0.0125
0.0125
0.0125
0.0125
0.0125
0.0125
0.0125
0.0125
0.0125
0.0125
0.0125
0.0125
0.0125
0.0125
0.0125
0.0125
0.0125
0.0125
0.0125
0.0125
0.0125
0.0125
0.0125
0.0125
0.0125
0.0125
0.0125
0.0125
0.0125
0.0125
0.0125
0.0125
0.0125
0.0125
0.0125
0.0125
0.0125
0.0125
0.0125
0.0125
0.0125
0.0125
0.0125
SCALARS pressure double 1
LOOKUP_TABLE default
1217.13
30.08
-142.609
-138.54
-1429.61
294.409
-348.173
5127.81
977.207
632.639
3747.41
3324.59
1294.38
911.386
-4468.3
336.318
1629.93
-6377.42
-1660.28
1343.26
5174.41
-2840.62
-6292.23
1405.65
47.1572
791.91
784.7
-4928.36
4285.84
-1202.01
2482.81
-5518.03
-3753.11
585.773
-3367.85
-360.802
-7692.7
1508.89
-633.167
141.888
-2734.87
-4120.27
1163.35
133.201
573.862
-2414.81
-783.911
-2837.58
-918.883
1475.2
3279.19
-733.226
-4897.07
-4548.09
-3564.52
-4195.13
-2489.82
-414.824
5234.51
-235.448
-951.055
-5617.5
-2597.31
3312.34
SCALARS density double 1
LOOKUP_TABLE default
1012.74
1000.31
998.518
998.56
985.242
1003.07
996.386
1054.78
1010.21
1006.6
1039.74
1035.18
1013.55
1009.52
954.593
1003.5
1017.1
935.826
982.881
1014.07
1055.29
970.89
936.656
1014.73
1000.49
1008.27
1008.19
950.036
1045.58
987.577
1026.16
944.228
961.72
1006.11
965.581
996.255
923.113
1015.82
993.437
1001.48
971.958
958.054
1012.17
1001.39
1005.99
975.199
991.88
970.92
990.489
1015.46
1034.69
992.403
950.346
953.801
963.608
957.309
974.438
995.695
1055.95
997.554
990.158
943.252
973.35
1035.05
