# vtk DataFile Version 3.0
Frame: 50, Time: 0.85
ASCII
DATASET UNSTRUCTURED_GRID
POINTS 64 double
0.469284 0.241448 0 
0.469278 0.217489 0 
0.44136 0.238996 0 
0.442782 0.214317 0 
0.470528 0.191022 0 
0.474835 0.167108 0 
0.444286 0.188244 0 
0.446684 0.163744 0 
0.47258 0.141132 0 
0.475267 0.115941 0 
0.446445 0.139347 0 
0.447934 0.114844 0 
0.478899 0.0935905 0 
0.482588 0.0679672 0 
0.451628 0.0908819 0 
0.456086 0.0661832 0 
0.413563 0.235002 0 
0.41671 0.210283 0 
0.389719 0.23688 0 
0.390403 0.211033 0 
0.419381 0.18629 0 
0.42056 0.161317 0 
0.393783 0.185562 0 
0.39536 0.159321 0 
0.419909 0.135383 0 
0.423365 0.111499 0 
0.394476 0.134278 0 
0.397691 0.108202 0 
0.428006 0.0871768 0 
0.432073 0.0607439 0 
0.403126 0.0825092 0 
0.407335 0.0577519 0 
0.364464 0.23426 0 
0.365811 0.207515 0 
0.337421 0.233683 0 
0.339949 0.205182 0 
0.367455 0.182982 0 
0.369012 0.1572 0 
0.342041 0.180071 0 
0.343054 0.154335 0 
0.369736 0.1311 0 
0.37272 0.10563 0 
0.345476 0.129428 0 
0.348051 0.104091 0 
0.377433 0.0796104 0 
0.380796 0.0534708 0 
0.352876 0.0776941 0 
0.355408 0.0515307 0 
0.314092 0.231738 0 
0.315196 0.203296 0 
0.288117 0.228674 0 
0.288679 0.201433 0 
0.315597 0.179135 0 
0.316864 0.154273 0 
0.288292 0.176948 0 
0.292254 0.151354 0 
0.320181 0.128386 0 
0.324059 0.102051 0 
0.29703 0.12512 0 
0.298413 0.0996886 0 
0.328345 0.0762899 0 
0.330892 0.0493375 0 
0.301789 0.0737843 0 
0.304394 0.0504089 0 
CELLS 64 128
1 0
1 1
1 2
1 3
1 4
1 5
1 6
1 7
1 8
1 9
1 10
1 11
1 12
1 13
1 14
1 15
1 16
1 17
1 18
1 19
1 20
1 21
1 22
1 23
1 24
1 25
1 26
1 27
1 28
1 29
1 30
1 31
1 32
1 33
1 34
1 35
1 36
1 37
1 38
1 39
1 40
1 41
1 42
1 43
1 44
1 45
1 46
1 47
1 48
1 49
1 50
1 51
1 52
1 53
1 54
1 55
1 56
1 57
1 58
1 59
1 60
1 61
1 62
1 63
CELL_TYPES 64
1
1
1
1
1
1
1
1
1
1
1
1
1
1
1
1
1
1
1
1
1
1
1
1
1
1
1
1
1
1
1
1
1
1
1
1
1
1
1
1
1
1
1
1
1
1
1
1
1
1
1
1
1
1
1
1
1
1
1
1
1
1
1
1
POINT_DATA 64
VECTORS displacement double
-0.143216 -0.071052 0 
-0.143222 -0.120011 0 
-0.19614 -0.0735038 0 
-0.194718 -0.123183 0 
-0.141972 -0.171478 0 
-0.137665 -0.220392 0 
-0.193214 -0.174256 0 
-0.190816 -0.223756 0 
-0.13992 -0.271368 0 
-0.137233 -0.321559 0 
-0.191055 -0.273153 0 
-0.189566 -0.322656 0 
-0.133601 -0.36891 0 
-0.129912 -0.419533 0 
-0.185872 -0.371618 0 
-0.181414 -0.421317 0 
-0.248937 -0.0774977 0 
-0.24579 -0.127217 0 
-0.297781 -0.07562 0 
-0.297097 -0.126467 0 
-0.243119 -0.17621 0 
-0.24194 -0.226183 0 
-0.293717 -0.176938 0 
-0.29214 -0.228179 0 
-0.242591 -0.277117 0 
-0.239135 -0.326001 0 
-0.293024 -0.278222 0 
-0.289809 -0.329298 0 
-0.234494 -0.375323 0 
-0.230427 -0.426756 0 
-0.284374 -0.379991 0 
-0.280165 -0.429748 0 
-0.348036 -0.0782403 0 
-0.346689 -0.129985 0 
-0.400079 -0.0788173 0 
-0.397551 -0.132318 0 
-0.345045 -0.179518 0 
-0.343488 -0.2303 0 
-0.395459 -0.182429 0 
-0.394446 -0.233165 0 
-0.342764 -0.2814 0 
-0.33978 -0.33187 0 
-0.392024 -0.283072 0 
-0.389449 -0.333409 0 
-0.335067 -0.38289 0 
-0.331704 -0.434029 0 
-0.384624 -0.384806 0 
-0.382092 -0.435969 0 
-0.448408 -0.0807618 0 
-0.447304 -0.134204 0 
-0.499383 -0.0838264 0 
-0.498821 -0.136067 0 
-0.446903 -0.183365 0 
-0.445636 -0.233227 0 
-0.499208 -0.185552 0 
-0.495246 -0.236146 0 
-0.442319 -0.284114 0 
-0.438441 -0.335449 0 
-0.49047 -0.28738 0 
-0.489087 -0.337811 0 
-0.434155 -0.38621 0 
-0.431608 -0.438163 0 
-0.485711 -0.388716 0 
-0.483106 -0.437091 0 
VECTORS velocity double
0.453288 -0.609004 0 
0.374509 -0.367904 0 
0.452132 -0.182345 0 
0.0177098 0.11896 0 
-0.156025 -0.588693 0 
0.151043 -0.00367628 0 
-0.254985 -0.140563 0 
-0.540288 0.0541695 0 
-0.715601 -0.174167 0 
-0.176841 0.174161 0 
-0.838539 0.337689 0 
-0.921828 0.285296 0 
-0.456991 0.820905 0 
-0.0255385 0.809848 0 
-0.698395 0.481528 0 
-0.192667 0.36349 0 
0.128497 -0.134499 0 
-0.0757086 0.30221 0 
0.228736 0.6677 0 
-0.501452 0.683627 0 
0.168585 0.376288 0 
-0.0461043 0.289817 0 
-0.508663 0.324029 0 
-0.496951 0.304996 0 
-0.705805 0.718928 0 
-0.653801 0.303959 0 
-0.824895 0.647883 0 
-0.783165 0.0226336 0 
-0.41294 0.275932 0 
-0.100455 0.271001 0 
-0.666971 0.30666 0 
-0.365039 0.500992 0 
0.191604 0.00416286 0 
-0.0358762 0.714459 0 
-0.282035 0.896808 0 
-0.194748 0.517718 0 
-0.437297 0.166335 0 
0.0700223 -0.106798 0 
-0.616025 0.822924 0 
-0.260325 0.391875 0 
-0.252111 0.491839 0 
-0.406123 -0.18795 0 
-0.454916 0.811638 0 
-0.939606 0.309999 0 
-0.521401 0.278303 0 
0.0231589 0.440224 0 
-0.952701 -0.0308385 0 
-0.243099 0.1477 0 
0.00270388 0.376882 0 
-0.28168 0.306949 0 
-0.258948 0.533701 0 
-0.339708 0.622008 0 
-0.308495 1.00635 0 
-0.207993 0.613915 0 
-0.779764 0.523166 0 
-0.611477 0.325401 0 
-0.418093 0.56282 0 
-0.317033 0.470822 0 
0.382867 0.408506 0 
0.0907991 0.147687 0 
-0.0553648 0.0299404 0 
-0.0109666 -0.363832 0 
-1.12781 0.385524 0 
-0.42242 0.354938 0 
SCALARS mass double 1
LOOKUP_TABLE default
0.625
0.625
0.625
0.625
0.625
0.625
0.625
0.625
0.625
0.625
0.625
0.625
0.625
0.625
0.625
0.625
0.625
0.625
0.625
0.625
0.625
0.625
0.625
0.625
0.625
0.625
0.625
0.625
0.625
0.625
0.625
0.625
0.625
0.625
0.625
0.625
0.625
0.625
0.625
0.625
0.625
0.625
0.625
0.625
0.625
0.625
0.625
0.625
0.625
0.625
0.625
0.625
0.625
0.625
0.625
0.625
0.625
0.625
0.625
0.625
0.625
0.625
0.625
0.625
SCALARS volume double 1
LOOKUP_TABLE default
0.000617731
0.000618405
0.000611682
0.000624101
0.000632958
0.000632703
0.000615191
0.00058905
0.000608018
0.00061994
0.000593623
0.000590623
0.000611803
0.000608846
0.000646376
0.000606374
0.000598021
0.000663574
0.000600034
0.000607925
0.000573102
0.000633724
0.000648197
0.000609186
0.000624552
0.000613899
0.000622365
0.00063886
0.000602089
0.000604338
0.000624659
0.000658575
0.000613011
0.000613618
0.00062658
0.000631162
0.000660365
0.000611174
0.00061555
0.00060027
0.000638873
0.000627283
0.000601528
0.000611663
0.000626039
0.000653323
0.0006189
0.000626294
0.000610596
0.000617804
0.000605853
0.000635917
0.000652251
0.000639272
0.000644638
0.000644763
0.000630136
0.000624432
0.000585549
0.000623946
0.000619757
0.000616623
0.000645704
0.000587156
VECTORS momentum double
0.283305 -0.380628 0 
0.234068 -0.22994 0 
0.282583 -0.113965 0 
0.0110686 0.0743497 0 
-0.0975155 -0.367933 0 
0.0944021 -0.00229768 0 
-0.159366 -0.0878517 0 
-0.33768 0.0338559 0 
-0.44725 -0.108854 0 
-0.110526 0.10885 0 
-0.524087 0.211056 0 
-0.576142 0.17831 0 
-0.285619 0.513066 0 
-0.0159615 0.506155 0 
-0.436497 0.300955 0 
-0.120417 0.227181 0 
0.0803109 -0.084062 0 
-0.0473178 0.188881 0 
0.14296 0.417313 0 
-0.313408 0.427267 0 
0.105366 0.23518 0 
-0.0288152 0.181135 0 
-0.317914 0.202518 0 
-0.310595 0.190623 0 
-0.441128 0.44933 0 
-0.408626 0.189975 0 
-0.515559 0.404927 0 
-0.489478 0.014146 0 
-0.258087 0.172457 0 
-0.0627841 0.169375 0 
-0.416857 0.191663 0 
-0.22815 0.31312 0 
0.119752 0.00260179 0 
-0.0224226 0.446537 0 
-0.176272 0.560505 0 
-0.121718 0.323574 0 
-0.273311 0.103959 0 
0.043764 -0.0667486 0 
-0.385015 0.514327 0 
-0.162703 0.244922 0 
-0.157569 0.3074 0 
-0.253827 -0.117469 0 
-0.284323 0.507274 0 
-0.587254 0.193749 0 
-0.325876 0.17394 0 
0.0144743 0.27514 0 
-0.595438 -0.019274 0 
-0.151937 0.0923123 0 
0.00168993 0.235551 0 
-0.17605 0.191843 0 
-0.161842 0.333563 0 
-0.212317 0.388755 0 
-0.19281 0.628971 0 
-0.129996 0.383697 0 
-0.487352 0.326978 0 
-0.382173 0.203376 0 
-0.261308 0.351762 0 
-0.198146 0.294264 0 
0.239292 0.255316 0 
0.0567495 0.0923044 0 
-0.034603 0.0187128 0 
-0.00685416 -0.227395 0 
-0.704881 0.240952 0 
-0.264012 0.221836 0 
VECTORS body_force double
0 -9.81 0 
0 -9.81 0 
0 -9.81 0 
0 -9.81 0 
0 -9.81 0 
0 -9.81 0 
0 -9.81 0 
0 -9.81 0 
0 -9.81 0 
0 -9.81 0 
0 -9.81 0 
0 -9.81 0 
0 -9.81 0 
0 -9.81 0 
0 -9.81 0 
0 -9.81 0 
0 -9.81 0 
0 -9.81 0 
0 -9.81 0 
0 -9.81 0 
0 -9.81 0 
0 -9.81 0 
0 -9.81 0 
0 -9.81 0 
0 -9.81 0 
0 -9.81 0 
0 -9.81 0 
0 -9.81 0 
0 -9.81 0 
0 -9.81 0 
0 -9.81 0 
0 -9.81 0 
0 -9.81 0 
0 -9.81 0 
0 -9.81 0 
0 -9.81 0 
0 -9.81 0 
0 -9.81 0 
0 -9.81 0 
0 -9.81 0 
0 -9.81 0 
0 -9.81 0 
0 -9.81 0 
0 -9.81 0 
0 -9.81 0 
0 -9.81 0 
0 -9.81 0 
0 -9.81 0 
0 -9.81 0 
0 -9.81 0 
0 -9.81 0 
0 -9.81 0 
0 -9.81 0 
0 -9.81 0 
0 -9.81 0 
0 -9.81 0 
0 -9.81 0 
0 -9.81 0 
0 -9.81 0 
0 -9.81 0 
0 -9.81 0 
0 -9.81 0 
0 -9.81 0 
0 -9.81 0 
TENSORS cauchy_stress double
-997.064 4299.6 0
4299.6 -1252.59 0
0 0 0

-1385.15 563.922 0
563.922 -654.778 0
0 0 0

-1433.87 343.51 0
343.51 -2708.19 0
0 0 0

1624.62 -2476.57 0
-2476.57 -1901.5 0
0 0 0

-549.351 2242.98 0
2242.98 2982.53 0
0 0 0

2421.44 1960.78 0
1960.78 -65.8853 0
0 0 0

-126.305 3421.04 0
3421.04 -2915.88 0
0 0 0

-2140.14 2857.3 0
2857.3 -9252.19 0
0 0 0

-2960.08 1183.89 0
1183.89 -2337.54 0
0 0 0

4611.66 -826.395 0
-826.395 -6174.83 0
0 0 0

-1817.52 5351.86 0
5351.86 -8087.74 0
0 0 0

-2776.93 242.649 0
242.649 -8102.78 0
0 0 0

2546.3 -3796.96 0
-3796.96 -6650.47 0
0 0 0

-9505.21 -3639.4 0
-3639.4 4469.52 0
0 0 0

5657.59 1786.63 0
1786.63 809.553 0
0 0 0

3662.08 7853.57 0
7853.57 -9480.39 0
0 0 0

-2977.58 5361.17 0
5361.17 -5508.02 0
0 0 0

3138.05 397.173 0
397.173 8379 0
0 0 0

-5370.38 1610.15 0
1610.15 -2469.06 0
0 0 0

-1593.49 242.781 0
242.781 -3733.59 0
0 0 0

-3797.31 1921.35 0
1921.35 -12873.3 0
0 0 0

3423.92 4221.89 0
4221.89 -758.086 0
0 0 0

2664.12 -1119.6 0
-1119.6 4344.02 0
0 0 0

-1070.99 4618.13 0
4618.13 -3857.38 0
0 0 0

1229.47 3769.4 0
3769.4 -1367.46 0
0 0 0

1328.72 1373.98 0
1373.98 -4775.1 0
0 0 0

-858.033 -1989.51 0
-1989.51 45.6954 0
0 0 0

-692.735 1101.1 0
1101.1 4910.79 0
0 0 0

-3643.95 -78.9545 0
-78.9545 -3538.17 0
0 0 0

-5467.53 1946.68 0
1946.68 -997.569 0
0 0 0

1026.06 -4298.57 0
-4298.57 -1130.98 0
0 0 0

5361.83 -2187.84 0
-2187.84 4700.9 0
0 0 0

-4968.11 5138.1 0
5138.1 1243.48 0
0 0 0

-1577.82 3403.78 0
3403.78 -1956.48 0
0 0 0

-2365.09 -1362.56 0
-1362.56 2850.7 0
0 0 0

-289.7 -897.315 0
-897.315 2176.44 0
0 0 0

7084.17 2430.03 0
2430.03 3500.59 0
0 0 0

225.788 7680.92 0
7680.92 -4527.82 0
0 0 0

-21.1094 60.5621 0
60.5621 -2908.74 0
0 0 0

-1514.45 -1085.09 0
-1085.09 -6249.3 0
0 0 0

1752.25 -1759.63 0
-1759.63 2469.7 0
0 0 0

833.037 3617.09 0
3617.09 -131.799 0
0 0 0

-2709.9 -1833.82 0
-1833.82 -4651.48 0
0 0 0

-3208.57 -7536.76 0
-7536.76 -939.444 0
0 0 0

-875.273 -2465.45 0
-2465.45 1194.58 0
0 0 0

2304.46 53.0795 0
53.0795 6218.71 0
0 0 0

-2122.99 -4979.76 0
-4979.76 236.871 0
0 0 0

-2105.59 4180.64 0
4180.64 2503.28 0
0 0 0

-5284.45 2741.06 0
2741.06 800.694 0
0 0 0

-751.26 3701.95 0
3701.95 -1475.63 0
0 0 0

-2183.21 -2156.22 0
-2156.22 -3800.43 0
0 0 0

169.233 393.816 0
393.816 3160.92 0
0 0 0

10487.4 3698.5 0
3698.5 -2280.2 0
0 0 0

3844.63 -3259.59 0
-3259.59 497.429 0
0 0 0

6229.07 3677.92 0
3677.92 -279.531 0
0 0 0

2914.67 -5593.14 0
-5593.14 3072.18 0
0 0 0

-3893.65 1604.03 0
1604.03 5467.6 0
0 0 0

-407.159 -1641.56 0
-1641.56 232.275 0
0 0 0

-10859.1 2252.12 0
2252.12 -1679.59 0
0 0 0

231.774 -1622.13 0
-1622.13 -556.203 0
0 0 0

-2601.16 -1355.9 0
-1355.9 980.987 0
0 0 0

-1596.13 5376.27 0
5376.27 -998.738 0
0 0 0

7379.81 -2797.47 0
-2797.47 -1112.44 0
0 0 0

-1700.77 955.36 0
955.36 -10310.9 0
0 0 0

TENSORS velocity_gradient double
2.08593 6.87099 0
-8.47711 -3.21228 0
0 0 0

2.83922 6.86602 0
-8.83 -3.20995 0
0 0 0

4.14309 7.23886 0
-9.54921 -3.19138 0
0 0 0

3.51055 7.27966 0
-8.71335 -3.24529 0
0 0 0

3.56276 8.79316 0
-8.13845 -6.55449 0
0 0 0

4.0178 8.70799 0
-5.53257 -7.04221 0
0 0 0

2.24524 8.68575 0
-7.17023 -3.81404 0
0 0 0

1.16901 8.76925 0
-4.92792 -4.0764 0
0 0 0

4.23195 1.46854 0
-2.29916 -7.69797 0
0 0 0

3.92019 1.50186 0
1.5713 -8.11162 0
0 0 0

0.574782 1.34958 0
-2.26022 -3.90694 0
0 0 0

1.52736 1.33545 0
0.939589 -4.1093 0
0 0 0

3.4185 -5.31943 0
4.14332 -1.46573 0
0 0 0

2.26473 -5.16017 0
4.86642 -1.56555 0
0 0 0

2.50549 -6.36913 0
3.38612 -0.84615 0
0 0 0

2.19029 -6.34875 0
4.91307 -0.820634 0
0 0 0

4.034 6.53195 0
-9.40505 -2.25723 0
0 0 0

3.40142 6.61624 0
-8.56913 -2.36861 0
0 0 0

3.45907 5.54429 0
-4.30563 -1.79135 0
0 0 0

1.83993 5.59597 0
-4.27941 -1.79219 0
0 0 0

1.98796 6.65963 0
-6.93436 -1.50064 0
0 0 0

-0.0871763 6.77132 0
-4.6107 -1.62571 0
0 0 0

-0.0772586 4.50986 0
-3.82557 0.520106 0
0 0 0

-2.08057 4.65475 0
-3.08894 0.411628 0
0 0 0

-0.546421 2.0999 0
-1.8845 -0.821531 0
0 0 0

0.191519 1.99169 0
0.839717 -1.22099 0
0 0 0

-2.19416 3.00708 0
-1.6778 1.7361 0
0 0 0

-0.541417 2.86995 0
0.254598 1.46062 0
0 0 0

1.04122 -5.81287 0
1.55693 -1.55378 0
0 0 0

2.0547 -5.96237 0
0.432676 -1.38795 0
0 0 0

0.823036 -4.91569 0
1.60593 -2.37749 0
0 0 0

2.1691 -5.01676 0
0.305769 -2.43691 0
0 0 0

3.28812 3.971 0
-4.30286 -1.76588 0
0 0 0

1.61294 4.06177 0
-4.27574 -1.76735 0
0 0 0

2.12884 2.96476 0
-0.636014 -1.53943 0
0 0 0

1.90443 2.66383 0
-0.1791 -1.13489 0
0 0 0

-0.360348 2.20131 0
-3.65864 1.44715 0
0 0 0

-2.61836 2.34321 0
-2.76059 1.39071 0
0 0 0

1.60106 0.544384 0
-0.479928 1.91148 0
0 0 0

1.08916 1.2759 0
-0.981554 2.34762 0
0 0 0

-2.20465 4.29196 0
-1.49885 3.09241 0
0 0 0

-0.900073 3.4898 0
-0.110385 2.77713 0
0 0 0

-2.06332 4.48427 0
-1.28854 4.06242 0
0 0 0

-3.73879 2.92862 0
-0.923748 3.90664 0
0 0 0

-0.668261 -4.80102 0
2.90737 0.200275 0
0 0 0

-0.732592 -5.22016 0
6.00196 1.1413 0
0 0 0

-0.934598 -4.57082 0
1.9002 3.25767 0
0 0 0

-0.561722 -5.35171 0
5.6298 2.69158 0
0 0 0

2.11373 2.7855 0
-0.602539 -1.14227 0
0 0 0

1.88458 2.06136 0
-0.181909 -0.449024 0
0 0 0

1.40781 2.35493 0
0.133764 -0.818103 0
0 0 0

0.730286 1.34527 0
0.538028 0.402006 0
0 0 0

1.58846 0.192956 0
-0.498904 1.38248 0
0 0 0

1.08176 0.216082 0
-0.982833 1.89493 0
0 0 0

0.63803 -0.0155611 0
2.3907 2.05796 0
0 0 0

0.749469 -0.931377 0
4.31304 2.47553 0
0 0 0

-2.21922 0.759657 0
-1.27402 3.89569 0
0 0 0

-5.47094 1.07307 0
-1.56 3.66591 0
0 0 0

0.386041 -1.98081 0
2.45255 3.59154 0
0 0 0

-0.974259 1.6728 0
1.37795 3.03966 0
0 0 0

-1.47697 -0.372087 0
-2.23094 3.31987 0
0 0 0

3.21018 -4.67414 0
-2.70387 2.7672 0
0 0 0

-1.22698 4.51433 0
-0.459437 2.61044 0
0 0 0

2.23487 -2.33436 0
-2.04569 3.18704 0
0 0 0

SCALARS active double 1
LOOKUP_TABLE default
1
1
1
1
1
1
1
1
1
1
1
1
1
1
1
1
1
1
1
1
1
1
1
1
1
1
1
1
1
1
1
1
1
1
1
1
1
1
1
1
1
1
1
1
1
1
1
1
1
1
1
1
1
1
1
1
1
1
1
1
1
1
1
1
SCALARS extent double 1
LOOKUP_TABLE default
0.0125
0.0125
0.0125
0.0125
0.0125
0.0125
0.0125
0.0125
0.0125
0.0125
0.0125
0.0125
0.0125
0.0125
0.0125
0.0125
0.0125
0.0125
0.0125
0.0125
0.0125
0.0125
0.0125
0.0125
0.0125
0.0125
0.0125
0.0125
0.0125
0.0125
0.0125
0.0125
0.0125
0.0125
0.0125
0.0125
0.0125
0.0125
0.0125
0.0125
0.0125
0.0125
0.0125
0.0125
0.0125
0.0125
0.0125
0.0125
0.0125
0.0125
0.0125
0.0125
0.0125
0.0125
0.0125
0.0125
0.0125
0.0125
0.0125
0.0125
0.0125
0.0125
0.0125
0.0125
SCALARS pressure double 1
LOOKUP_TABLE default
1124.83
1019.96
2071.03
138.44
-1216.59
-1177.78
1521.09
5696.16
2648.81
781.582
4952.63
5439.86
2052.09
2517.85
-3233.57
2909.16
4242.8
-5758.52
3919.72
2663.54
8335.33
-1332.91
-3504.07
2464.18
68.9979
1723.19
406.169
-2109.03
3591.06
3232.55
52.4644
-5031.36
1862.32
1767.15
-242.807
-943.369
-5292.38
2151.02
1464.92
3881.88
-2110.97
-350.619
3680.69
2074.01
-159.654
-4261.59
943.058
-198.849
2241.88
1113.45
2991.82
-1665.08
-4103.6
-2171.03
-2974.77
-2993.42
-786.974
87.4422
6269.34
162.215
810.087
1297.43
-3133.68
6005.85
SCALARS density double 1
LOOKUP_TABLE default
1011.77
1010.66
1021.77
1001.44
987.427
987.826
1015.95
1061.03
1027.93
1008.16
1052.86
1058.21
1021.57
1026.53
966.93
1030.72
1045.11
941.869
1041.61
1028.09
1090.56
986.233
964.214
1025.96
1000.72
1018.08
1004.23
978.305
1038.05
1034.19
1000.55
949.019
1019.56
1018.55
997.478
990.237
946.447
1022.62
1015.35
1041.2
978.285
996.36
1039.02
1021.8
998.341
956.647
1009.86
997.934
1023.59
1011.65
1031.6
982.832
958.22
977.674
969.536
969.348
991.849
1000.91
1067.37
1001.69
1008.46
1013.58
967.935
1064.45
