# vtk DataFile Version 3.0
Frame: 8, Time: 0.136
ASCII
DATASET UNSTRUCTURED_GRID
POINTS 64 double
0.334177 0.0316659 0 
0.317953 0.046237 0 
0.354841 0.0432567 0 
0.33854 0.061075 0 
0.302191 0.0642663 0 
0.286828 0.0831961 0 
0.322823 0.0794701 0 
0.306867 0.0987649 0 
0.271014 0.101865 0 
0.255104 0.120922 0 
0.290292 0.118095 0 
0.273868 0.137501 0 
0.23896 0.140361 0 
0.223177 0.160596 0 
0.257826 0.156599 0 
0.242348 0.176496 0 
0.374897 0.0572897 0 
0.358927 0.0761882 0 
0.395006 0.0719401 0 
0.378745 0.0914585 0 
0.343382 0.0951056 0 
0.327132 0.114305 0 
0.362839 0.111012 0 
0.34631 0.129981 0 
0.310426 0.133386 0 
0.293598 0.153007 0 
0.329891 0.148703 0 
0.313854 0.167928 0 
0.277066 0.172344 0 
0.261217 0.191562 0 
0.297463 0.186785 0 
0.280768 0.205698 0 
0.414618 0.0879383 0 
0.398103 0.107156 0 
0.434361 0.104292 0 
0.417817 0.123585 0 
0.38253 0.12702 0 
0.366114 0.146416 0 
0.40254 0.142827 0 
0.386044 0.162375 0 
0.349952 0.164452 0 
0.333695 0.183139 0 
0.369436 0.181107 0 
0.353125 0.199755 0 
0.317596 0.202257 0 
0.300511 0.220591 0 
0.335805 0.218525 0 
0.318072 0.236854 0 
0.453868 0.120104 0 
0.437178 0.139025 0 
0.473232 0.136519 0 
0.456178 0.155424 0 
0.421537 0.159024 0 
0.404095 0.178965 0 
0.440712 0.176259 0 
0.422792 0.194912 0 
0.387429 0.197683 0 
0.370516 0.216286 0 
0.406064 0.214373 0 
0.389142 0.233464 0 
0.352843 0.235361 0 
0.335785 0.253919 0 
0.373058 0.251244 0 
0.355894 0.269668 0 
CELLS 64 128
1 0
1 1
1 2
1 3
1 4
1 5
1 6
1 7
1 8
1 9
1 10
1 11
1 12
1 13
1 14
1 15
1 16
1 17
1 18
1 19
1 20
1 21
1 22
1 23
1 24
1 25
1 26
1 27
1 28
1 29
1 30
1 31
1 32
1 33
1 34
1 35
1 36
1 37
1 38
1 39
1 40
1 41
1 42
1 43
1 44
1 45
1 46
1 47
1 48
1 49
1 50
1 51
1 52
1 53
1 54
1 55
1 56
1 57
1 58
1 59
1 60
1 61
1 62
1 63
CELL_TYPES 64
1
1
1
1
1
1
1
1
1
1
1
1
1
1
1
1
1
1
1
1
1
1
1
1
1
1
1
1
1
1
1
1
1
1
1
1
1
1
1
1
1
1
1
1
1
1
1
1
1
1
1
1
1
1
1
1
1
1
1
1
1
1
1
1
POINT_DATA 64
VECTORS displacement double
0.121677 -0.180834 0 
0.105453 -0.191263 0 
0.117341 -0.169243 0 
0.10104 -0.176425 0 
0.0896912 -0.198234 0 
0.0743276 -0.204304 0 
0.085323 -0.18303 0 
0.0693665 -0.188735 0 
0.0585139 -0.210635 0 
0.0426038 -0.216578 0 
0.0527916 -0.194405 0 
0.0363684 -0.199999 0 
0.02646 -0.222139 0 
0.010677 -0.226904 0 
0.0203264 -0.205901 0 
0.00484821 -0.211004 0 
0.112397 -0.15521 0 
0.0964273 -0.161312 0 
0.107506 -0.14056 0 
0.0912447 -0.146041 0 
0.0808817 -0.167394 0 
0.0646318 -0.173195 0 
0.0753389 -0.151488 0 
0.0588104 -0.157519 0 
0.0479256 -0.179114 0 
0.0310983 -0.184493 0 
0.0423906 -0.163797 0 
0.0263542 -0.169572 0 
0.0145662 -0.190156 0 
-0.00128266 -0.195938 0 
0.00996259 -0.175715 0 
-0.00673226 -0.181802 0 
0.102118 -0.124562 0 
0.0856033 -0.130344 0 
0.0968609 -0.108208 0 
0.0803171 -0.113915 0 
0.0700301 -0.13548 0 
0.0536144 -0.141084 0 
0.0650403 -0.119673 0 
0.0485442 -0.125125 0 
0.0374516 -0.148048 0 
0.0211949 -0.154361 0 
0.0319357 -0.131393 0 
0.0156248 -0.137745 0 
0.00509625 -0.160243 0 
-0.0119889 -0.166909 0 
-0.0016951 -0.143975 0 
-0.0194278 -0.150646 0 
0.0913676 -0.0923964 0 
0.0746783 -0.0984752 0 
0.0857322 -0.0759811 0 
0.068678 -0.0820757 0 
0.0590375 -0.103476 0 
0.0415955 -0.108535 0 
0.0532117 -0.0862409 0 
0.035292 -0.092588 0 
0.0249292 -0.114817 0 
0.00801551 -0.121214 0 
0.0185644 -0.0981273 0 
0.00164221 -0.104036 0 
-0.0096566 -0.127139 0 
-0.0267152 -0.133581 0 
-0.0144419 -0.111256 0 
-0.0316055 -0.117832 0 
VECTORS velocity double
0.0728845 -1.62457 0 
-0.554942 -1.83955 0 
0.072931 -1.15705 0 
-0.649345 -1.63788 0 
-0.546416 -1.77723 0 
-0.549315 -2.14726 0 
-0.33468 -1.855 0 
-0.458145 -2.2416 0 
-0.762502 -2.69203 0 
-1.04521 -2.95164 0 
-1.07714 -2.63345 0 
-1.25209 -2.47557 0 
-1.21082 -3.01393 0 
-1.8381 -3.5997 0 
-1.09918 -2.29318 0 
-1.83586 -2.98711 0 
0.0300187 -1.79261 0 
-0.403353 -2.0883 0 
-0.0586508 -1.78777 0 
-0.360306 -2.16108 0 
-0.0180792 -2.11538 0 
-0.27835 -2.23778 0 
-0.133563 -2.23627 0 
-0.540895 -2.28949 0 
-1.09584 -2.63513 0 
-1.5331 -2.66761 0 
-1.35677 -2.41654 0 
-1.94018 -2.64242 0 
-1.26495 -2.36644 0 
-1.63223 -2.7917 0 
-1.5332 -2.67813 0 
-1.79588 -2.77818 0 
-0.0890389 -1.22599 0 
-0.414017 -1.9108 0 
-0.302082 -1.15065 0 
-0.59928 -1.61907 0 
-0.385766 -2.1467 0 
-0.942768 -2.16123 0 
-0.623849 -1.59306 0 
-1.09829 -1.51194 0 
-1.48188 -2.36 0 
-1.60837 -2.79639 0 
-1.45809 -2.19145 0 
-1.04016 -2.71444 0 
-1.0694 -2.83175 0 
-1.88414 -2.89711 0 
-0.446695 -2.56806 0 
-1.35919 -3.03741 0 
-0.315938 -1.39364 0 
-0.662967 -1.65756 0 
-0.836924 -0.686213 0 
-1.28368 -0.80885 0 
-0.855966 -1.71093 0 
-1.06851 -1.57548 0 
-1.70216 -1.00203 0 
-1.8849 -1.0951 0 
-1.29661 -2.03655 0 
-1.44259 -2.64018 0 
-2.01075 -0.889374 0 
-2.17798 -1.50048 0 
-1.5124 -2.459 0 
-2.24519 -3.64841 0 
-1.83786 -1.50781 0 
-2.75442 -2.14731 0 
SCALARS mass double 1
LOOKUP_TABLE default
0.625
0.625
0.625
0.625
0.625
0.625
0.625
0.625
0.625
0.625
0.625
0.625
0.625
0.625
0.625
0.625
0.625
0.625
0.625
0.625
0.625
0.625
0.625
0.625
0.625
0.625
0.625
0.625
0.625
0.625
0.625
0.625
0.625
0.625
0.625
0.625
0.625
0.625
0.625
0.625
0.625
0.625
0.625
0.625
0.625
0.625
0.625
0.625
0.625
0.625
0.625
0.625
0.625
0.625
0.625
0.625
0.625
0.625
0.625
0.625
0.625
0.625
0.625
0.625
SCALARS volume double 1
LOOKUP_TABLE default
0.000421039
0.000585443
0.000547696
0.000612423
0.000618507
0.000611304
0.000620678
0.000643031
0.000625428
0.000624786
0.000634007
0.000619545
0.000640005
0.000651984
0.000616775
0.000610352
0.000619884
0.000609397
0.000621509
0.000634059
0.000628498
0.000638714
0.000632258
0.000623184
0.000643968
0.000646463
0.000609825
0.000616208
0.000618042
0.000597183
0.000637314
0.000625603
0.000626458
0.0006577
0.000640624
0.00062361
0.000633389
0.00065213
0.000622419
0.000629649
0.000646639
0.000639638
0.000604305
0.00061045
0.000628243
0.000641274
0.000616187
0.000595871
0.000638179
0.000619361
0.000637931
0.000633304
0.000655275
0.000627451
0.000643428
0.000630053
0.00063255
0.000645628
0.000648902
0.00062091
0.000609738
0.000633893
0.000629851
0.000626114
VECTORS momentum double
0.0455528 -1.01535 0 
-0.346839 -1.14972 0 
0.0455818 -0.723157 0 
-0.405841 -1.02367 0 
-0.34151 -1.11077 0 
-0.343322 -1.34204 0 
-0.209175 -1.15937 0 
-0.286341 -1.401 0 
-0.476564 -1.68252 0 
-0.653255 -1.84478 0 
-0.673214 -1.6459 0 
-0.782557 -1.54723 0 
-0.756765 -1.88371 0 
-1.14881 -2.24982 0 
-0.686985 -1.43324 0 
-1.14741 -1.86695 0 
0.0187617 -1.12038 0 
-0.252096 -1.30519 0 
-0.0366568 -1.11735 0 
-0.225191 -1.35068 0 
-0.0112995 -1.32211 0 
-0.173969 -1.39861 0 
-0.0834767 -1.39767 0 
-0.338059 -1.43093 0 
-0.684903 -1.64696 0 
-0.958187 -1.66725 0 
-0.847981 -1.51034 0 
-1.21261 -1.65151 0 
-0.790595 -1.47903 0 
-1.02014 -1.74481 0 
-0.958251 -1.67383 0 
-1.12243 -1.73636 0 
-0.0556493 -0.766246 0 
-0.258761 -1.19425 0 
-0.188801 -0.719156 0 
-0.37455 -1.01192 0 
-0.241104 -1.34169 0 
-0.58923 -1.35077 0 
-0.389906 -0.995665 0 
-0.686432 -0.944963 0 
-0.926177 -1.475 0 
-1.00523 -1.74774 0 
-0.911306 -1.36965 0 
-0.650099 -1.69652 0 
-0.668372 -1.76984 0 
-1.17759 -1.81069 0 
-0.279185 -1.60504 0 
-0.849491 -1.89838 0 
-0.197461 -0.871027 0 
-0.414355 -1.03598 0 
-0.523078 -0.428883 0 
-0.802303 -0.505531 0 
-0.534979 -1.06933 0 
-0.66782 -0.984673 0 
-1.06385 -0.626266 0 
-1.17806 -0.684435 0 
-0.810384 -1.27285 0 
-0.901618 -1.65011 0 
-1.25672 -0.555859 0 
-1.36124 -0.937803 0 
-0.945251 -1.53688 0 
-1.40325 -2.28025 0 
-1.14866 -0.942381 0 
-1.72151 -1.34207 0 
VECTORS body_force double
0 -9.81 0 
0 -9.81 0 
0 -9.81 0 
0 -9.81 0 
0 -9.81 0 
0 -9.81 0 
0 -9.81 0 
0 -9.81 0 
0 -9.81 0 
0 -9.81 0 
0 -9.81 0 
0 -9.81 0 
0 -9.81 0 
0 -9.81 0 
0 -9.81 0 
0 -9.81 0 
0 -9.81 0 
0 -9.81 0 
0 -9.81 0 
0 -9.81 0 
0 -9.81 0 
0 -9.81 0 
0 -9.81 0 
0 -9.81 0 
0 -9.81 0 
0 -9.81 0 
0 -9.81 0 
0 -9.81 0 
0 -9.81 0 
0 -9.81 0 
0 -9.81 0 
0 -9.81 0 
0 -9.81 0 
0 -9.81 0 
0 -9.81 0 
0 -9.81 0 
0 -9.81 0 
0 -9.81 0 
0 -9.81 0 
0 -9.81 0 
0 -9.81 0 
0 -9.81 0 
0 -9.81 0 
0 -9.81 0 
0 -9.81 0 
0 -9.81 0 
0 -9.81 0 
0 -9.81 0 
0 -9.81 0 
0 -9.81 0 
0 -9.81 0 
0 -9.81 0 
0 -9.81 0 
0 -9.81 0 
0 -9.81 0 
0 -9.81 0 
0 -9.81 0 
0 -9.81 0 
0 -9.81 0 
0 -9.81 0 
0 -9.81 0 
0 -9.81 0 
0 -9.81 0 
0 -9.81 0 
TENSORS cauchy_stress double
-19610.5 925.127 0
925.127 -56356.1 0
0 0 0

472.34 1306.92 0
1306.92 -13046.1 0
0 0 0

-7369.86 -766.795 0
-766.795 -18020.7 0
0 0 0

1225.91 1421.49 0
1421.49 -5135.14 0
0 0 0

413.221 2077.82 0
2077.82 -2421.37 0
0 0 0

-40.1512 1564.62 0
1564.62 -4220.97 0
0 0 0

1515.62 1474.06 0
1474.06 -2850.11 0
0 0 0

5144.08 -986.462 0
-986.462 325.487 0
0 0 0

2172.81 1217.97 0
1217.97 -2041.16 0
0 0 0

512.25 304.668 0
304.668 -578.224 0
0 0 0

1499.92 -540.873 0
-540.873 1251.55 0
0 0 0

-2605.37 217.663 0
217.663 919.574 0
0 0 0

3084.55 -769.377 0
-769.377 1477.91 0
0 0 0

4617.72 973.723 0
973.723 3510.9 0
0 0 0

-2373.47 -365.959 0
-365.959 -174.254 0
0 0 0

-5510.7 -939.31 0
-939.31 949.886 0
0 0 0

824.765 -228.071 0
-228.071 -2405.25 0
0 0 0

817.643 341.096 0
341.096 -5679.45 0
0 0 0

-26.3437 -1263.15 0
-1263.15 -1050.79 0
0 0 0

2477.18 -1150.18 0
-1150.18 290.224 0
0 0 0

804.718 591.954 0
591.954 268.615 0
0 0 0

3578.59 261.611 0
261.611 595.503 0
0 0 0

55.9594 1404.26 0
1404.26 2164.46 0
0 0 0

1545.02 -831.84 0
-831.84 -2104.61 0
0 0 0

5331.43 -1139.55 0
-1139.55 418.169 0
0 0 0

5982.65 -1654.41 0
-1654.41 510.577 0
0 0 0

-965.89 -830.536 0
-830.536 -3761.05 0
0 0 0

-238.702 56.2681 0
56.2681 -2485.59 0
0 0 0

2305.4 -1396.44 0
-1396.44 -4458.31 0
0 0 0

-4831.06 -1241.85 0
-1241.85 -3924.19 0
0 0 0

6826.26 -732.906 0
-732.906 -3074.25 0
0 0 0

3259.7 -2898.31 0
-2898.31 -3074.28 0
0 0 0

-387.44 1619.89 0
1619.89 835.683 0
0 0 0

5376.27 -209.682 0
-209.682 4430.91 0
0 0 0

3096.63 -751.863 0
-751.863 1651.64 0
0 0 0

2191.32 -100.76 0
-100.76 -2619.43 0
0 0 0

756.467 54.3636 0
54.3636 1807.62 0
0 0 0

6175.84 2223.87 0
2223.87 1995.87 0
0 0 0

-2153.7 852.109 0
852.109 1357.76 0
0 0 0

2029.06 -1311.8 0
-1311.8 -603.935 0
0 0 0

4509.19 3600.81 0
3600.81 2036.41 0
0 0 0

3954.27 1123.67 0
1123.67 497.821 0
0 0 0

-2417.49 -2384.78 0
-2384.78 -4058 0
0 0 0

-3610.08 173.739 0
173.739 -919.818 0
0 0 0

1335.66 -106.425 0
-106.425 -340.529 0
0 0 0

5457.84 -611.113 0
-611.113 -514.576 0
0 0 0

-1311.84 -2924.64 0
-2924.64 -1419.15 0
0 0 0

-4382.55 -3827.7 0
-3827.7 -4795.94 0
0 0 0

-195.053 -21.4628 0
-21.4628 4207.94 0
0 0 0

128.649 118.969 0
118.969 -1871.65 0
0 0 0

3304.69 1088.84 0
1088.84 633.521 0
0 0 0

297.908 -1839.57 0
-1839.57 2240.39 0
0 0 0

2721.81 -597.361 0
-597.361 6374.98 0
0 0 0

-1681.49 -2107.31 0
-2107.31 2434.3 0
0 0 0

3124.15 -961.465 0
-961.465 2464 0
0 0 0

1929.67 -686.15 0
-686.15 -381.163 0
0 0 0

-500.792 1789.66 0
1789.66 2809.9 0
0 0 0

705.016 -2244.65 0
-2244.65 5539.49 0
0 0 0

3939.82 -4555.7 0
-4555.7 3277.55 0
0 0 0

1626.34 -615.913 0
-615.913 -2888.97 0
0 0 0

-3597.04 -1686.17 0
-1686.17 -1157.22 0
0 0 0

-297.088 1450.35 0
1450.35 3014.24 0
0 0 0

5129.26 1074.74 0
1074.74 -3642.26 0
0 0 0

227.24 -1254.61 0
-1254.61 115.226 0
0 0 0

TENSORS velocity_gradient double
3.87211 -5.825 0
2.5914 -33.3796 0
0 0 0

5.41579 -6.02984 0
3.60187 -26.4742 0
0 0 0

2.92617 -3.6384 0
-1.97197 -30.7356 0
0 0 0

5.9267 -2.52641 0
3.82436 -9.89463 0
0 0 0

4.64341 -2.79152 0
5.00865 -9.52853 0
0 0 0

3.77945 -4.13462 0
7.90761 -9.38368 0
0 0 0

5.95102 -2.54673 0
3.63467 -9.73607 0
0 0 0

5.94222 -8.92179 0
3.63888 -7.42783 0
0 0 0

4.9871 -10.1515 0
7.41667 -5.02904 0
0 0 0

3.43326 -9.44458 0
6.15091 -3.21716 0
0 0 0

3.71199 -12.6384 0
6.36008 -5.6192 0
0 0 0

1.92347 -11.1649 0
5.01301 -4.50942 0
0 0 0

4.01021 -9.10907 0
9.22666 -4.18404 0
0 0 0

5.8988 -8.18238 0
11.5407 -2.7144 0
0 0 0

1.08697 -4.93815 0
3.94799 -0.623626 0
0 0 0

7.80182 -5.77746 0
12.965 -0.849874 0
0 0 0

2.59585 -3.76728 0
-1.22983 -5.03904 0
0 0 0

1.64201 -2.97193 0
2.54563 -8.18713 0
0 0 0

1.62142 -4.78749 0
2.54815 -1.18816 0
0 0 0

0.876079 -3.9664 0
5.57728 -4.25089 0
0 0 0

5.95289 -5.62928 0
3.57228 -8.36647 0
0 0 0

5.84041 -13.6656 0
4.20345 -4.95151 0
0 0 0

1.33771 -13.0347 0
7.95636 -2.85904 0
0 0 0

4.85235 -13.7068 0
6.14939 -4.01108 0
0 0 0

5.68377 -13.5327 0
5.08351 -5.69861 0
0 0 0

1.49316 -5.13208 0
4.23445 -2.29098 0
0 0 0

5.46622 -8.98371 0
5.4327 -4.2345 0
0 0 0

4.88323 -5.17552 0
4.72402 -3.05882 0
0 0 0

1.1908 -4.81048 0
3.29792 -1.42294 0
0 0 0

1.26562 -4.43703 0
2.4647 -0.736741 0
0 0 0

2.51523 -4.77914 0
3.15372 -2.28935 0
0 0 0

-0.0826818 1.74514 0
0.941771 -3.10843 0
0 0 0

-1.27342 -6.00353 0
9.2474 -0.0806541 0
0 0 0

-0.0536416 -11.0225 0
8.34944 -0.129001 0
0 0 0

-1.90989 -10.4453 0
9.44279 1.15047 0
0 0 0

-1.80621 -10.6854 0
10.046 0.688977 0
0 0 0

2.30395 -11.8259 0
9.24098 -1.25201 0
0 0 0

3.04758 -11.1639 0
10.9565 -2.52396 0
0 0 0

-0.56826 -10.9836 0
10.618 0.249294 0
0 0 0

1.77164 -11.057 0
12.8735 0.238862 0
0 0 0

2.92021 -6.72 0
9.78003 -4.14785 0
0 0 0

4.37571 -5.83866 0
3.97831 -4.03318 0
0 0 0

-0.64249 -8.9699 0
15.437 -1.97737 0
0 0 0

-1.83145 -7.47622 0
15.5657 -1.57544 0
0 0 0

3.21113 -3.84921 0
3.91989 -3.72393 0
0 0 0

-0.259405 -1.43036 0
3.4177 -5.08914 0
0 0 0

1.21696 -5.98815 0
5.5945 -1.77838 0
0 0 0

-1.127 -3.75257 0
7.62384 -3.71388 0
0 0 0

-3.02341 -10.0614 0
8.37143 1.72942 0
0 0 0

-1.71008 -10.5619 0
10.5248 1.30409 0
0 0 0

-1.91954 -8.56061 0
8.34415 2.01647 0
0 0 0

1.0382 -13.4349 0
7.90627 1.63922 0
0 0 0

-2.25585 -14.0008 0
10.8956 2.12968 0
0 0 0

-3.1887 -12.976 0
11.3208 1.95936 0
0 0 0

-3.2356 -15.1242 0
11.0059 2.25624 0
0 0 0

-4.25761 -13.2398 0
11.387 2.79784 0
0 0 0

-2.46612 -10.3216 0
17.2839 0.313069 0
0 0 0

-3.5378 -8.51107 0
17.9403 -0.0981645 0
0 0 0

-4.67039 -9.73626 0
14.4834 1.8844 0
0 0 0

-4.23627 -9.29303 0
18.1604 0.14827 0
0 0 0

-3.85614 -7.70663 0
16.6749 -0.413188 0
0 0 0

-2.26789 -18.1671 0
11.834 -3.56684 0
0 0 0

-4.22455 -13.4558 0
18.2781 1.45253 0
0 0 0

-2.26365 -16.9052 0
18.0967 2.10856 0
0 0 0

SCALARS active double 1
LOOKUP_TABLE default
1
1
1
1
1
1
1
1
1
1
1
1
1
1
1
1
1
1
1
1
1
1
1
1
1
1
1
1
1
1
1
1
1
1
1
1
1
1
1
1
1
1
1
1
1
1
1
1
1
1
1
1
1
1
1
1
1
1
1
1
1
1
1
1
SCALARS extent double 1
LOOKUP_TABLE default
0.0125
0.0125
0.0125
0.0125
0.0125
0.0125
0.0125
0.0125
0.0125
0.0125
0.0125
0.0125
0.0125
0.0125
0.0125
0.0125
0.0125
0.0125
0.0125
0.0125
0.0125
0.0125
0.0125
0.0125
0.0125
0.0125
0.0125
0.0125
0.0125
0.0125
0.0125
0.0125
0.0125
0.0125
0.0125
0.0125
0.0125
0.0125
0.0125
0.0125
0.0125
0.0125
0.0125
0.0125
0.0125
0.0125
0.0125
0.0125
0.0125
0.0125
0.0125
0.0125
0.0125
0.0125
0.0125
0.0125
0.0125
0.0125
0.0125
0.0125
0.0125
0.0125
0.0125
0.0125
SCALARS pressure double 1
LOOKUP_TABLE default
37983.3
6286.88
12695.3
1954.62
1004.07
2130.56
667.244
-2734.78
-65.828
32.987
-1375.74
842.899
-2281.23
-4064.31
1273.86
2280.41
790.245
2430.9
538.569
-1383.7
-536.667
-2087.05
-1110.21
279.799
-2874.8
-3246.61
2363.47
1362.15
1076.46
4377.62
-1876
-92.7117
-224.121
-4903.59
-2374.13
214.054
-1282.04
-4085.86
397.972
-712.565
-3272.8
-2226.05
3237.74
2264.95
-497.564
-2471.63
1365.49
4589.24
-2006.44
871.501
-1969.1
-1269.15
-4548.39
-376.406
-2794.07
-774.252
-1154.55
-3122.25
-3608.68
631.312
2377.13
-1358.58
-743.496
-171.233
SCALARS density double 1
LOOKUP_TABLE default
1484.42
1067.57
1141.14
1020.54
1010.5
1022.41
1006.96
971.959
999.316
1000.34
985.794
1008.8
976.554
958.612
1013.34
1024
1008.25
1025.6
1005.62
985.713
994.434
978.529
988.52
1002.91
970.545
966.799
1024.88
1014.27
1011.26
1046.58
980.679
999.036
997.672
950.281
975.611
1002.23
986.755
958.397
1004.15
992.617
966.536
977.115
1034.25
1023.84
994.839
974.623
1014.3
1048.89
979.349
1009.1
979.73
986.888
953.798
996.093
971.36
991.98
988.064
968.05
963.165
1006.59
1025.03
985.97
992.297
998.221
