# vtk DataFile Version 3.0
Frame: 4, Time: 0.068
ASCII
DATASET UNSTRUCTURED_GRID
POINTS 64 double
0.537271 0.284666 0 
0.533442 0.313315 0 
0.552849 0.283629 0 
0.550244 0.312762 0 
0.528705 0.339822 0 
0.518878 0.365089 0 
0.547046 0.341273 0 
0.539497 0.368212 0 
0.507749 0.389562 0 
0.499917 0.414594 0 
0.530867 0.394147 0 
0.524084 0.419096 0 
0.493723 0.440332 0 
0.491454 0.465904 0 
0.518498 0.444255 0 
0.516372 0.469276 0 
0.573937 0.286674 0 
0.57085 0.314502 0 
0.596163 0.289538 0 
0.592574 0.316357 0 
0.567564 0.342423 0 
0.561186 0.369806 0 
0.588848 0.343333 0 
0.583246 0.370339 0 
0.554055 0.39678 0 
0.548114 0.422032 0 
0.577215 0.397156 0 
0.572328 0.422702 0 
0.543042 0.447064 0 
0.541401 0.471878 0 
0.568149 0.447977 0 
0.567088 0.47292 0 
0.618487 0.291373 0 
0.614949 0.317703 0 
0.641037 0.292922 0 
0.637783 0.318947 0 
0.61104 0.344056 0 
0.6059 0.370642 0 
0.634068 0.344941 0 
0.629405 0.371078 0 
0.600634 0.397272 0 
0.596559 0.422941 0 
0.624657 0.397251 0 
0.621058 0.422735 0 
0.593163 0.44839 0 
0.592582 0.473407 0 
0.618064 0.448076 0 
0.617556 0.473102 0 
0.664879 0.294549 0 
0.661753 0.320394 0 
0.689021 0.29651 0 
0.685916 0.32228 0 
0.658117 0.346213 0 
0.653693 0.372008 0 
0.682326 0.348131 0 
0.678074 0.37374 0 
0.649224 0.397792 0 
0.64586 0.422984 0 
0.673818 0.399238 0 
0.670657 0.424008 0 
0.643036 0.448087 0 
0.642478 0.473059 0 
0.667985 0.448695 0 
0.667377 0.473422 0 
CELLS 64 128
1 0
1 1
1 2
1 3
1 4
1 5
1 6
1 7
1 8
1 9
1 10
1 11
1 12
1 13
1 14
1 15
1 16
1 17
1 18
1 19
1 20
1 21
1 22
1 23
1 24
1 25
1 26
1 27
1 28
1 29
1 30
1 31
1 32
1 33
1 34
1 35
1 36
1 37
1 38
1 39
1 40
1 41
1 42
1 43
1 44
1 45
1 46
1 47
1 48
1 49
1 50
1 51
1 52
1 53
1 54
1 55
1 56
1 57
1 58
1 59
1 60
1 61
1 62
1 63
CELL_TYPES 64
1
1
1
1
1
1
1
1
1
1
1
1
1
1
1
1
1
1
1
1
1
1
1
1
1
1
1
1
1
1
1
1
1
1
1
1
1
1
1
1
1
1
1
1
1
1
1
1
1
1
1
1
1
1
1
1
1
1
1
1
1
1
1
1
POINT_DATA 64
VECTORS displacement double
-0.0752287 -0.0278342 0 
-0.0790579 -0.0241849 0 
-0.0846512 -0.0288706 0 
-0.0872559 -0.0247382 0 
-0.0837954 -0.0226783 0 
-0.0936221 -0.0224106 0 
-0.0904536 -0.0212273 0 
-0.098003 -0.0192881 0 
-0.104751 -0.0229383 0 
-0.112583 -0.0229059 0 
-0.106633 -0.0183532 0 
-0.113416 -0.0184044 0 
-0.118777 -0.0221676 0 
-0.121046 -0.0215959 0 
-0.119002 -0.0182451 0 
-0.121128 -0.0182245 0 
-0.0885629 -0.025826 0 
-0.0916501 -0.0229979 0 
-0.091337 -0.0229618 0 
-0.0949264 -0.0211431 0 
-0.094936 -0.0200766 0 
-0.101314 -0.0176945 0 
-0.0986518 -0.0191665 0 
-0.104254 -0.0171614 0 
-0.108445 -0.0157203 0 
-0.114386 -0.0154683 0 
-0.110285 -0.0153445 0 
-0.115172 -0.0147978 0 
-0.119458 -0.0154356 0 
-0.121099 -0.0156222 0 
-0.119351 -0.0145231 0 
-0.120412 -0.0145799 0 
-0.0940126 -0.0211267 0 
-0.0975508 -0.0197972 0 
-0.0964627 -0.0195776 0 
-0.0997167 -0.0185533 0 
-0.10146 -0.0184441 0 
-0.1066 -0.0168583 0 
-0.103432 -0.0175593 0 
-0.108095 -0.016422 0 
-0.111866 -0.0152282 0 
-0.115941 -0.0145588 0 
-0.112843 -0.0152492 0 
-0.116442 -0.0147646 0 
-0.119337 -0.0141096 0 
-0.119918 -0.0140933 0 
-0.119436 -0.0144239 0 
-0.119944 -0.014398 0 
-0.0976206 -0.0179511 0 
-0.100747 -0.0171058 0 
-0.0984794 -0.0159902 0 
-0.101584 -0.0152199 0 
-0.104383 -0.0162871 0 
-0.108807 -0.0154917 0 
-0.105174 -0.0143691 0 
-0.109426 -0.0137599 0 
-0.113276 -0.0147082 0 
-0.11664 -0.014516 0 
-0.113682 -0.013262 0 
-0.116843 -0.0134918 0 
-0.119464 -0.0144128 0 
-0.120022 -0.014441 0 
-0.119515 -0.0138049 0 
-0.120123 -0.0140784 0 
VECTORS velocity double
0.711266 0.0103539 0 
0.335811 -0.00512427 0 
-0.609494 -0.830364 0 
-0.325998 -0.542306 0 
0.621598 -0.802807 0 
0.0486143 -1.24271 0 
0.236863 -0.341752 0 
0.00123099 -0.393312 0 
-0.345221 -1.48637 0 
-0.398347 -1.43195 0 
-0.247012 -0.517242 0 
-0.438999 -0.724741 0 
-0.446817 -1.3967 0 
-0.933317 -1.28116 0 
-0.610696 -0.890318 0 
-1.01764 -0.93787 0 
0.161562 -0.285367 0 
0.185034 -0.361203 0 
0.59591 0.111719 0 
0.328554 -0.18425 0 
0.577632 -0.25016 0 
0.340348 -0.159155 0 
0.504984 -0.318858 0 
0.290177 -0.242669 0 
-0.105582 -0.176875 0 
-0.44537 -0.398563 0 
-0.071623 -0.189719 0 
-0.382839 -0.277363 0 
-0.71458 -0.643155 0 
-0.842716 -0.714814 0 
-0.611152 -0.400397 0 
-0.607265 -0.470883 0 
0.563948 0.181443 0 
0.298589 -0.0826566 0 
0.704822 0.183517 0 
0.52816 0.0288772 0 
0.325456 -0.332506 0 
0.152304 -0.314911 0 
0.457179 -0.182212 0 
0.211461 -0.20371 0 
-0.0719673 -0.221741 0 
-0.318983 -0.194855 0 
-0.0523435 -0.163718 0 
-0.30727 -0.144369 0 
-0.51057 -0.198829 0 
-0.474036 -0.294344 0 
-0.520207 -0.135911 0 
-0.501449 -0.194186 0 
0.888358 0.387632 0 
0.719271 0.28066 0 
0.912525 0.7543 0 
0.626615 0.689949 0 
0.575361 0.11691 0 
0.270667 0.0520803 0 
0.37158 0.6662 0 
0.0827981 0.622845 0 
-0.0666137 0.0237018 0 
-0.346759 -0.0098593 0 
-0.213556 0.564548 0 
-0.410428 0.413582 0 
-0.58201 -0.0326234 0 
-0.569799 -0.0573408 0 
-0.57089 0.267162 0 
-0.558975 0.161842 0 
SCALARS mass double 1
LOOKUP_TABLE default
0.625
0.625
0.625
0.625
0.625
0.625
0.625
0.625
0.625
0.625
0.625
0.625
0.625
0.625
0.625
0.625
0.625
0.625
0.625
0.625
0.625
0.625
0.625
0.625
0.625
0.625
0.625
0.625
0.625
0.625
0.625
0.625
0.625
0.625
0.625
0.625
0.625
0.625
0.625
0.625
0.625
0.625
0.625
0.625
0.625
0.625
0.625
0.625
0.625
0.625
0.625
0.625
0.625
0.625
0.625
0.625
0.625
0.625
0.625
0.625
0.625
0.625
0.625
0.625
SCALARS volume double 1
LOOKUP_TABLE default
0.000346847
0.000377461
0.000593323
0.000577935
0.00040811
0.000507121
0.000559414
0.000604059
0.000562859
0.000634632
0.000618052
0.000635613
0.000640726
0.000632336
0.000628729
0.000631864
0.000592808
0.000595885
0.000605013
0.000611026
0.000567408
0.000594394
0.000585646
0.000612023
0.000594621
0.000609781
0.000610194
0.000618291
0.000618485
0.000630362
0.000630612
0.000640466
0.000579987
0.000600284
0.000605427
0.000614882
0.000597702
0.000625467
0.000611317
0.000629466
0.000622702
0.000624453
0.000628356
0.000624663
0.000632597
0.000633267
0.000627184
0.000621147
0.000620057
0.00062903
0.000621412
0.000639303
0.000626097
0.00063602
0.000635182
0.000635426
0.000632812
0.000625389
0.000627917
0.000616352
0.000626142
0.000620819
0.000619353
0.000617118
VECTORS momentum double
0.444541 0.0064712 0 
0.209882 -0.00320267 0 
-0.380933 -0.518977 0 
-0.203749 -0.338941 0 
0.388498 -0.501755 0 
0.0303839 -0.776692 0 
0.148039 -0.213595 0 
0.00076937 -0.24582 0 
-0.215763 -0.928978 0 
-0.248967 -0.894966 0 
-0.154383 -0.323276 0 
-0.274375 -0.452963 0 
-0.27926 -0.872936 0 
-0.583323 -0.800725 0 
-0.381685 -0.556449 0 
-0.636025 -0.586169 0 
0.100976 -0.178354 0 
0.115646 -0.225752 0 
0.372444 0.0698241 0 
0.205346 -0.115156 0 
0.36102 -0.15635 0 
0.212717 -0.0994721 0 
0.315615 -0.199286 0 
0.181361 -0.151668 0 
-0.0659889 -0.110547 0 
-0.278356 -0.249102 0 
-0.0447644 -0.118575 0 
-0.239274 -0.173352 0 
-0.446613 -0.401972 0 
-0.526697 -0.446759 0 
-0.38197 -0.250248 0 
-0.379541 -0.294302 0 
0.352468 0.113402 0 
0.186618 -0.0516603 0 
0.440514 0.114698 0 
0.3301 0.0180482 0 
0.20341 -0.207816 0 
0.0951902 -0.196819 0 
0.285737 -0.113882 0 
0.132163 -0.127319 0 
-0.0449796 -0.138588 0 
-0.199364 -0.121785 0 
-0.0327147 -0.102324 0 
-0.192044 -0.0902308 0 
-0.319106 -0.124268 0 
-0.296272 -0.183965 0 
-0.32513 -0.0849445 0 
-0.313406 -0.121366 0 
0.555224 0.24227 0 
0.449545 0.175413 0 
0.570328 0.471437 0 
0.391634 0.431218 0 
0.359601 0.0730688 0 
0.169167 0.0325502 0 
0.232237 0.416375 0 
0.0517488 0.389278 0 
-0.0416336 0.0148136 0 
-0.216725 -0.00616206 0 
-0.133472 0.352842 0 
-0.256517 0.258489 0 
-0.363756 -0.0203896 0 
-0.356124 -0.035838 0 
-0.356806 0.166976 0 
-0.349359 0.101151 0 
VECTORS body_force double
0 -9.81 0 
0 -9.81 0 
0 -9.81 0 
0 -9.81 0 
0 -9.81 0 
0 -9.81 0 
0 -9.81 0 
0 -9.81 0 
0 -9.81 0 
0 -9.81 0 
0 -9.81 0 
0 -9.81 0 
0 -9.81 0 
0 -9.81 0 
0 -9.81 0 
0 -9.81 0 
0 -9.81 0 
0 -9.81 0 
0 -9.81 0 
0 -9.81 0 
0 -9.81 0 
0 -9.81 0 
0 -9.81 0 
0 -9.81 0 
0 -9.81 0 
0 -9.81 0 
0 -9.81 0 
0 -9.81 0 
0 -9.81 0 
0 -9.81 0 
0 -9.81 0 
0 -9.81 0 
0 -9.81 0 
0 -9.81 0 
0 -9.81 0 
0 -9.81 0 
0 -9.81 0 
0 -9.81 0 
0 -9.81 0 
0 -9.81 0 
0 -9.81 0 
0 -9.81 0 
0 -9.81 0 
0 -9.81 0 
0 -9.81 0 
0 -9.81 0 
0 -9.81 0 
0 -9.81 0 
0 -9.81 0 
0 -9.81 0 
0 -9.81 0 
0 -9.81 0 
0 -9.81 0 
0 -9.81 0 
0 -9.81 0 
0 -9.81 0 
0 -9.81 0 
0 -9.81 0 
0 -9.81 0 
0 -9.81 0 
0 -9.81 0 
0 -9.81 0 
0 -9.81 0 
0 -9.81 0 
TENSORS cauchy_stress double
-92289.5 -11655.8 0
-11655.8 -20954.4 0
0 0 0

-74080.4 -11437.3 0
-11437.3 -22897.2 0
0 0 0

-18557.1 234.953 0
234.953 8554.52 0
0 0 0

-21898 -4149.74 0
-4149.74 6842.1 0
0 0 0

-56039.6 -12341.1 0
-12341.1 -25924.8 0
0 0 0

-25958.4 -16891.1 0
-16891.1 -14234.5 0
0 0 0

-21251.7 -5292.81 0
-5292.81 -67.7567 0
0 0 0

-8457.56 -10258.2 0
-10258.2 1903.69 0
0 0 0

-10368 -8438.63 0
-8438.63 -9770.89 0
0 0 0

-49.0233 -5444.55 0
-5444.55 2989.99 0
0 0 0

-1795.3 -5170.95 0
-5170.95 -354.631 0
0 0 0

1067.75 -3433.02 0
-3433.02 2170.39 0
0 0 0

872.947 -320.31 0
-320.31 3906.1 0
0 0 0

-540.93 504.376 0
504.376 2785.1 0
0 0 0

-203.055 1216.23 0
1216.23 1346.99 0
0 0 0

781.426 2493.05 0
2493.05 1318.94 0
0 0 0

-14406.7 524.587 0
524.587 4237.35 0
0 0 0

-15501 -3050.61 0
-3050.61 6327.15 0
0 0 0

-8214.33 -1371.68 0
-1371.68 1963.92 0
0 0 0

-9080.13 -4100.35 0
-4100.35 4731.73 0
0 0 0

-19502 -5600.92 0
-5600.92 911.151 0
0 0 0

-12254.4 -11933 0
-11933 2598.92 0
0 0 0

-13270.5 -5668.5 0
-5668.5 763.441 0
0 0 0

-8009.77 -9555.55 0
-9555.55 3974.9 0
0 0 0

-8229.45 -10097.3 0
-10097.3 -1352.77 0
0 0 0

-3082.21 -7520.64 0
-7520.64 -1658.44 0
0 0 0

-5561.86 -8156.28 0
-8156.28 951.252 0
0 0 0

-2056.78 -6649.08 0
-6649.08 -18.6619 0
0 0 0

-971.684 -1840 0
-1840 -1043.45 0
0 0 0

1609.48 565.803 0
565.803 33.2456 0
0 0 0

1090.4 -2366.02 0
-2366.02 628.671 0
0 0 0

3542.49 266.533 0
266.533 1158.31 0
0 0 0

-13113.3 -1746.66 0
-1746.66 -1260.9 0
0 0 0

-9624.56 -4629.77 0
-4629.77 1865.33 0
0 0 0

-7139.62 -1039.23 0
-1039.23 1020.74 0
0 0 0

-5254.78 -4276.2 0
-4276.2 2116.13 0
0 0 0

-9036.42 -5562.74 0
-5562.74 448.06 0
0 0 0

-4352.44 -8370.02 0
-8370.02 4496.11 0
0 0 0

-5280.5 -4877.69 0
-4877.69 1023.58 0
0 0 0

-2251.22 -7043.3 0
-7043.3 3620.53 0
0 0 0

-3116.26 -7688.9 0
-7688.9 2407.85 0
0 0 0

-1239.72 -6384.25 0
-6384.25 1071.43 0
0 0 0

-1353.83 -6506.26 0
-6506.26 2383.68 0
0 0 0

-851.613 -5441.35 0
-5441.35 747.842 0
0 0 0

1081.83 -2871.64 0
-2871.64 1241.61 0
0 0 0

1927.65 -273.315 0
-273.315 599.229 0
0 0 0

-35.0257 -3242.08 0
-3242.08 705.948 0
0 0 0

-725.91 -622.908 0
-622.908 -463.148 0
0 0 0

-3310.12 400.419 0
400.419 1783 0
0 0 0

-1903.88 -2935.36 0
-2935.36 3139.92 0
0 0 0

-1825.03 266.793 0
266.793 717.999 0
0 0 0

175.848 -2734.97 0
-2734.97 4175.49 0
0 0 0

-1878.08 -3171.78 0
-3171.78 2215.43 0
0 0 0

-2.84176 -4797.96 0
-4797.96 3364.01 0
0 0 0

-73.9117 -2988.27 0
-2988.27 3181.6 0
0 0 0

465.125 -4116.54 0
-4116.54 2716.34 0
0 0 0

253.98 -4475.67 0
-4475.67 2134.86 0
0 0 0

-86.5969 -3733.01 0
-3733.01 206.123 0
0 0 0

40.9702 -3479.99 0
-3479.99 854.341 0
0 0 0

-785.72 -2730.77 0
-2730.77 -1893.83 0
0 0 0

98.5493 -2235.21 0
-2235.21 252.552 0
0 0 0

-721.827 219.512 0
219.512 -568.956 0
0 0 0

-347.024 -1664.23 0
-1664.23 -1398.42 0
0 0 0

-876.572 365.062 0
365.062 -1564.02 0
0 0 0

TENSORS velocity_gradient double
0.312227 0.538474 0
-3.75398 -0.625511 0
0 0 0

1.78952 1.48689 0
0.16952 -5.13755 0
0 0 0

4.00256 0.695786 0
3.68334 -1.09223 0
0 0 0

2.70142 2.14473 0
2.53791 -1.08698 0
0 0 0

3.42289 1.19547 0
8.53455 -6.62998 0
0 0 0

3.58032 -8.13626 0
12.2187 -2.28377 0
0 0 0

3.1453 2.13559 0
7.50709 -1.4848 0
0 0 0

3.50224 -8.69488 0
12.3403 -1.41382 0
0 0 0

2.91027 -7.84034 0
13.2621 -2.74461 0
0 0 0

-0.0454856 -7.40248 0
7.19201 -0.849522 0
0 0 0

2.79539 -8.41956 0
13.3934 -1.78051 0
0 0 0

2.16927 -7.75376 0
12.6548 -1.57829 0
0 0 0

-1.05731 -7.49588 0
4.23925 -1.04608 0
0 0 0

-0.185279 -7.36312 0
4.69287 1.21153 0
0 0 0

1.62163 -7.41503 0
11.3776 -1.1363 0
0 0 0

2.84904 -5.9252 0
10.1408 0.287692 0
0 0 0

5.27962 -0.57627 0
6.50067 -1.96006 0
0 0 0

3.53826 1.36477 0
4.92332 -1.31431 0
0 0 0

5.27887 -2.05622 0
6.4281 -2.84896 0
0 0 0

3.44081 0.161512 0
4.80294 -2.80068 0
0 0 0

1.98364 1.54917 0
3.0029 -1.08651 0
0 0 0

1.87093 -8.82263 0
3.30703 -0.52671 0
0 0 0

1.93648 0.368436 0
2.94464 -2.54507 0
0 0 0

1.87754 -8.50598 0
3.32532 0.348535 0
0 0 0

2.32434 -8.72506 0
5.87594 -1.28427 0
0 0 0

2.22364 -8.26738 0
9.92297 -2.55031 0
0 0 0

2.24647 -8.4825 0
4.41431 -0.349094 0
0 0 0

2.42146 -8.25488 0
5.68847 -1.69559 0
0 0 0

1.67934 -6.90943 0
11.2513 -2.06141 0
0 0 0

3.01327 -4.18128 0
10.0255 -0.936735 0
0 0 0

2.6228 -6.30304 0
6.87891 -1.69344 0
0 0 0

3.36607 -3.02228 0
7.05945 -1.34294 0
0 0 0

6.25314 -2.42622 0
6.68115 -2.81367 0
0 0 0

4.47029 -1.72723 0
6.89864 -3.26408 0
0 0 0

6.25288 -2.43051 0
6.7026 -2.47094 0
0 0 0

4.36088 -4.00855 0
6.90384 -3.15558 0
0 0 0

1.82716 -1.61864 0
7.01765 -3.1319 0
0 0 0

0.31113 -8.55193 0
6.37042 0.852257 0
0 0 0

1.77356 -4.24052 0
7.00985 -2.85725 0
0 0 0

0.228396 -9.6551 0
6.49684 0.25148 0
0 0 0

0.489836 -8.35552 0
5.20162 0.43787 0
0 0 0

1.60205 -8.11991 0
5.64386 -0.538173 0
0 0 0

-0.916357 -8.98947 0
5.83576 0.110121 0
0 0 0

-0.915702 -7.89439 0
5.49452 -0.504245 0
0 0 0

2.62759 -5.78486 0
6.88505 -0.907435 0
0 0 0

3.37663 -2.15075 0
7.05912 -1.37015 0
0 0 0

-0.657848 -5.7152 0
5.28412 -0.690268 0
0 0 0

-0.398038 -1.72651 0
5.5783 -1.08783 0
0 0 0

2.13074 -3.16362 0
7.56512 -2.11117 0
0 0 0

0.780631 -5.89435 0
8.66192 -2.53205 0
0 0 0

2.04277 -4.70297 0
7.62397 -1.62464 0
0 0 0

0.689316 -7.2083 0
8.74647 -1.31553 0
0 0 0

-0.568319 -6.60594 0
9.88936 -2.29319 0
0 0 0

-0.636567 -10.585 0
9.05472 -0.346639 0
0 0 0

-0.614903 -8.18023 0
9.91662 -1.29059 0
0 0 0

-0.869844 -10.6743 0
9.74841 -0.795454 0
0 0 0

-0.889563 -9.56192 0
7.32971 -0.48316 0
0 0 0

-0.808116 -7.62671 0
5.89193 -0.844584 0
0 0 0

-0.833282 -9.16419 0
9.14434 -1.49739 0
0 0 0

-0.34054 -7.1124 0
7.50479 -2.36618 0
0 0 0

-0.659092 -5.51953 0
5.28379 -0.719358 0
0 0 0

-0.399935 -1.46686 0
5.57538 -0.688298 0
0 0 0

0.180428 -4.96276 0
5.75079 -1.84045 0
0 0 0

0.245261 -1.41581 0
4.64992 -1.27393 0
0 0 0

SCALARS active double 1
LOOKUP_TABLE default
1
1
1
1
1
1
1
1
1
1
1
1
1
1
1
1
1
1
1
1
1
1
1
1
1
1
1
1
1
1
1
1
1
1
1
1
1
1
1
1
1
1
1
1
1
1
1
1
1
1
1
1
1
1
1
1
1
1
1
1
1
1
1
1
SCALARS extent double 1
LOOKUP_TABLE default
0.0125
0.0125
0.0125
0.0125
0.0125
0.0125
0.0125
0.0125
0.0125
0.0125
0.0125
0.0125
0.0125
0.0125
0.0125
0.0125
0.0125
0.0125
0.0125
0.0125
0.0125
0.0125
0.0125
0.0125
0.0125
0.0125
0.0125
0.0125
0.0125
0.0125
0.0125
0.0125
0.0125
0.0125
0.0125
0.0125
0.0125
0.0125
0.0125
0.0125
0.0125
0.0125
0.0125
0.0125
0.0125
0.0125
0.0125
0.0125
0.0125
0.0125
0.0125
0.0125
0.0125
0.0125
0.0125
0.0125
0.0125
0.0125
0.0125
0.0125
0.0125
0.0125
0.0125
0.0125
SCALARS pressure double 1
LOOKUP_TABLE default
56622
48488.8
5001.3
7527.97
40982.2
20096.4
10659.7
3276.94
10069.5
-1470.48
1074.97
-1619.07
-2389.52
-1122.08
-571.967
-1050.18
5084.66
4586.94
3125.21
2174.2
9295.44
4827.76
6253.51
2017.44
4791.11
2370.33
2305.31
1037.72
1007.57
-821.365
-859.534
-2350.4
7187.11
3879.62
3059.44
1569.33
4294.18
-71.8372
2128.46
-684.659
354.205
84.1449
-514.922
51.8856
-1161.72
-1263.44
-335.461
594.529
763.556
-618.019
553.515
-2175.67
-168.673
-1680.58
-1553.85
-1590.73
-1194.42
-59.7632
-447.656
1339.78
-175.55
645.391
872.72
1220.29
SCALARS density double 1
LOOKUP_TABLE default
1801.95
1655.8
1053.39
1081.44
1531.45
1232.45
1117.24
1034.67
1110.4
984.823
1011.24
983.303
975.455
988.398
994.069
989.138
1054.3
1048.86
1033.04
1022.87
1101.5
1051.49
1067.2
1021.2
1051.09
1024.96
1024.26
1010.85
1010.53
991.494
991.101
975.852
1077.61
1041.17
1032.33
1016.45
1045.67
999.253
1022.38
992.905
1003.69
1000.88
994.659
1000.54
987.991
986.946
996.517
1006.2
1007.97
993.593
1005.77
977.627
998.247
982.674
983.97
983.592
987.655
999.379
995.355
1014.03
998.176
1006.73
1009.12
1012.77
