# vtk DataFile Version 3.0
Frame: 3, Time: 0.051
ASCII
DATASET UNSTRUCTURED_GRID
POINTS 64 double
0.537205 0.292453 0 
0.534181 0.321083 0 
0.554742 0.292483 0 
0.552539 0.320999 0 
0.530573 0.349235 0 
0.525329 0.376113 0 
0.549863 0.349171 0 
0.54642 0.376049 0 
0.519793 0.402452 0 
0.515229 0.427483 0 
0.542876 0.402511 0 
0.539686 0.427803 0 
0.511506 0.452414 0 
0.510934 0.477208 0 
0.537011 0.452931 0 
0.53629 0.477697 0 
0.575354 0.294605 0 
0.573485 0.322061 0 
0.596869 0.296294 0 
0.595343 0.322971 0 
0.571358 0.349372 0 
0.568805 0.375823 0 
0.593685 0.349592 0 
0.591784 0.375625 0 
0.566249 0.402003 0 
0.563919 0.427326 0 
0.589886 0.401467 0 
0.58818 0.426723 0 
0.561948 0.452528 0 
0.561371 0.477435 0 
0.586736 0.451902 0 
0.58633 0.476932 0 
0.618689 0.297233 0 
0.617547 0.323411 0 
0.640757 0.297957 0 
0.639969 0.323718 0 
0.616309 0.349537 0 
0.614908 0.375255 0 
0.639109 0.34942 0 
0.638153 0.374861 0 
0.613513 0.400845 0 
0.612287 0.426045 0 
0.637208 0.400226 0 
0.636409 0.425366 0 
0.611248 0.451193 0 
0.610982 0.476263 0 
0.635736 0.450476 0 
0.635587 0.475558 0 
0.664126 0.298328 0 
0.663546 0.323867 0 
0.687886 0.298626 0 
0.68748 0.323987 0 
0.662908 0.349358 0 
0.662189 0.374662 0 
0.687026 0.349323 0 
0.686491 0.374533 0 
0.661482 0.399911 0 
0.660896 0.425004 0 
0.685962 0.399704 0 
0.685522 0.424763 0 
0.660405 0.450077 0 
0.660301 0.475142 0 
0.685153 0.449807 0 
0.685069 0.474848 0 
CELLS 64 128
1 0
1 1
1 2
1 3
1 4
1 5
1 6
1 7
1 8
1 9
1 10
1 11
1 12
1 13
1 14
1 15
1 16
1 17
1 18
1 19
1 20
1 21
1 22
1 23
1 24
1 25
1 26
1 27
1 28
1 29
1 30
1 31
1 32
1 33
1 34
1 35
1 36
1 37
1 38
1 39
1 40
1 41
1 42
1 43
1 44
1 45
1 46
1 47
1 48
1 49
1 50
1 51
1 52
1 53
1 54
1 55
1 56
1 57
1 58
1 59
1 60
1 61
1 62
1 63
CELL_TYPES 64
1
1
1
1
1
1
1
1
1
1
1
1
1
1
1
1
1
1
1
1
1
1
1
1
1
1
1
1
1
1
1
1
1
1
1
1
1
1
1
1
1
1
1
1
1
1
1
1
1
1
1
1
1
1
1
1
1
1
1
1
1
1
1
1
POINT_DATA 64
VECTORS displacement double
-0.0752948 -0.0200469 0 
-0.0783191 -0.0164174 0 
-0.0827577 -0.020017 0 
-0.0849612 -0.0165005 0 
-0.0819268 -0.0132647 0 
-0.0871709 -0.0113867 0 
-0.087637 -0.0133286 0 
-0.0910795 -0.0114514 0 
-0.0927073 -0.0100483 0 
-0.097271 -0.0100171 0 
-0.0946244 -0.00998939 0 
-0.0978136 -0.00969747 0 
-0.100994 -0.0100862 0 
-0.101566 -0.0102915 0 
-0.100489 -0.00956939 0 
-0.10121 -0.00980331 0 
-0.0871457 -0.0178947 0 
-0.0890148 -0.0154389 0 
-0.090631 -0.0162057 0 
-0.0921575 -0.0145286 0 
-0.0911422 -0.0131277 0 
-0.093695 -0.0116773 0 
-0.0938147 -0.0129082 0 
-0.0957164 -0.0118749 0 
-0.0962515 -0.0104973 0 
-0.0985815 -0.0101744 0 
-0.0976136 -0.0110326 0 
-0.0993196 -0.0107772 0 
-0.100552 -0.00997225 0 
-0.101129 -0.0100651 0 
-0.100764 -0.0105981 0 
-0.10117 -0.0105684 0 
-0.0938106 -0.0152674 0 
-0.0949529 -0.0140892 0 
-0.0967425 -0.014543 0 
-0.0975314 -0.0137819 0 
-0.096191 -0.0129632 0 
-0.097592 -0.0122454 0 
-0.0983906 -0.0130797 0 
-0.0993473 -0.0126385 0 
-0.0989868 -0.0116552 0 
-0.100213 -0.011455 0 
-0.100292 -0.0122739 0 
-0.101091 -0.0121342 0 
-0.101252 -0.0113067 0 
-0.101518 -0.011237 0 
-0.101764 -0.0120238 0 
-0.101913 -0.0119417 0 
-0.0983739 -0.0141724 0 
-0.0989542 -0.0136334 0 
-0.0996141 -0.0138737 0 
-0.10002 -0.0135127 0 
-0.099592 -0.0131423 0 
-0.100311 -0.0128378 0 
-0.100474 -0.0131774 0 
-0.101009 -0.0129672 0 
-0.101018 -0.0125887 0 
-0.101604 -0.012496 0 
-0.101538 -0.0127958 0 
-0.101978 -0.0127372 0 
-0.102095 -0.0124229 0 
-0.102199 -0.0123579 0 
-0.102347 -0.0126933 0 
-0.102431 -0.0126519 0 
VECTORS velocity double
0.803479 -0.754807 0 
0.437931 -0.466706 0 
-1.07122 -1.35977 0 
-1.10726 -0.764947 0 
0.159717 -0.561582 0 
-0.447763 -0.513122 0 
-1.17881 -0.51035 0 
-1.2089 -0.333792 0 
-1.15949 -0.488008 0 
-1.58125 -0.444826 0 
-1.27941 -0.176321 0 
-1.44354 -0.081829 0 
-1.80608 -0.379661 0 
-1.62347 -0.328511 0 
-1.56241 -0.0117014 0 
-1.60919 -0.0626206 0 
-0.471726 -0.944652 0 
-0.695728 -0.611946 0 
-0.073178 -0.728909 0 
-0.402985 -0.50746 0 
-0.892311 -0.428122 0 
-1.03712 -0.275789 0 
-0.681821 -0.343118 0 
-0.944597 -0.236808 0 
-1.17612 -0.132473 0 
-1.39588 -0.0643558 0 
-1.19623 -0.146879 0 
-1.43855 -0.116786 0 
-1.57823 -0.01497 0 
-1.61183 -0.0361598 0 
-1.62671 -0.0904756 0 
-1.60849 -0.071157 0 
-0.470925 -0.699197 0 
-0.72022 -0.505672 0 
-0.848029 -0.698359 0 
-1.01173 -0.520458 0 
-0.940868 -0.366869 0 
-1.14976 -0.291033 0 
-1.1678 -0.406761 0 
-1.31039 -0.351187 0 
-1.35317 -0.230062 0 
-1.53096 -0.207259 0 
-1.44864 -0.30747 0 
-1.571 -0.289606 0 
-1.66438 -0.184433 0 
-1.62634 -0.153118 0 
-1.66342 -0.270661 0 
-1.63185 -0.23796 0 
-1.02068 -0.643401 0 
-1.14062 -0.504488 0 
-1.14162 -0.565479 0 
-1.23018 -0.473925 0 
-1.26185 -0.415788 0 
-1.37748 -0.371892 0 
-1.32492 -0.410603 0 
-1.42469 -0.377346 0 
-1.49009 -0.338037 0 
-1.59183 -0.327834 0 
-1.52298 -0.352523 0 
-1.61135 -0.351014 0 
-1.67119 -0.31721 0 
-1.6528 -0.293669 0 
-1.68252 -0.350187 0 
-1.67681 -0.339147 0 
SCALARS mass double 1
LOOKUP_TABLE default
0.625
0.625
0.625
0.625
0.625
0.625
0.625
0.625
0.625
0.625
0.625
0.625
0.625
0.625
0.625
0.625
0.625
0.625
0.625
0.625
0.625
0.625
0.625
0.625
0.625
0.625
0.625
0.625
0.625
0.625
0.625
0.625
0.625
0.625
0.625
0.625
0.625
0.625
0.625
0.625
0.625
0.625
0.625
0.625
0.625
0.625
0.625
0.625
0.625
0.625
0.625
0.625
0.625
0.625
0.625
0.625
0.625
0.625
0.625
0.625
0.625
0.625
0.625
0.625
SCALARS volume double 1
LOOKUP_TABLE default
0.000405947
0.00044177
0.000591052
0.000594726
0.000457053
0.000518543
0.000577224
0.000594738
0.000556099
0.000606313
0.000598149
0.000617245
0.000641602
0.000631186
0.000626142
0.0006245
0.000568294
0.000581872
0.00058937
0.000604083
0.000577569
0.000592745
0.000601125
0.000607709
0.000593156
0.00060857
0.000605026
0.000611876
0.000619068
0.00062218
0.000618399
0.000620991
0.000567167
0.000579802
0.000586649
0.000592772
0.000582179
0.000590897
0.000594856
0.000600257
0.000595034
0.000603845
0.000604027
0.00060973
0.000612964
0.000615758
0.000616386
0.000618304
0.000604291
0.00060802
0.000610379
0.000613724
0.000609332
0.000612179
0.000614947
0.000616845
0.000613885
0.000616218
0.000617998
0.000619238
0.000619544
0.000620104
0.000621434
0.000621665
VECTORS momentum double
0.502175 -0.471755 0 
0.273707 -0.291691 0 
-0.669514 -0.849855 0 
-0.692035 -0.478092 0 
0.0998229 -0.350989 0 
-0.279852 -0.320701 0 
-0.736757 -0.318969 0 
-0.755565 -0.20862 0 
-0.724679 -0.305005 0 
-0.988281 -0.278016 0 
-0.79963 -0.110201 0 
-0.90221 -0.0511432 0 
-1.1288 -0.237288 0 
-1.01467 -0.205319 0 
-0.976503 -0.0073134 0 
-1.00574 -0.0391379 0 
-0.294829 -0.590407 0 
-0.43483 -0.382466 0 
-0.0457363 -0.455568 0 
-0.251866 -0.317163 0 
-0.557695 -0.267576 0 
-0.6482 -0.172368 0 
-0.426138 -0.214449 0 
-0.590373 -0.148005 0 
-0.735073 -0.0827956 0 
-0.872426 -0.0402223 0 
-0.747642 -0.0917996 0 
-0.899092 -0.0729914 0 
-0.986394 -0.00935622 0 
-1.00739 -0.0225999 0 
-1.01669 -0.0565472 0 
-1.00531 -0.0444731 0 
-0.294328 -0.436998 0 
-0.450138 -0.316045 0 
-0.530018 -0.436474 0 
-0.63233 -0.325287 0 
-0.588042 -0.229293 0 
-0.718599 -0.181895 0 
-0.729874 -0.254226 0 
-0.818994 -0.219492 0 
-0.845732 -0.143789 0 
-0.95685 -0.129537 0 
-0.905399 -0.192168 0 
-0.981878 -0.181004 0 
-1.04024 -0.115271 0 
-1.01646 -0.0956984 0 
-1.03963 -0.169163 0 
-1.01991 -0.148725 0 
-0.637924 -0.402126 0 
-0.71289 -0.315305 0 
-0.713514 -0.353424 0 
-0.768863 -0.296203 0 
-0.788657 -0.259868 0 
-0.860925 -0.232433 0 
-0.828073 -0.256627 0 
-0.89043 -0.235841 0 
-0.931304 -0.211273 0 
-0.994892 -0.204896 0 
-0.951862 -0.220327 0 
-1.00709 -0.219384 0 
-1.04449 -0.198256 0 
-1.033 -0.183543 0 
-1.05157 -0.218867 0 
-1.04801 -0.211967 0 
VECTORS body_force double
0 -9.81 0 
0 -9.81 0 
0 -9.81 0 
0 -9.81 0 
0 -9.81 0 
0 -9.81 0 
0 -9.81 0 
0 -9.81 0 
0 -9.81 0 
0 -9.81 0 
0 -9.81 0 
0 -9.81 0 
0 -9.81 0 
0 -9.81 0 
0 -9.81 0 
0 -9.81 0 
0 -9.81 0 
0 -9.81 0 
0 -9.81 0 
0 -9.81 0 
0 -9.81 0 
0 -9.81 0 
0 -9.81 0 
0 -9.81 0 
0 -9.81 0 
0 -9.81 0 
0 -9.81 0 
0 -9.81 0 
0 -9.81 0 
0 -9.81 0 
0 -9.81 0 
0 -9.81 0 
0 -9.81 0 
0 -9.81 0 
0 -9.81 0 
0 -9.81 0 
0 -9.81 0 
0 -9.81 0 
0 -9.81 0 
0 -9.81 0 
0 -9.81 0 
0 -9.81 0 
0 -9.81 0 
0 -9.81 0 
0 -9.81 0 
0 -9.81 0 
0 -9.81 0 
0 -9.81 0 
0 -9.81 0 
0 -9.81 0 
0 -9.81 0 
0 -9.81 0 
0 -9.81 0 
0 -9.81 0 
0 -9.81 0 
0 -9.81 0 
0 -9.81 0 
0 -9.81 0 
0 -9.81 0 
0 -9.81 0 
0 -9.81 0 
0 -9.81 0 
0 -9.81 0 
0 -9.81 0 
TENSORS cauchy_stress double
-68353.6 -7763.29 0
-7763.29 -14632.8 0
0 0 0

-56450.5 -8106.47 0
-8106.47 -10272.8 0
0 0 0

-17959.1 405.881 0
405.881 7219.16 0
0 0 0

-16685.3 -3223.01 0
-3223.01 7137.25 0
0 0 0

-47444 -10241.2 0
-10241.2 -12739.2 0
0 0 0

-29263 -10777 0
-10777 -6646.21 0
0 0 0

-16727 -5545.13 0
-5545.13 1434.28 0
0 0 0

-11578.5 -6318.23 0
-6318.23 2033.95 0
0 0 0

-15534.4 -7827.31 0
-7827.31 -6928.23 0
0 0 0

-3514.49 -6503.67 0
-6503.67 -2323.01 0
0 0 0

-6931.96 -5477.9 0
-5477.9 -1512.51 0
0 0 0

-2060.4 -4969.77 0
-4969.77 -340.741 0
0 0 0

4006.53 -396.817 0
-396.817 1034.97 0
0 0 0

1979.43 327.275 0
327.275 -85.2593 0
0 0 0

774.569 -1282.24 0
-1282.24 -423.403 0
0 0 0

691.374 -557.743 0
-557.743 -845.378 0
0 0 0

-19863 362.853 0
362.853 1572.02 0
0 0 0

-17019.5 -2103.8 0
-2103.8 3269.25 0
0 0 0

-12382.4 -606.31 0
-606.31 1094.38 0
0 0 0

-9776.57 -1801.02 0
-1801.02 3230.28 0
0 0 0

-15423 -3936.62 0
-3936.62 245.283 0
0 0 0

-11076.4 -4779.01 0
-4779.01 886.597 0
0 0 0

-8763.08 -2847.29 0
-2847.29 1272.85 0
0 0 0

-6610.78 -3441.4 0
-3441.4 1215.63 0
0 0 0

-8272.23 -4828.72 0
-4828.72 -1784.24 0
0 0 0

-4181.74 -4741.77 0
-4741.77 -941.387 0
0 0 0

-5435.83 -3516.8 0
-3516.8 -810.208 0
0 0 0

-3375.05 -3502.25 0
-3502.25 -706.217 0
0 0 0

-1174.07 -2369.99 0
-2369.99 -659.89 0
0 0 0

-233.568 -1540.86 0
-1540.86 -636.221 0
0 0 0

-1625.25 -1933.86 0
-1933.86 -416.545 0
0 0 0

-907.65 -1280.45 0
-1280.45 -329.975 0
0 0 0

-16393.9 -455.434 0
-455.434 -2278.9 0
0 0 0

-13738 -1514.89 0
-1514.89 -697.655 0
0 0 0

-10925 -348.931 0
-348.931 -1252.76 0
0 0 0

-9408.72 -1074.2 0
-1074.2 -772.415 0
0 0 0

-12060.8 -2461.46 0
-2461.46 -1587.98 0
0 0 0

-9527.05 -3019.32 0
-3019.32 -1263.32 0
0 0 0

-8253.41 -1662.59 0
-1662.59 -1252.79 0
0 0 0

-6656.79 -2042.61 0
-2042.61 -1111.19 0
0 0 0

-7475.27 -3130.85 0
-3130.85 -1973.39 0
0 0 0

-5062.59 -3078.6 0
-3078.6 -1559.27 0
0 0 0

-5214.07 -2110.13 0
-2110.13 -1349.8 0
0 0 0

-3652.33 -2085.36 0
-2085.36 -1104.6 0
0 0 0

-2898.01 -1971.68 0
-1971.68 -841.449 0
0 0 0

-2201.04 -1456.66 0
-1456.66 -664.012 0
0 0 0

-2150.68 -1432.23 0
-1432.23 -518.193 0
0 0 0

-1697.91 -1062.85 0
-1062.85 -373.634 0
0 0 0

-6287.4 -260.959 0
-260.959 -192.513 0
0 0 0

-5313.01 -801.456 0
-801.456 16.1867 0
0 0 0

-4309.69 -116.625 0
-116.625 -242.506 0
0 0 0

-3548.02 -532.553 0
-532.553 46.8525 0
0 0 0

-4549.14 -1164.24 0
-1164.24 -333.218 0
0 0 0

-3632.54 -1378.65 0
-1378.65 -353.266 0
0 0 0

-2973.1 -817.135 0
-817.135 -145.159 0
0 0 0

-2352.22 -994.169 0
-994.169 -173.474 0
0 0 0

-2853.82 -1351.17 0
-1351.17 -597.1 0
0 0 0

-2117.8 -1297.92 0
-1297.92 -603.558 0
0 0 0

-1822.81 -978.949 0
-978.949 -343.696 0
0 0 0

-1374.61 -949.954 0
-949.954 -406.641 0
0 0 0

-1388.06 -834.222 0
-834.222 -298.078 0
0 0 0

-1256.3 -574.754 0
-574.754 -256.038 0
0 0 0

-900.155 -636.462 0
-636.462 -200.151 0
0 0 0

-846.825 -439.708 0
-439.708 -181.958 0
0 0 0

TENSORS velocity_gradient double
-21.4727 -5.36222 0
-9.30048 3.94762 0
0 0 0

-15.6038 -8.59394 0
-4.41872 4.20809 0
0 0 0

-2.73044 -0.754919 0
2.78921 4.38618 0
0 0 0

-5.49809 -6.78019 0
1.05564 6.92179 0
0 0 0

-11.3537 -11.2411 0
1.01303 3.60055 0
0 0 0

-4.79461 -14.8689 0
4.06313 3.1969 0
0 0 0

-6.61592 -8.09771 0
1.5798 5.98336 0
0 0 0

-4.18649 -9.83026 0
3.17135 5.08636 0
0 0 0

0.844052 -10.1806 0
6.12688 3.25723 0
0 0 0

1.28694 -7.92124 0
5.59444 3.60782 0
0 0 0

0.756162 -8.5714 0
5.97361 3.39482 0
0 0 0

1.28695 -7.92017 0
5.58891 2.86769 0
0 0 0

1.16927 -2.61463 0
4.85523 1.77845 0
0 0 0

0.559239 -0.481432 0
4.17861 1.01987 0
0 0 0

1.16407 -2.88576 0
4.84396 0.98243 0
0 0 0

0.549094 -1.15415 0
4.16826 0.333391 0
0 0 0

-1.02904 -2.93593 0
3.87583 3.67705 0
0 0 0

-2.06318 -7.0485 0
2.90164 6.66829 0
0 0 0

-3.38849 -4.89119 0
3.09219 3.13796 0
0 0 0

-3.0874 -7.51554 0
2.46254 5.9969 0
0 0 0

-2.65208 -7.7563 0
2.05792 5.74336 0
0 0 0

-2.59501 -8.56926 0
1.01762 4.80109 0
0 0 0

-2.88255 -7.96763 0
1.88693 4.92248 0
0 0 0

-2.59632 -8.43178 0
1.02661 3.85972 0
0 0 0

-2.3203 -7.7303 0
0.0319094 3.07764 0
0 0 0

-1.51542 -7.39737 0
-0.5641 2.25886 0
0 0 0

-2.33101 -7.21966 0
0.0487371 2.50662 0
0 0 0

-1.53548 -6.56869 0
-0.551105 1.72202 0
0 0 0

-0.703594 -2.98025 0
-0.9732 0.774259 0
0 0 0

-0.0941305 -1.16804 0
-0.76062 0.147175 0
0 0 0

-0.720975 -2.60802 0
-0.969846 0.872148 0
0 0 0

-0.105616 -0.575915 0
-0.765916 0.420195 0
0 0 0

-8.95852 -4.56619 0
1.33105 3.51656 0
0 0 0

-7.64559 -6.77551 0
0.55426 5.06692 0
0 0 0

-8.92376 -3.62775 0
1.33283 3.93941 0
0 0 0

-7.63077 -5.63521 0
0.541016 4.04765 0
0 0 0

-6.30619 -7.09478 0
-0.575318 4.08102 0
0 0 0

-4.81456 -7.43711 0
-1.41769 3.06701 0
0 0 0

-6.31184 -5.8339 0
-0.571392 3.21936 0
0 0 0

-4.83585 -6.05268 0
-1.4065 2.33956 0
0 0 0

-3.34011 -6.32196 0
-2.15389 2.02501 0
0 0 0

-2.08287 -5.54149 0
-2.57742 1.28334 0
0 0 0

-3.37076 -5.13812 0
-2.14076 1.57345 0
0 0 0

-2.11301 -4.35947 0
-2.56806 0.915988 0
0 0 0

-1.01901 -2.31207 0
-2.90449 0.836433 0
0 0 0

-0.769791 -0.217163 0
-2.96079 0.541566 0
0 0 0

-1.03664 -1.981 0
-2.89931 0.699187 0
0 0 0

-0.773418 -0.0757102 0
-2.96026 0.520637 0
0 0 0

-4.32218 -2.86091 0
1.41683 3.46551 0
0 0 0

-3.41366 -4.6218 0
0.72647 3.29192 0
0 0 0

-4.31425 -2.23322 0
1.40744 2.57368 0
0 0 0

-3.40974 -3.70914 0
0.724028 2.7224 0
0 0 0

-2.48203 -4.83775 0
0.155207 2.58858 0
0 0 0

-1.77084 -5.06383 0
-0.214907 1.82961 0
0 0 0

-2.48328 -4.04858 0
0.155925 2.1403 0
0 0 0

-1.77416 -4.41341 0
-0.213254 1.50519 0
0 0 0

-1.13634 -4.29963 0
-0.540699 1.1947 0
0 0 0

-0.73113 -3.58574 0
-0.806084 0.605386 0
0 0 0

-1.14035 -3.81628 0
-0.53842 0.925761 0
0 0 0

-0.734388 -3.22287 0
-0.803824 0.35374 0
0 0 0

-0.425769 -1.71759 0
-1.05085 0.51292 0
0 0 0

-0.481492 -0.0556939 0
-1.23255 0.427849 0
0 0 0

-0.427021 -1.66482 0
-1.04877 0.306046 0
0 0 0

-0.480313 -0.166577 0
-1.23074 0.257877 0
0 0 0

SCALARS active double 1
LOOKUP_TABLE default
1
1
1
1
1
1
1
1
1
1
1
1
1
1
1
1
1
1
1
1
1
1
1
1
1
1
1
1
1
1
1
1
1
1
1
1
1
1
1
1
1
1
1
1
1
1
1
1
1
1
1
1
1
1
1
1
1
1
1
1
1
1
1
1
SCALARS extent double 1
LOOKUP_TABLE default
0.0125
0.0125
0.0125
0.0125
0.0125
0.0125
0.0125
0.0125
0.0125
0.0125
0.0125
0.0125
0.0125
0.0125
0.0125
0.0125
0.0125
0.0125
0.0125
0.0125
0.0125
0.0125
0.0125
0.0125
0.0125
0.0125
0.0125
0.0125
0.0125
0.0125
0.0125
0.0125
0.0125
0.0125
0.0125
0.0125
0.0125
0.0125
0.0125
0.0125
0.0125
0.0125
0.0125
0.0125
0.0125
0.0125
0.0125
0.0125
0.0125
0.0125
0.0125
0.0125
0.0125
0.0125
0.0125
0.0125
0.0125
0.0125
0.0125
0.0125
0.0125
0.0125
0.0125
0.0125
SCALARS pressure double 1
LOOKUP_TABLE default
41493.2
33361.7
5369.96
4774.05
30091.6
17954.6
7646.36
4772.26
11231.3
2918.75
4222.24
1200.57
-2520.75
-947.088
-175.583
77.0021
9145.51
6875.14
5644.01
3273.15
7588.86
5094.88
3745.11
2697.58
5028.23
2561.56
3123.02
2040.64
916.981
434.895
1020.9
618.812
9336.4
7217.84
6088.88
5090.57
6824.38
5395.19
4753.1
3883.99
4724.33
3310.93
3281.93
2378.47
1869.73
1432.53
1334.43
1035.77
3239.96
2648.41
2276.1
1750.59
2441.18
1992.9
1559.13
1262.85
1725.46
1360.68
1083.25
890.625
843.068
756.171
550.153
514.392
SCALARS density double 1
LOOKUP_TABLE default
1539.61
1414.76
1057.44
1050.9
1367.46
1205.3
1082.77
1050.88
1123.9
1030.82
1044.89
1012.56
974.125
990.199
998.176
1000.8
1099.78
1074.12
1060.45
1034.63
1082.12
1054.42
1039.72
1028.45
1053.69
1027
1033.01
1021.45
1009.58
1004.53
1010.67
1006.46
1101.97
1077.95
1065.37
1054.37
1073.55
1057.71
1050.67
1041.22
1050.36
1035.03
1034.72
1025.04
1019.64
1015.01
1013.97
1010.83
1034.27
1027.93
1023.95
1018.37
1025.71
1020.94
1016.35
1013.22
1018.11
1014.25
1011.33
1009.31
1008.81
1007.9
1005.74
1005.36
