# vtk DataFile Version 3.0
Frame: 15, Time: 0.255
ASCII
DATASET UNSTRUCTURED_GRID
POINTS 64 double
0.276796 0.134978 0 
0.252251 0.137566 0 
0.279557 0.159702 0 
0.254921 0.161033 0 
0.226939 0.140179 0 
0.204408 0.139254 0 
0.228869 0.164542 0 
0.20425 0.165676 0 
0.179234 0.139529 0 
0.154625 0.139717 0 
0.180069 0.16507 0 
0.154893 0.164756 0 
0.131118 0.137988 0 
0.1046 0.140005 0 
0.130618 0.164234 0 
0.105376 0.164004 0 
0.280933 0.184273 0 
0.255843 0.186934 0 
0.282663 0.209922 0 
0.257625 0.21192 0 
0.231374 0.189043 0 
0.205336 0.191814 0 
0.232419 0.214454 0 
0.206857 0.215313 0 
0.180844 0.190808 0 
0.155463 0.190054 0 
0.181092 0.215877 0 
0.156118 0.215248 0 
0.130524 0.190181 0 
0.106152 0.190778 0 
0.131139 0.215327 0 
0.106804 0.216573 0 
0.285245 0.235468 0 
0.259867 0.237374 0 
0.286833 0.261195 0 
0.26185 0.263083 0 
0.23474 0.239518 0 
0.209235 0.240145 0 
0.237574 0.265073 0 
0.212055 0.2657 0 
0.184495 0.240197 0 
0.158583 0.240521 0 
0.186507 0.26489 0 
0.161271 0.265257 0 
0.133096 0.24065 0 
0.109241 0.24229 0 
0.136088 0.26643 0 
0.112046 0.268252 0 
0.288117 0.28771 0 
0.263348 0.288286 0 
0.289209 0.313455 0 
0.263752 0.3142 0 
0.238614 0.290248 0 
0.212611 0.29116 0 
0.238549 0.316672 0 
0.21314 0.316503 0 
0.188271 0.290286 0 
0.163746 0.289692 0 
0.18857 0.316993 0 
0.16482 0.316244 0 
0.138338 0.291978 0 
0.113855 0.294071 0 
0.142015 0.318286 0 
0.117825 0.32105 0 
CELLS 64 128
1 0
1 1
1 2
1 3
1 4
1 5
1 6
1 7
1 8
1 9
1 10
1 11
1 12
1 13
1 14
1 15
1 16
1 17
1 18
1 19
1 20
1 21
1 22
1 23
1 24
1 25
1 26
1 27
1 28
1 29
1 30
1 31
1 32
1 33
1 34
1 35
1 36
1 37
1 38
1 39
1 40
1 41
1 42
1 43
1 44
1 45
1 46
1 47
1 48
1 49
1 50
1 51
1 52
1 53
1 54
1 55
1 56
1 57
1 58
1 59
1 60
1 61
1 62
1 63
CELL_TYPES 64
1
1
1
1
1
1
1
1
1
1
1
1
1
1
1
1
1
1
1
1
1
1
1
1
1
1
1
1
1
1
1
1
1
1
1
1
1
1
1
1
1
1
1
1
1
1
1
1
1
1
1
1
1
1
1
1
1
1
1
1
1
1
1
1
POINT_DATA 64
VECTORS displacement double
0.0642958 -0.0775225 0 
0.0397509 -0.0999338 0 
0.0420566 -0.0527979 0 
0.0174205 -0.076467 0 
0.0144387 -0.122321 0 
-0.00809208 -0.148246 0 
-0.00863059 -0.0979577 0 
-0.0332503 -0.121824 0 
-0.0332657 -0.172971 0 
-0.0578754 -0.197783 0 
-0.0574306 -0.14743 0 
-0.0826067 -0.172744 0 
-0.0813816 -0.224512 0 
-0.1079 -0.247495 0 
-0.106882 -0.198266 0 
-0.132124 -0.223496 0 
0.018433 -0.0282268 0 
-0.00665712 -0.0505656 0 
-0.00483663 -0.00257835 0 
-0.0298753 -0.0255795 0 
-0.0311264 -0.0734567 0 
-0.0571638 -0.0956859 0 
-0.0550807 -0.0480464 0 
-0.0806429 -0.0721872 0 
-0.0816561 -0.121692 0 
-0.107037 -0.147446 0 
-0.106408 -0.0966234 0 
-0.131382 -0.122252 0 
-0.131976 -0.172319 0 
-0.156348 -0.196722 0 
-0.156361 -0.147173 0 
-0.180696 -0.170927 0 
-0.0272549 0.0229678 0 
-0.0526333 -0.000125802 0 
-0.050667 0.048695 0 
-0.0756497 0.025583 0 
-0.0777604 -0.0229818 0 
-0.103265 -0.0473552 0 
-0.0999263 0.00257254 0 
-0.125445 -0.0218001 0 
-0.128005 -0.0723031 0 
-0.153917 -0.0969786 0 
-0.150993 -0.0476099 0 
-0.176229 -0.0722427 0 
-0.179404 -0.12185 0 
-0.203259 -0.14521 0 
-0.201412 -0.0960703 0 
-0.225454 -0.119248 0 
-0.0743829 0.0752105 0 
-0.099152 0.0507858 0 
-0.0982905 0.100955 0 
-0.123748 0.0767 0 
-0.123886 0.0277477 0 
-0.149889 0.00366013 0 
-0.148951 0.0541716 0 
-0.17436 0.0290034 0 
-0.174229 -0.0222143 0 
-0.198754 -0.0478076 0 
-0.19893 0.00449291 0 
-0.22268 -0.0212564 0 
-0.224162 -0.0705216 0 
-0.248645 -0.0934294 0 
-0.245485 -0.0442137 0 
-0.269675 -0.0664503 0 
VECTORS velocity double
-0.567163 1.94405 0 
-0.878604 1.6546 0 
-1.1577 2.03938 0 
-1.11935 1.61973 0 
-0.674049 1.53772 0 
-0.76386 1.17444 0 
-0.894362 1.4835 0 
-1.05711 1.54572 0 
-0.83997 1.39035 0 
-0.658726 1.1643 0 
-0.902864 0.943261 0 
-0.940993 1.00007 0 
-0.46499 0.767197 0 
-0.516409 0.459021 0 
-1.11501 1.13154 0 
-0.910537 0.340745 0 
-1.05852 1.94864 0 
-1.19522 1.15781 0 
-1.42525 2.22724 0 
-1.58028 1.71762 0 
-1.19706 1.34475 0 
-1.52345 1.48711 0 
-1.49433 1.66243 0 
-1.55431 1.41699 0 
-1.15733 1.11587 0 
-1.04017 0.955174 0 
-1.06638 1.30531 0 
-1.14653 1.20259 0 
-1.18643 1.17899 0 
-0.790289 0.48415 0 
-1.18707 1.17048 0 
-0.715597 0.797844 0 
-1.49076 1.80556 0 
-1.94737 1.65613 0 
-2.32889 1.95339 0 
-2.18585 1.57168 0 
-1.48102 1.45847 0 
-1.35564 0.91446 0 
-1.90636 1.8502 0 
-1.85762 1.73437 0 
-1.24605 0.750896 0 
-1.35941 0.827107 0 
-1.78853 1.27262 0 
-1.73682 0.997413 0 
-1.24086 0.763132 0 
-1.2675 0.737564 0 
-1.29125 1.17385 0 
-1.21515 1.01724 0 
-2.23516 2.86806 0 
-1.91238 1.7715 0 
-2.37755 2.17631 0 
-2.47506 1.8352 0 
-1.88261 1.97504 0 
-1.88905 1.99715 0 
-2.16491 1.66997 0 
-2.28385 1.44358 0 
-1.68399 1.51735 0 
-1.78148 0.79568 0 
-2.08395 1.61303 0 
-1.98662 0.902601 0 
-1.6386 1.24154 0 
-1.53976 0.629808 0 
-1.78318 1.15675 0 
-1.89692 0.997698 0 
SCALARS mass double 1
LOOKUP_TABLE default
0.625
0.625
0.625
0.625
0.625
0.625
0.625
0.625
0.625
0.625
0.625
0.625
0.625
0.625
0.625
0.625
0.625
0.625
0.625
0.625
0.625
0.625
0.625
0.625
0.625
0.625
0.625
0.625
0.625
0.625
0.625
0.625
0.625
0.625
0.625
0.625
0.625
0.625
0.625
0.625
0.625
0.625
0.625
0.625
0.625
0.625
0.625
0.625
0.625
0.625
0.625
0.625
0.625
0.625
0.625
0.625
0.625
0.625
0.625
0.625
0.625
0.625
0.625
0.625
SCALARS volume double 1
LOOKUP_TABLE default
0.000611041
0.000637608
0.000618277
0.000612253
0.000580472
0.000619592
0.000624723
0.000589154
0.000644514
0.000575083
0.000647286
0.000621413
0.00063738
0.00063759
0.000651197
0.00064469
0.00064394
0.000619141
0.000635182
0.000633134
0.000642682
0.000638716
0.000634652
0.000620891
0.000625448
0.000609703
0.000612059
0.000643767
0.000609073
0.000622263
0.000628002
0.000635552
0.000633814
0.00065276
0.00063879
0.000631126
0.000620993
0.000636263
0.000628909
0.000652426
0.000629983
0.000639843
0.000626503
0.000609226
0.000615342
0.000644127
0.000633592
0.000631638
0.000639841
0.000624637
0.000614536
0.000624666
0.00064078
0.000632009
0.000618024
0.000629165
0.000656654
0.000655473
0.000614303
0.00060053
0.000636563
0.000650218
0.000605828
0.000634564
VECTORS momentum double
-0.354477 1.21503 0 
-0.549128 1.03413 0 
-0.72356 1.27461 0 
-0.699593 1.01233 0 
-0.42128 0.961073 0 
-0.477413 0.734026 0 
-0.558976 0.927187 0 
-0.660696 0.966076 0 
-0.524981 0.86897 0 
-0.411704 0.727686 0 
-0.56429 0.589538 0 
-0.58812 0.625042 0 
-0.290618 0.479498 0 
-0.322755 0.286888 0 
-0.696882 0.707213 0 
-0.569086 0.212966 0 
-0.661578 1.2179 0 
-0.747009 0.723628 0 
-0.89078 1.39203 0 
-0.987677 1.07351 0 
-0.74816 0.84047 0 
-0.952154 0.929446 0 
-0.933955 1.03902 0 
-0.971445 0.88562 0 
-0.723331 0.697417 0 
-0.650107 0.596984 0 
-0.66649 0.815821 0 
-0.716579 0.751622 0 
-0.741519 0.73687 0 
-0.493931 0.302594 0 
-0.741919 0.731553 0 
-0.447248 0.498653 0 
-0.931723 1.12847 0 
-1.2171 1.03508 0 
-1.45555 1.22087 0 
-1.36616 0.982298 0 
-0.925634 0.911547 0 
-0.847276 0.571537 0 
-1.19148 1.15638 0 
-1.16101 1.08398 0 
-0.778783 0.46931 0 
-0.849631 0.516942 0 
-1.11783 0.795388 0 
-1.08551 0.623383 0 
-0.775538 0.476957 0 
-0.792185 0.460978 0 
-0.807033 0.733658 0 
-0.759468 0.635773 0 
-1.39697 1.79253 0 
-1.19524 1.10719 0 
-1.48597 1.3602 0 
-1.54691 1.147 0 
-1.17663 1.2344 0 
-1.18065 1.24822 0 
-1.35307 1.04373 0 
-1.42741 0.90224 0 
-1.0525 0.948347 0 
-1.11342 0.4973 0 
-1.30247 1.00814 0 
-1.24164 0.564126 0 
-1.02412 0.77596 0 
-0.962351 0.39363 0 
-1.11449 0.722966 0 
-1.18558 0.623561 0 
VECTORS body_force double
0 -9.81 0 
0 -9.81 0 
0 -9.81 0 
0 -9.81 0 
0 -9.81 0 
0 -9.81 0 
0 -9.81 0 
0 -9.81 0 
0 -9.81 0 
0 -9.81 0 
0 -9.81 0 
0 -9.81 0 
0 -9.81 0 
0 -9.81 0 
0 -9.81 0 
0 -9.81 0 
0 -9.81 0 
0 -9.81 0 
0 -9.81 0 
0 -9.81 0 
0 -9.81 0 
0 -9.81 0 
0 -9.81 0 
0 -9.81 0 
0 -9.81 0 
0 -9.81 0 
0 -9.81 0 
0 -9.81 0 
0 -9.81 0 
0 -9.81 0 
0 -9.81 0 
0 -9.81 0 
0 -9.81 0 
0 -9.81 0 
0 -9.81 0 
0 -9.81 0 
0 -9.81 0 
0 -9.81 0 
0 -9.81 0 
0 -9.81 0 
0 -9.81 0 
0 -9.81 0 
0 -9.81 0 
0 -9.81 0 
0 -9.81 0 
0 -9.81 0 
0 -9.81 0 
0 -9.81 0 
0 -9.81 0 
0 -9.81 0 
0 -9.81 0 
0 -9.81 0 
0 -9.81 0 
0 -9.81 0 
0 -9.81 0 
0 -9.81 0 
0 -9.81 0 
0 -9.81 0 
0 -9.81 0 
0 -9.81 0 
0 -9.81 0 
0 -9.81 0 
0 -9.81 0 
0 -9.81 0 
TENSORS cauchy_stress double
-8429.38 -703.633 0
-703.633 4085.72 0
0 0 0

6021.49 926.262 0
926.262 -2180.71 0
0 0 0

154.606 -4348.59 0
-4348.59 -2234.54 0
0 0 0

-4026.43 -94.8153 0
-94.8153 63.7918 0
0 0 0

-14922.2 -1626.49 0
-1626.49 708.862 0
0 0 0

-1851.7 -2255.3 0
-2255.3 180.497 0
0 0 0

5547.28 -5923.27 0
-5923.27 -5632.55 0
0 0 0

-13711.9 4921.44 0
4921.44 2353.3 0
0 0 0

1172.81 3180.72 0
3180.72 4739.59 0
0 0 0

-8760.01 108.215 0
108.215 -7247.06 0
0 0 0

5062.87 1423.11 0
1423.11 1674.88 0
0 0 0

-2669.24 -2251.67 0
-2251.67 1562.28 0
0 0 0

-112.328 2573.74 0
2573.74 3884.45 0
0 0 0

5578.02 -2410.01 0
-2410.01 -1742.64 0
0 0 0

488.097 2072.81 0
2072.81 7408.12 0
0 0 0

2643.22 -3625.95 0
-3625.95 3321.8 0
0 0 0

-96.5355 -2216.67 0
-2216.67 5837.8 0
0 0 0

-369.68 547.841 0
547.841 -1441.49 0
0 0 0

2778.87 1522.77 0
1522.77 328.846 0
0 0 0

-139.878 344.697 0
344.697 2626.65 0
0 0 0

493.484 -3080.11 0
-3080.11 4871.49 0
0 0 0

4104.11 1437.23 0
1437.23 70.4385 0
0 0 0

804.79 -1115.81 0
-1115.81 2142.32 0
0 0 0

2613.42 1822.01 0
1822.01 -3881.77 0
0 0 0

-1612.95 1388.67 0
1388.67 1750.87 0
0 0 0

-1488.99 2439.34 0
2439.34 -3276.19 0
0 0 0

-1410.43 3893.63 0
3893.63 -2613.24 0
0 0 0

1783.43 1507.62 0
1507.62 3906.08 0
0 0 0

-3132.64 921.861 0
921.861 -1831.55 0
0 0 0

-3924.43 -1870.74 0
-1870.74 3080.43 0
0 0 0

-1320.98 1939 0
1939 2242.37 0
0 0 0

-1327.47 -1001.94 0
-1001.94 4547.21 0
0 0 0

-740.177 -1569.24 0
-1569.24 3433.21 0
0 0 0

4646.67 1667.99 0
1667.99 3710.72 0
0 0 0

-256.473 -1547.97 0
-1547.97 4453.45 0
0 0 0

-719.861 2423.65 0
2423.65 2595.54 0
0 0 0

-564.251 385.254 0
385.254 -672.694 0
0 0 0

887.861 6456.69 0
6456.69 2546.74 0
0 0 0

-986.866 -943.149 0
-943.149 2185.75 0
0 0 0

4355.61 4233.64 0
4233.64 3903.33 0
0 0 0

2117.03 2437.28 0
2437.28 -589.955 0
0 0 0

3035.27 4523.66 0
4523.66 1478.29 0
0 0 0

2986.73 4364.71 0
4364.71 -2524.75 0
0 0 0

-1165.96 2856.89 0
2856.89 -3749.86 0
0 0 0

-1265.76 2499.65 0
2499.65 -1729 0
0 0 0

-1854.12 196.14 0
196.14 7651.02 0
0 0 0

-900.853 2740.79 0
2740.79 3526.63 0
0 0 0

181.471 911.157 0
911.157 1850.27 0
0 0 0

-769.296 -1654.33 0
-1654.33 5282.23 0
0 0 0

-1393.84 -547.787 0
-547.787 1282.25 0
0 0 0

-1855.51 809.838 0
809.838 -1391.35 0
0 0 0

585.138 -366.288 0
-366.288 -687.806 0
0 0 0

1148.97 -2157.02 0
-2157.02 3646.25 0
0 0 0

732.674 -439.902 0
-439.902 1411.86 0
0 0 0

-769.952 -248.497 0
-248.497 -1388.63 0
0 0 0

1089.38 -204.784 0
-204.784 188.053 0
0 0 0

308.693 2694.09 0
2694.09 9192.27 0
0 0 0

3395.26 -1024.11 0
-1024.11 5759.53 0
0 0 0

-2673.75 2262.15 0
2262.15 -646.208 0
0 0 0

-5720.15 2964.1 0
2964.1 -1960.58 0
0 0 0

436.869 -1410.28 0
-1410.28 3088.58 0
0 0 0

39.4986 -716.858 0
-716.858 7567.33 0
0 0 0

-5735.14 1420.59 0
1420.59 -256.3 0
0 0 0

-308.155 878.568 0
878.568 3228.59 0
0 0 0

TENSORS velocity_gradient double
1.19746 -6.88836 0
6.79251 -2.07742 0
0 0 0

0.816539 -4.93549 0
6.68211 -2.06527 0
0 0 0

-0.0718734 -7.57794 0
6.78648 -0.0921405 0
0 0 0

-0.0666699 -7.90388 0
6.77621 -0.0797957 0
0 0 0

0.207129 -3.5097 0
6.33158 -1.92839 0
0 0 0

0.0728405 -2.42878 0
6.28483 -1.75008 0
0 0 0

-0.801567 -7.32059 0
6.44896 -0.369551 0
0 0 0

-0.929935 -6.48776 0
6.3127 -0.713241 0
0 0 0

-2.04969 -3.62039 0
5.61258 -0.376576 0
0 0 0

-2.05037 -5.45829 0
5.81338 1.28729 0
0 0 0

-1.91671 -5.28612 0
4.47796 -0.355634 0
0 0 0

-1.93122 -3.92138 0
4.61542 0.254855 0
0 0 0

-2.36655 -5.23003 0
9.05156 1.54984 0
0 0 0

-3.93018 -4.14767 0
9.30421 1.36786 0
0 0 0

-2.67146 -3.84575 0
8.46056 1.34937 0
0 0 0

-2.7713 -4.20279 0
8.49872 2.65176 0
0 0 0

0.260254 -7.55682 0
6.77187 -0.0930693 0
0 0 0

0.298536 -7.89568 0
6.77019 -0.0781689 0
0 0 0

-0.116908 -12.435 0
6.68501 1.35339 0
0 0 0

-0.281339 -10.5328 0
6.66456 1.59003 0
0 0 0

-1.6194 -7.41034 0
6.80935 -0.33 0
0 0 0

-1.71792 -6.54012 0
6.85276 -0.71347 0
0 0 0

-2.84055 -8.83751 0
7.162 1.46443 0
0 0 0

-2.90537 -7.24265 0
7.17565 1.1287 0
0 0 0

-3.3241 -5.33606 0
3.86091 -0.377531 0
0 0 0

-3.28831 -3.94369 0
3.8766 0.232932 0
0 0 0

-4.02745 -6.56763 0
4.24818 0.257446 0
0 0 0

-4.02262 -6.33572 0
4.22555 -0.828712 0
0 0 0

-2.31088 -3.84567 0
7.11554 1.34908 0
0 0 0

-2.30018 -4.18557 0
7.0756 2.61697 0
0 0 0

-2.41014 -5.96073 0
5.4077 0.276009 0
0 0 0

-2.43395 -5.53838 0
5.29772 2.22698 0
0 0 0

-2.0552 -12.6559 0
6.44389 1.32592 0
0 0 0

-2.21235 -10.724 0
6.42434 1.56624 0
0 0 0

-3.12664 -4.71224 0
6.53423 4.04457 0
0 0 0

-3.08732 -5.19395 0
6.58867 3.37772 0
0 0 0

-4.39691 -8.99636 0
7.48962 1.49786 0
0 0 0

-4.44779 -7.40254 0
7.50033 1.16236 0
0 0 0

-4.77 -5.75523 0
7.57799 3.0649 0
0 0 0

-4.74705 -6.47374 0
7.57376 3.19736 0
0 0 0

-4.25212 -6.60072 0
5.30041 0.412412 0
0 0 0

-4.2564 -6.3601 0
5.32045 -0.714518 0
0 0 0

-4.40155 -6.8193 0
6.45854 2.67564 0
0 0 0

-4.4034 -6.73086 0
6.48504 1.40871 0
0 0 0

-2.84848 -5.99736 0
3.38289 0.106825 0
0 0 0

-2.87822 -5.58318 0
3.24551 2.02003 0
0 0 0

-2.80706 -6.86404 0
2.94743 0.454041 0
0 0 0

-2.78007 -7.20757 0
2.99527 -0.15484 0
0 0 0

-2.619 -4.68508 0
7.23698 4.08217 0
0 0 0

-2.60454 -5.16256 0
7.25701 3.42117 0
0 0 0

-2.54673 -3.94587 0
7.6181 -0.189008 0
0 0 0

-2.56369 -3.48529 0
7.61798 -0.185726 0
0 0 0

-4.06681 -5.7219 0
7.44836 3.05875 0
0 0 0

-4.03589 -6.45345 0
7.44266 3.19362 0
0 0 0

-3.54948 -3.3196 0
7.19663 -0.0634186 0
0 0 0

-3.54928 -3.65404 0
7.19643 0.26568 0
0 0 0

-4.48987 -6.82609 0
7.72392 2.77292 0
0 0 0

-4.48847 -6.74011 0
7.7038 1.54124 0
0 0 0

-4.10901 -4.1081 0
7.763 0.774047 0
0 0 0

-4.12416 -4.74964 0
7.78157 1.56029 0
0 0 0

-2.44311 -6.82938 0
3.5925 0.515476 0
0 0 0

-2.41203 -7.17906 0
3.6476 -0.104313 0
0 0 0

-1.2466 -5.58754 0
3.56883 2.20626 0
0 0 0

-1.05673 -7.10352 0
3.50722 2.58476 0
0 0 0

SCALARS active double 1
LOOKUP_TABLE default
1
1
1
1
1
1
1
1
1
1
1
1
1
1
1
1
1
1
1
1
1
1
1
1
1
1
1
1
1
1
1
1
1
1
1
1
1
1
1
1
1
1
1
1
1
1
1
1
1
1
1
1
1
1
1
1
1
1
1
1
1
1
1
1
SCALARS extent double 1
LOOKUP_TABLE default
0.0125
0.0125
0.0125
0.0125
0.0125
0.0125
0.0125
0.0125
0.0125
0.0125
0.0125
0.0125
0.0125
0.0125
0.0125
0.0125
0.0125
0.0125
0.0125
0.0125
0.0125
0.0125
0.0125
0.0125
0.0125
0.0125
0.0125
0.0125
0.0125
0.0125
0.0125
0.0125
0.0125
0.0125
0.0125
0.0125
0.0125
0.0125
0.0125
0.0125
0.0125
0.0125
0.0125
0.0125
0.0125
0.0125
0.0125
0.0125
0.0125
0.0125
0.0125
0.0125
0.0125
0.0125
0.0125
0.0125
0.0125
0.0125
0.0125
0.0125
0.0125
0.0125
0.0125
0.0125
SCALARS pressure double 1
LOOKUP_TABLE default
2171.83
-1920.39
1039.96
1981.32
7106.68
835.602
42.6314
5679.29
-2956.2
8003.53
-3368.87
553.477
-1886.06
-1917.69
-3948.11
-2982.51
-2870.63
905.583
-1553.86
-1243.38
-2682.49
-2087.27
-1473.56
634.172
-68.96
2382.59
2011.83
-2844.76
2482.1
422.001
-460.696
-1609.87
-1346.52
-4178.69
-2098.49
-937.838
618.472
-1717.3
-599.441
-4129.47
-763.538
-2256.78
-230.993
2457.91
1497.38
-2898.45
-1312.89
-1015.87
-2256.47
55.795
1623.43
51.3338
-2397.61
-1072.27
1079.29
-638.717
-4750.48
-4577.39
1659.98
3840.37
-1762.72
-3803.41
2995.72
-1460.22
SCALARS density double 1
LOOKUP_TABLE default
1022.84
980.226
1010.87
1020.82
1076.71
1008.73
1000.44
1060.84
969.723
1086.8
965.57
1005.77
980.576
980.254
959.771
969.458
970.587
1009.46
983.97
987.152
972.488
978.526
984.792
1006.62
999.283
1025.09
1021.14
970.848
1026.15
1004.4
995.22
983.397
986.094
957.472
978.412
990.294
1006.45
982.299
993.785
957.963
992.091
976.803
997.601
1025.89
1015.69
970.306
986.439
989.491
976.806
1000.58
1017.03
1000.53
975.373
988.91
1011.29
993.379
951.796
953.51
1017.41
1040.75
981.835
961.217
1031.65
984.928
