# vtk DataFile Version 3.0
Frame: 18, Time: 0.306
ASCII
DATASET UNSTRUCTURED_GRID
POINTS 64 double
0.229909 0.221236 0 
0.206366 0.214125 0 
0.223404 0.245366 0 
0.200678 0.237923 0 
0.181616 0.20868 0 
0.159616 0.200005 0 
0.176165 0.232763 0 
0.152436 0.225368 0 
0.134615 0.19423 0 
0.111141 0.187279 0 
0.128506 0.218765 0 
0.10473 0.21123 0 
0.089295 0.178428 0 
0.063829 0.172983 0 
0.0815735 0.203856 0 
0.0575985 0.196608 0 
0.217539 0.269555 0 
0.193096 0.263892 0 
0.212157 0.294271 0 
0.187422 0.28818 0 
0.170204 0.257431 0 
0.145339 0.250861 0 
0.163118 0.281863 0 
0.139017 0.274233 0 
0.122103 0.243488 0 
0.0986168 0.235763 0 
0.114361 0.267823 0 
0.0912681 0.260401 0 
0.0744452 0.229295 0 
0.0506697 0.222516 0 
0.0672088 0.253715 0 
0.0431843 0.246532 0 
0.206784 0.319157 0 
0.181773 0.312593 0 
0.200295 0.343909 0 
0.175496 0.336946 0 
0.157331 0.306146 0 
0.133094 0.298878 0 
0.151394 0.330772 0 
0.126479 0.323801 0 
0.109663 0.291968 0 
0.0855256 0.28516 0 
0.102238 0.316029 0 
0.0785321 0.309604 0 
0.0613904 0.278157 0 
0.0380364 0.271019 0 
0.0546976 0.302956 0 
0.0317436 0.295332 0 
0.193442 0.368761 0 
0.169302 0.360688 0 
0.186103 0.393 0 
0.161553 0.385528 0 
0.144967 0.35455 0 
0.119477 0.347792 0 
0.137762 0.379609 0 
0.11414 0.37167 0 
0.0957917 0.340718 0 
0.0724033 0.33373 0 
0.0895349 0.36608 0 
0.065748 0.359239 0 
0.0476818 0.327099 0 
0.0242684 0.318807 0 
0.0423543 0.352808 0 
0.0181922 0.344588 0 
CELLS 64 128
1 0
1 1
1 2
1 3
1 4
1 5
1 6
1 7
1 8
1 9
1 10
1 11
1 12
1 13
1 14
1 15
1 16
1 17
1 18
1 19
1 20
1 21
1 22
1 23
1 24
1 25
1 26
1 27
1 28
1 29
1 30
1 31
1 32
1 33
1 34
1 35
1 36
1 37
1 38
1 39
1 40
1 41
1 42
1 43
1 44
1 45
1 46
1 47
1 48
1 49
1 50
1 51
1 52
1 53
1 54
1 55
1 56
1 57
1 58
1 59
1 60
1 61
1 62
1 63
CELL_TYPES 64
1
1
1
1
1
1
1
1
1
1
1
1
1
1
1
1
1
1
1
1
1
1
1
1
1
1
1
1
1
1
1
1
1
1
1
1
1
1
1
1
1
1
1
1
1
1
1
1
1
1
1
1
1
1
1
1
1
1
1
1
1
1
1
1
POINT_DATA 64
VECTORS displacement double
0.017409 0.00873602 0 
-0.0061338 -0.0233751 0 
-0.014096 0.0328655 0 
-0.0368217 0.000422933 0 
-0.0308838 -0.05382 0 
-0.0528844 -0.0874947 0 
-0.061335 -0.0297372 0 
-0.0850641 -0.062132 0 
-0.0778854 -0.11827 0 
-0.101359 -0.150221 0 
-0.108994 -0.0937348 0 
-0.13277 -0.12627 0 
-0.123205 -0.184072 0 
-0.148671 -0.214517 0 
-0.155927 -0.158644 0 
-0.179901 -0.190892 0 
-0.044961 0.0570554 0 
-0.0694041 0.0263923 0 
-0.0753429 0.0817713 0 
-0.100078 0.0506801 0 
-0.0922956 -0.00506856 0 
-0.117161 -0.0366394 0 
-0.124382 0.0193629 0 
-0.148483 -0.0132666 0 
-0.140397 -0.0690119 0 
-0.163883 -0.101737 0 
-0.173139 -0.0446771 0 
-0.196232 -0.0770992 0 
-0.188055 -0.133205 0 
-0.21183 -0.164984 0 
-0.220291 -0.108785 0 
-0.244316 -0.140968 0 
-0.105716 0.106657 0 
-0.130727 0.0750927 0 
-0.137205 0.131409 0 
-0.162004 0.099446 0 
-0.155169 0.043646 0 
-0.179406 0.011378 0 
-0.186106 0.0682719 0 
-0.211021 0.0363013 0 
-0.202837 -0.020532 0 
-0.226974 -0.0523399 0 
-0.235262 0.00352879 0 
-0.258968 -0.0278957 0 
-0.25111 -0.0843427 0 
-0.274464 -0.116481 0 
-0.282802 -0.0595438 0 
-0.305756 -0.092168 0 
-0.169058 0.156261 0 
-0.193198 0.123188 0 
-0.201397 0.1805 0 
-0.225947 0.148028 0 
-0.217533 0.0920504 0 
-0.243023 0.0602919 0 
-0.249738 0.117109 0 
-0.27336 0.0841696 0 
-0.266708 0.0282183 0 
-0.290097 -0.00376995 0 
-0.297965 0.0535795 0 
-0.321752 0.0217386 0 
-0.314818 -0.0354015 0 
-0.338232 -0.0686934 0 
-0.345146 -0.00969182 0 
-0.369308 -0.0429124 0 
VECTORS velocity double
-1.21933 1.81797 0 
-1.00098 0.785761 0 
-1.80031 1.70832 0 
-1.59193 0.952525 0 
-0.641 1.39091 0 
-0.714863 0.916454 0 
-1.09566 1.29652 0 
-1.24768 1.1513 0 
-0.400818 0.789617 0 
-0.253014 0.615347 0 
-1.32888 0.602408 0 
-1.20301 0.565939 0 
-0.354612 0.47923 0 
-0.276088 0.050421 0 
-1.09901 0.518769 0 
-0.904386 -0.0242831 0 
-1.10738 1.90226 0 
-1.55803 1.09137 0 
-1.45006 1.69916 0 
-1.55451 1.37943 0 
-1.54258 1.36845 0 
-1.51759 0.888013 0 
-1.66891 1.62478 0 
-1.62329 0.940697 0 
-1.3166 0.533463 0 
-1.19783 0.362683 0 
-1.28599 0.781298 0 
-1.44371 0.672342 0 
-1.0887 0.413573 0 
-1.00139 0.024544 0 
-1.37616 0.581481 0 
-1.1541 0.176861 0 
-1.62017 1.28411 0 
-1.54556 1.04396 0 
-2.04918 1.61202 0 
-1.63334 0.989609 0 
-1.3571 1.35398 0 
-1.46187 0.801646 0 
-1.55264 1.52286 0 
-1.74911 1.31761 0 
-1.39558 0.46665 0 
-1.52384 0.338425 0 
-1.63399 0.744801 0 
-1.63525 0.399406 0 
-1.48481 0.184559 0 
-1.69475 -0.0273103 0 
-1.44229 0.525271 0 
-1.47517 0.39652 0 
-1.57177 1.92164 0 
-1.35693 0.93859 0 
-2.10276 1.45964 0 
-2.28588 1.15003 0 
-1.45046 1.31782 0 
-1.65483 1.08067 0 
-2.01883 1.18961 0 
-2.24932 0.709991 0 
-1.42204 0.68162 0 
-1.50424 0.266046 0 
-2.1326 0.843244 0 
-1.90949 0.358981 0 
-1.48224 0.660448 0 
-1.39391 0.112783 0 
-1.65991 0.544608 0 
-1.62578 0.176728 0 
SCALARS mass double 1
LOOKUP_TABLE default
0.625
0.625
0.625
0.625
0.625
0.625
0.625
0.625
0.625
0.625
0.625
0.625
0.625
0.625
0.625
0.625
0.625
0.625
0.625
0.625
0.625
0.625
0.625
0.625
0.625
0.625
0.625
0.625
0.625
0.625
0.625
0.625
0.625
0.625
0.625
0.625
0.625
0.625
0.625
0.625
0.625
0.625
0.625
0.625
0.625
0.625
0.625
0.625
0.625
0.625
0.625
0.625
0.625
0.625
0.625
0.625
0.625
0.625
0.625
0.625
0.625
0.625
0.625
0.625
SCALARS volume double 1
LOOKUP_TABLE default
0.000619994
0.000636039
0.000629474
0.00061338
0.000596145
0.000625868
0.000625259
0.000608912
0.000648028
0.000570447
0.000633836
0.000605662
0.000653374
0.000606535
0.000664142
0.000623072
0.000620865
0.000616808
0.00063412
0.000630358
0.000627113
0.000653459
0.000619272
0.000629604
0.000623069
0.000614117
0.000602325
0.000638146
0.000629729
0.000611556
0.00063653
0.000633046
0.000632986
0.000636856
0.000633324
0.000632295
0.000609139
0.000642432
0.000629261
0.000653631
0.000622433
0.000635341
0.000633415
0.000610887
0.00061876
0.000651859
0.000620641
0.000611639
0.00063579
0.000624134
0.00063721
0.000635258
0.000632944
0.000612884
0.00062397
0.000624378
0.000648794
0.000642736
0.000630426
0.000626131
0.000621729
0.000634358
0.000631454
0.000629016
VECTORS momentum double
-0.762082 1.13623 0 
-0.625612 0.491101 0 
-1.12519 1.0677 0 
-0.994955 0.595328 0 
-0.400625 0.869319 0 
-0.446789 0.572784 0 
-0.684788 0.810325 0 
-0.779801 0.71956 0 
-0.250512 0.49351 0 
-0.158134 0.384592 0 
-0.830548 0.376505 0 
-0.751878 0.353712 0 
-0.221632 0.299518 0 
-0.172555 0.0315131 0 
-0.686881 0.324231 0 
-0.565241 -0.015177 0 
-0.692112 1.18891 0 
-0.97377 0.682106 0 
-0.906288 1.06197 0 
-0.97157 0.862143 0 
-0.964111 0.855281 0 
-0.948496 0.555008 0 
-1.04307 1.01549 0 
-1.01455 0.587935 0 
-0.822875 0.333415 0 
-0.748644 0.226677 0 
-0.803744 0.488311 0 
-0.90232 0.420214 0 
-0.680439 0.258483 0 
-0.625866 0.01534 0 
-0.860099 0.363425 0 
-0.721313 0.110538 0 
-1.01261 0.802568 0 
-0.965977 0.652472 0 
-1.28074 1.00751 0 
-1.02083 0.618506 0 
-0.848186 0.846238 0 
-0.913668 0.501029 0 
-0.970402 0.951788 0 
-1.0932 0.823505 0 
-0.87224 0.291656 0 
-0.9524 0.211516 0 
-1.02124 0.465501 0 
-1.02203 0.249629 0 
-0.928005 0.115349 0 
-1.05922 -0.0170689 0 
-0.90143 0.328294 0 
-0.921978 0.247825 0 
-0.982357 1.20103 0 
-0.848084 0.586619 0 
-1.31422 0.912273 0 
-1.42868 0.718767 0 
-0.906539 0.823638 0 
-1.03427 0.675421 0 
-1.26177 0.743509 0 
-1.40583 0.443744 0 
-0.888773 0.426013 0 
-0.940151 0.166279 0 
-1.33287 0.527028 0 
-1.19343 0.224363 0 
-0.926401 0.41278 0 
-0.871194 0.0704892 0 
-1.03745 0.34038 0 
-1.01611 0.110455 0 
VECTORS body_force double
0 -9.81 0 
0 -9.81 0 
0 -9.81 0 
0 -9.81 0 
0 -9.81 0 
0 -9.81 0 
0 -9.81 0 
0 -9.81 0 
0 -9.81 0 
0 -9.81 0 
0 -9.81 0 
0 -9.81 0 
0 -9.81 0 
0 -9.81 0 
0 -9.81 0 
0 -9.81 0 
0 -9.81 0 
0 -9.81 0 
0 -9.81 0 
0 -9.81 0 
0 -9.81 0 
0 -9.81 0 
0 -9.81 0 
0 -9.81 0 
0 -9.81 0 
0 -9.81 0 
0 -9.81 0 
0 -9.81 0 
0 -9.81 0 
0 -9.81 0 
0 -9.81 0 
0 -9.81 0 
0 -9.81 0 
0 -9.81 0 
0 -9.81 0 
0 -9.81 0 
0 -9.81 0 
0 -9.81 0 
0 -9.81 0 
0 -9.81 0 
0 -9.81 0 
0 -9.81 0 
0 -9.81 0 
0 -9.81 0 
0 -9.81 0 
0 -9.81 0 
0 -9.81 0 
0 -9.81 0 
0 -9.81 0 
0 -9.81 0 
0 -9.81 0 
0 -9.81 0 
0 -9.81 0 
0 -9.81 0 
0 -9.81 0 
0 -9.81 0 
0 -9.81 0 
0 -9.81 0 
0 -9.81 0 
0 -9.81 0 
0 -9.81 0 
0 -9.81 0 
0 -9.81 0 
0 -9.81 0 
TENSORS cauchy_stress double
-4303.09 -443.081 0
-443.081 2756.43 0
0 0 0

2806.11 1731.51 0
1731.51 560.733 0
0 0 0

1247.72 -244.843 0
-244.843 123.927 0
0 0 0

-6542.2 -3594.02 0
-3594.02 2933.17 0
0 0 0

-9711.29 -1954.08 0
-1954.08 621.417 0
0 0 0

1802.15 -2028.22 0
-2028.22 -1535.34 0
0 0 0

5299.01 -116.479 0
-116.479 -5219.21 0
0 0 0

-10037.4 -929.393 0
-929.393 5022.57 0
0 0 0

949.278 1779.61 0
1779.61 6008.8 0
0 0 0

-9876.33 -64.7234 0
-64.7234 -7687.29 0
0 0 0

2299.95 4138.94 0
4138.94 399.889 0
0 0 0

-4396.61 -978.836 0
-978.836 -1647.59 0
0 0 0

1421.78 -668.065 0
-668.065 7116.44 0
0 0 0

-3440.43 532.062 0
532.062 -2326.67 0
0 0 0

2202.48 -1005.35 0
-1005.35 9479.22 0
0 0 0

-1881.76 -1721.76 0
-1721.76 1287.53 0
0 0 0

-2633.84 -906.711 0
-906.711 1357.22 0
0 0 0

-2336.78 1431.33 0
1431.33 -200.524 0
0 0 0

1349.36 2718.74 0
2718.74 1436.4 0
0 0 0

-569.305 717.258 0
717.258 2210.83 0
0 0 0

-2242.83 -2732.98 0
-2732.98 2891.88 0
0 0 0

6042.24 -1217.62 0
-1217.62 2520.98 0
0 0 0

-2229.99 1361 0
1361 459.258 0
0 0 0

2112.99 1423.23 0
1423.23 -701.565 0
0 0 0

-2865.17 -1407.69 0
-1407.69 2270.08 0
0 0 0

-3051.87 1419.7 0
1419.7 -326.388 0
0 0 0

-6190.58 2795.02 0
2795.02 -916.041 0
0 0 0

-78.1545 211.26 0
211.26 4080.99 0
0 0 0

551.882 -1553.48 0
-1553.48 897.57 0
0 0 0

-4148.66 -964.44 0
-964.44 -33.2102 0
0 0 0

38.6062 780.479 0
780.479 3476.91 0
0 0 0

528.764 369.005 0
369.005 1931.03 0
0 0 0

1112.77 -2170.13 0
-2170.13 1328.89 0
0 0 0

2645.44 2254.75 0
2254.75 968.489 0
0 0 0

694.031 -381.118 0
-381.118 1850.32 0
0 0 0

134.711 1900.52 0
1900.52 2096.94 0
0 0 0

-2274.2 897.363 0
897.363 -2669.01 0
0 0 0

-1097.61 1713.08 0
1713.08 6388 0
0 0 0

1657.34 -2148.87 0
-2148.87 -350.596 0
0 0 0

4006.72 936.853 0
936.853 4607.12 0
0 0 0

-408.326 -649.028 0
-649.028 -383.217 0
0 0 0

-164.561 -129.052 0
-129.052 3320.33 0
0 0 0

1823.58 993.492 0
993.492 748.284 0
0 0 0

-3363.98 -1484.32 0
-1484.32 -1028.34 0
0 0 0

-1384.91 795.351 0
795.351 -544.717 0
0 0 0

1628.83 -797.889 0
-797.889 6462.71 0
0 0 0

-3760.51 615.379 0
615.379 2414.52 0
0 0 0

-1932.67 2569.59 0
2569.59 -2223.13 0
0 0 0

1003.38 -924.538 0
-924.538 2288.4 0
0 0 0

-149.627 592.682 0
592.682 -116.893 0
0 0 0

2466.66 -889.448 0
-889.448 1254.01 0
0 0 0

249.409 -1139.9 0
-1139.9 2881.38 0
0 0 0

1876.69 293.149 0
293.149 552.355 0
0 0 0

-1149.29 1909.95 0
1909.95 -2615.27 0
0 0 0

-2396.42 -172.159 0
-172.159 2079.33 0
0 0 0

-76.0128 438.769 0
438.769 -115.58 0
0 0 0

-183.026 484.21 0
484.21 7368.35 0
0 0 0

2507.78 -1624.77 0
-1624.77 2873.42 0
0 0 0

1172.41 728.657 0
728.657 490.015 0
0 0 0

-465.891 1374.04 0
1374.04 813.459 0
0 0 0

-775.921 837.449 0
837.449 -233.243 0
0 0 0

-54.2396 -577.295 0
-577.295 2912.21 0
0 0 0

-719.825 1711.48 0
1711.48 2695.55 0
0 0 0

-543.465 2836.85 0
2836.85 1775.35 0
0 0 0

TENSORS velocity_gradient double
-3.28298 -4.59752 0
7.56341 2.51628 0
0 0 0

-4.1011 -7.39942 0
7.68424 2.93012 0
0 0 0

-0.434604 -5.32284 0
7.1405 2.60204 0
0 0 0

-1.07381 -7.93441 0
7.0846 2.96924 0
0 0 0

-2.48686 -9.38049 0
6.45521 2.89772 0
0 0 0

-4.15376 -10.3468 0
5.90055 1.5792 0
0 0 0

-0.973398 -9.70968 0
6.68183 2.84843 0
0 0 0

-1.3361 -11.0634 0
6.89731 2.5821 0
0 0 0

0.595053 -12.9549 0
7.16633 -0.234212 0
0 0 0

1.07688 -11.2818 0
7.39411 0.556699 0
0 0 0

-0.703816 -10.4874 0
7.67797 1.7594 0
0 0 0

-0.348537 -9.39332 0
7.38274 0.812813 0
0 0 0

0.865191 -10.0648 0
7.54354 0.798013 0
0 0 0

1.06061 -9.11595 0
7.46171 0.400702 0
0 0 0

0.0644152 -9.17292 0
7.66637 1.14268 0
0 0 0

0.220212 -8.87889 0
7.75542 0.721864 0
0 0 0

0.548519 -1.94337 0
6.29783 0.0067761 0
0 0 0

0.219278 -2.21032 0
6.27319 1.04306 0
0 0 0

0.891906 -2.01733 0
5.28946 0.223944 0
0 0 0

0.239413 -2.22381 0
5.09989 1.30785 0
0 0 0

0.192535 -2.25029 0
6.5565 2.13064 0
0 0 0

-1.49385 -6.83998 0
8.40756 2.66896 0
0 0 0

0.229947 -2.26106 0
5.39401 2.46532 0
0 0 0

-1.56719 -2.53667 0
9.72839 2.85364 0
0 0 0

-1.84934 -10.2024 0
8.68278 1.50935 0
0 0 0

-0.828999 -9.23652 0
7.38235 0.813418 0
0 0 0

-1.73099 -3.19412 0
9.52963 2.05587 0
0 0 0

-0.13344 -3.73869 0
5.83557 1.55388 0
0 0 0

-0.154521 -8.94905 0
6.70562 1.55654 0
0 0 0

2.75906 -8.27022 0
5.09532 2.38876 0
0 0 0

-0.209504 -5.25291 0
5.8997 1.63873 0
0 0 0

2.29971 -6.73561 0
2.41659 2.32822 0
0 0 0

-0.514952 -4.98479 0
4.5563 0.460952 0
0 0 0

-0.155063 -3.65925 0
4.38101 0.807658 0
0 0 0

-2.17331 -4.54479 0
4.00215 0.584437 0
0 0 0

-1.05075 -3.43149 0
4.17903 0.859019 0
0 0 0

0.0527447 -2.70858 0
4.4592 1.19103 0
0 0 0

-0.851822 -2.88984 0
10.3988 2.28398 0
0 0 0

-0.409314 -2.69341 0
5.6629 1.09123 0
0 0 0

0.413113 -3.65084 0
9.95074 1.69939 0
0 0 0

-1.08874 -3.31717 0
10.3089 1.90655 0
0 0 0

0.286345 -3.83448 0
5.81236 1.55917 0
0 0 0

-0.106456 -4.84615 0
9.35954 2.3269 0
0 0 0

-0.0892539 -3.8136 0
5.9438 2.16737 0
0 0 0

0.170153 -4.24415 0
5.81878 1.58182 0
0 0 0

0.365676 -3.96316 0
1.57009 1.99224 0
0 0 0

0.203838 -2.79236 0
5.85837 1.72605 0
0 0 0

-0.734362 -3.51153 0
0.711561 2.08341 0
0 0 0

-0.706245 -4.49064 0
5.23209 1.33174 0
0 0 0

-1.15414 -5.69 0
4.65812 -0.247492 0
0 0 0

0.302503 -4.92206 0
6.70937 0.833935 0
0 0 0

-0.0282313 -6.03408 0
6.24363 -0.732034 0
0 0 0

1.28286 -5.8753 0
7.85795 -0.637759 0
0 0 0

1.73525 -5.02234 0
9.22018 1.48971 0
0 0 0

3.28254 -7.13587 0
7.351 -0.921258 0
0 0 0

2.91235 -8.26193 0
7.85101 0.599702 0
0 0 0

-1.17543 -4.80001 0
7.34574 2.36486 0
0 0 0

-1.78045 -3.38942 0
6.33148 2.07014 0
0 0 0

-3.28106 -8.84724 0
7.23369 1.27939 0
0 0 0

-3.14176 -8.34732 0
6.95955 0.295634 0
0 0 0

-0.802845 -1.97878 0
3.77917 1.54648 0
0 0 0

-0.583275 -2.26835 0
1.42577 0.428099 0
0 0 0

0.150703 -6.203 0
2.86236 0.306089 0
0 0 0

0.018383 -2.66459 0
2.74073 0.144513 0
0 0 0

SCALARS active double 1
LOOKUP_TABLE default
1
1
1
1
1
1
1
1
1
1
1
1
1
1
1
1
1
1
1
1
1
1
1
1
1
1
1
1
1
1
1
1
1
1
1
1
1
1
1
1
1
1
1
1
1
1
1
1
1
1
1
1
1
1
1
1
1
1
1
1
1
1
1
1
SCALARS extent double 1
LOOKUP_TABLE default
0.0125
0.0125
0.0125
0.0125
0.0125
0.0125
0.0125
0.0125
0.0125
0.0125
0.0125
0.0125
0.0125
0.0125
0.0125
0.0125
0.0125
0.0125
0.0125
0.0125
0.0125
0.0125
0.0125
0.0125
0.0125
0.0125
0.0125
0.0125
0.0125
0.0125
0.0125
0.0125
0.0125
0.0125
0.0125
0.0125
0.0125
0.0125
0.0125
0.0125
0.0125
0.0125
0.0125
0.0125
0.0125
0.0125
0.0125
0.0125
0.0125
0.0125
0.0125
0.0125
0.0125
0.0125
0.0125
0.0125
0.0125
0.0125
0.0125
0.0125
0.0125
0.0125
0.0125
0.0125
SCALARS pressure double 1
LOOKUP_TABLE default
773.327
-1683.42
-685.823
1804.52
4544.93
-133.403
-39.8975
2507.42
-3479.04
8781.81
-1349.92
3022.1
-4269.11
2883.55
-5840.85
297.119
638.31
1268.65
-1392.88
-820.764
-324.524
-4281.61
885.367
-705.713
297.545
1689.13
3553.31
-2001.42
-724.726
2090.93
-1757.76
-1229.9
-1220.83
-1806.96
-1272.17
-1115.83
2471.6
-2645.2
-653.373
-4306.92
395.772
-1577.88
-1285.93
2196.16
964.813
-4045.77
672.995
2077.9
-1645.89
133.26
-1860.33
-1565.39
-1214.52
1882.28
158.542
95.7964
-3592.66
-2690.6
-831.213
-173.784
504.582
-1428.98
-987.864
-615.944
SCALARS density double 1
LOOKUP_TABLE default
1008.08
982.645
992.893
1018.94
1048.4
998.614
999.585
1026.42
964.465
1095.63
986.059
1031.93
956.572
1030.44
941.063
1003.09
1006.66
1013.28
985.618
991.5
996.631
956.448
1009.25
992.687
1003.1
1017.72
1037.65
979.4
992.491
1021.98
981.885
987.291
987.384
981.383
986.857
988.462
1026.04
972.865
993.228
956.196
1004.12
983.724
986.715
1023.1
1010.08
958.797
1007.02
1021.85
983.028
1001.39
980.838
983.852
987.448
1019.77
1001.65
1001
963.326
972.406
991.393
998.194
1005.26
985.248
989.779
993.615
