# vtk DataFile Version 3.0
Frame: 50, Time: 0.85
ASCII
DATASET UNSTRUCTURED_GRID
POINTS 64 double
0.0376933 0.265214 0 
0.0617147 0.259377 0 
0.0299923 0.240839 0 
0.0539624 0.235979 0 
0.0860578 0.252598 0 
0.111357 0.246135 0 
0.077756 0.228886 0 
0.101996 0.221871 0 
0.13319 0.237132 0 
0.155007 0.227458 0 
0.125762 0.21255 0 
0.147193 0.204058 0 
0.178724 0.220288 0 
0.206147 0.207003 0 
0.168352 0.19591 0 
0.195067 0.186369 0 
0.0214734 0.217001 0 
0.04538 0.209773 0 
0.014656 0.191506 0 
0.0383345 0.185204 0 
0.0688956 0.203606 0 
0.0925999 0.195825 0 
0.061333 0.177755 0 
0.0842582 0.170916 0 
0.114974 0.187178 0 
0.137606 0.179874 0 
0.106799 0.161199 0 
0.129872 0.154581 0 
0.157978 0.171465 0 
0.183275 0.162084 0 
0.151667 0.14754 0 
0.173669 0.141406 0 
0.00714411 0.165503 0 
0.0312178 0.159808 0 
-0.00025797 0.14034 0 
0.0240107 0.134148 0 
0.053779 0.151475 0 
0.0771721 0.144189 0 
0.046918 0.126908 0 
0.0705056 0.117809 0 
0.0993547 0.136675 0 
0.121864 0.129018 0 
0.0934497 0.110888 0 
0.116143 0.103536 0 
0.14471 0.123627 0 
0.167142 0.118873 0 
0.140687 0.0986993 0 
0.165491 0.0943823 0 
0.991742 0.115821 0 
0.0161071 0.109904 0 
0.982572 0.0930962 0 
0.00758181 0.0843327 0 
0.0393389 0.102361 0 
0.0625328 0.094487 0 
0.0315615 0.0759536 0 
0.0554212 0.0690835 0 
0.0852842 0.0859728 0 
0.108574 0.0818408 0 
0.0789918 0.0599393 0 
0.103775 0.0551106 0 
0.134527 0.0752387 0 
0.161481 0.0711116 0 
0.128031 0.0506536 0 
0.152074 0.0448304 0 
CELLS 64 128
1 0
1 1
1 2
1 3
1 4
1 5
1 6
1 7
1 8
1 9
1 10
1 11
1 12
1 13
1 14
1 15
1 16
1 17
1 18
1 19
1 20
1 21
1 22
1 23
1 24
1 25
1 26
1 27
1 28
1 29
1 30
1 31
1 32
1 33
1 34
1 35
1 36
1 37
1 38
1 39
1 40
1 41
1 42
1 43
1 44
1 45
1 46
1 47
1 48
1 49
1 50
1 51
1 52
1 53
1 54
1 55
1 56
1 57
1 58
1 59
1 60
1 61
1 62
1 63
CELL_TYPES 64
1
1
1
1
1
1
1
1
1
1
1
1
1
1
1
1
1
1
1
1
1
1
1
1
1
1
1
1
1
1
1
1
1
1
1
1
1
1
1
1
1
1
1
1
1
1
1
1
1
1
1
1
1
1
1
1
1
1
1
1
1
1
1
1
POINT_DATA 64
VECTORS displacement double
-0.174807 0.0527137 0 
-0.150785 0.0218771 0 
-0.207508 0.0283389 0 
-0.183538 -0.00152069 0 
-0.126442 -0.00990169 0 
-0.101143 -0.0413648 0 
-0.159744 -0.0336136 0 
-0.135504 -0.0656286 0 
-0.07931 -0.0753681 0 
-0.0574929 -0.110042 0 
-0.111738 -0.0999505 0 
-0.0903073 -0.133442 0 
-0.0337759 -0.142212 0 
-0.00635276 -0.180497 0 
-0.0691477 -0.16659 0 
-0.0424331 -0.201131 0 
-0.241027 0.00450056 0 
-0.21712 -0.0277274 0 
-0.272844 -0.0209944 0 
-0.249166 -0.0522963 0 
-0.193604 -0.0588943 0 
-0.1699 -0.0916753 0 
-0.226167 -0.0847445 0 
-0.203242 -0.116584 0 
-0.147526 -0.125322 0 
-0.124894 -0.157626 0 
-0.180701 -0.151301 0 
-0.157628 -0.182919 0 
-0.104522 -0.191035 0 
-0.0792248 -0.225416 0 
-0.135833 -0.21496 0 
-0.113831 -0.246094 0 
-0.305356 -0.0469968 0 
-0.281282 -0.0776921 0 
-0.337758 -0.0721604 0 
-0.313489 -0.103352 0 
-0.258721 -0.111025 0 
-0.235328 -0.143311 0 
-0.290582 -0.135592 0 
-0.266994 -0.169691 0 
-0.213145 -0.175825 0 
-0.190636 -0.208482 0 
-0.24405 -0.201612 0 
-0.221357 -0.233964 0 
-0.16779 -0.238873 0 
-0.145358 -0.268627 0 
-0.196813 -0.263801 0 
-0.172009 -0.293118 0 
-0.370758 -0.0966793 0 
-0.346393 -0.127596 0 
-0.404928 -0.119404 0 
-0.379918 -0.153167 0 
-0.323161 -0.160139 0 
-0.299967 -0.193013 0 
-0.355938 -0.186546 0 
-0.332079 -0.218417 0 
-0.277216 -0.226527 0 
-0.253926 -0.255659 0 
-0.308508 -0.252561 0 
-0.283725 -0.282389 0 
-0.227973 -0.287261 0 
-0.201019 -0.316388 0 
-0.259469 -0.311846 0 
-0.235426 -0.34267 0 
VECTORS velocity double
-1.61725 1.6971 0 
-1.91296 1.53365 0 
-1.43022 1.23265 0 
-1.58028 1.55087 0 
-1.87117 1.55837 0 
-1.13827 1.83583 0 
-2.10418 1.48087 0 
-1.58837 2.04553 0 
-1.43947 2.75635 0 
-2.20839 1.83666 0 
-0.846648 2.18692 0 
-1.74203 2.11654 0 
-3.00585 2.4165 0 
-2.06615 2.53321 0 
-2.66957 2.15325 0 
-2.20333 2.34938 0 
-1.53432 0.964371 0 
-1.29582 1.61814 0 
-1.60568 0.720086 0 
-1.41087 1.56724 0 
-2.33395 1.77143 0 
-2.03247 1.71051 0 
-2.04669 1.72706 0 
-2.04611 1.57739 0 
-1.2526 1.50267 0 
-1.44129 1.42055 0 
-1.39608 1.58392 0 
-1.03901 1.38263 0 
-2.16593 2.04361 0 
-2.06429 1.9057 0 
-1.37155 1.66097 0 
-1.19216 2.36856 0 
-1.63926 1.2141 0 
-1.03961 1.86156 0 
-1.47117 1.19268 0 
-0.917824 1.45327 0 
-1.16895 1.52062 0 
-1.50139 1.24994 0 
-1.00516 1.22386 0 
-1.14699 1.07679 0 
-1.57377 1.0531 0 
-0.823733 0.55563 0 
-1.26768 0.629328 0 
-0.875292 0.398754 0 
-0.677741 0.803112 0 
-0.574542 2.40205 0 
-1.09906 0.707394 0 
-0.553075 2.14047 0 
-1.51538 1.63509 0 
-0.903803 1.54046 0 
-1.74057 1.95139 0 
-1.64023 2.02751 0 
-1.28229 1.61695 0 
-1.34465 1.66974 0 
-1.53479 1.79961 0 
-1.53264 1.65708 0 
-1.36636 1.22227 0 
-1.23023 1.34421 0 
-1.16449 1.00889 0 
-0.788463 1.19535 0 
-1.41264 1.91115 0 
-0.764616 2.18428 0 
-1.04671 1.25441 0 
-0.708145 0.983024 0 
SCALARS mass double 1
LOOKUP_TABLE default
0.625
0.625
0.625
0.625
0.625
0.625
0.625
0.625
0.625
0.625
0.625
0.625
0.625
0.625
0.625
0.625
0.625
0.625
0.625
0.625
0.625
0.625
0.625
0.625
0.625
0.625
0.625
0.625
0.625
0.625
0.625
0.625
0.625
0.625
0.625
0.625
0.625
0.625
0.625
0.625
0.625
0.625
0.625
0.625
0.625
0.625
0.625
0.625
0.625
0.625
0.625
0.625
0.625
0.625
0.625
0.625
0.625
0.625
0.625
0.625
0.625
0.625
0.625
0.625
SCALARS volume double 1
LOOKUP_TABLE default
0.000629104
0.000627272
0.000613165
0.000623506
0.000635094
0.000644553
0.00062587
0.000628055
0.00061138
0.000559608
0.000653374
0.000541345
0.000647934
0.00065523
0.000704502
0.000605415
0.000643107
0.00063302
0.000633789
0.00062074
0.000659781
0.000662924
0.00063886
0.00063402
0.000661574
0.000539797
0.000628639
0.000618787
0.000582804
0.000600395
0.000554196
0.000585473
0.000637914
0.000628917
0.000637012
0.000645887
0.000621477
0.000659925
0.000604331
0.000627349
0.000636828
0.00063394
0.00063148
0.000573179
0.000579154
0.000594271
0.000593533
0.00061583
0.000607363
0.000650749
0.000631
0.000628602
0.000601074
0.000589933
0.000643891
0.000644963
0.000632958
0.0005905
0.000672106
0.000669187
0.000627499
0.000689461
0.000662603
0.000611122
VECTORS momentum double
-1.01078 1.06069 0 
-1.1956 0.958529 0 
-0.893887 0.770409 0 
-0.987678 0.969293 0 
-1.16948 0.97398 0 
-0.711421 1.14739 0 
-1.31511 0.925541 0 
-0.992733 1.27845 0 
-0.899669 1.72272 0 
-1.38024 1.14791 0 
-0.529155 1.36683 0 
-1.08877 1.32284 0 
-1.87866 1.51031 0 
-1.29134 1.58326 0 
-1.66848 1.34578 0 
-1.37708 1.46836 0 
-0.958951 0.602732 0 
-0.809885 1.01134 0 
-1.00355 0.450054 0 
-0.881794 0.979523 0 
-1.45872 1.10715 0 
-1.2703 1.06907 0 
-1.27918 1.07941 0 
-1.27882 0.985868 0 
-0.782874 0.939172 0 
-0.900803 0.887842 0 
-0.872548 0.98995 0 
-0.649381 0.864147 0 
-1.35371 1.27726 0 
-1.29018 1.19106 0 
-0.857218 1.03811 0 
-0.745102 1.48035 0 
-1.02453 0.758811 0 
-0.649756 1.16348 0 
-0.919482 0.745422 0 
-0.57364 0.908291 0 
-0.730593 0.950389 0 
-0.938368 0.78121 0 
-0.628222 0.764909 0 
-0.716868 0.672995 0 
-0.983604 0.658187 0 
-0.514833 0.347269 0 
-0.792298 0.39333 0 
-0.547057 0.249221 0 
-0.423588 0.501945 0 
-0.359089 1.50128 0 
-0.686912 0.442121 0 
-0.345672 1.3378 0 
-0.94711 1.02193 0 
-0.564877 0.962789 0 
-1.08786 1.21962 0 
-1.02514 1.2672 0 
-0.801432 1.01059 0 
-0.840407 1.04359 0 
-0.959246 1.12476 0 
-0.957903 1.03567 0 
-0.853974 0.763917 0 
-0.768897 0.840129 0 
-0.727808 0.630556 0 
-0.492789 0.747091 0 
-0.882903 1.19447 0 
-0.477885 1.36517 0 
-0.654194 0.784004 0 
-0.44259 0.61439 0 
VECTORS body_force double
0 -9.81 0 
0 -9.81 0 
0 -9.81 0 
0 -9.81 0 
0 -9.81 0 
0 -9.81 0 
0 -9.81 0 
0 -9.81 0 
0 -9.81 0 
0 -9.81 0 
0 -9.81 0 
0 -9.81 0 
0 -9.81 0 
0 -9.81 0 
0 -9.81 0 
0 -9.81 0 
0 -9.81 0 
0 -9.81 0 
0 -9.81 0 
0 -9.81 0 
0 -9.81 0 
0 -9.81 0 
0 -9.81 0 
0 -9.81 0 
0 -9.81 0 
0 -9.81 0 
0 -9.81 0 
0 -9.81 0 
0 -9.81 0 
0 -9.81 0 
0 -9.81 0 
0 -9.81 0 
0 -9.81 0 
0 -9.81 0 
0 -9.81 0 
0 -9.81 0 
0 -9.81 0 
0 -9.81 0 
0 -9.81 0 
0 -9.81 0 
0 -9.81 0 
0 -9.81 0 
0 -9.81 0 
0 -9.81 0 
0 -9.81 0 
0 -9.81 0 
0 -9.81 0 
0 -9.81 0 
0 -9.81 0 
0 -9.81 0 
0 -9.81 0 
0 -9.81 0 
0 -9.81 0 
0 -9.81 0 
0 -9.81 0 
0 -9.81 0 
0 -9.81 0 
0 -9.81 0 
0 -9.81 0 
0 -9.81 0 
0 -9.81 0 
0 -9.81 0 
0 -9.81 0 
0 -9.81 0 
TENSORS cauchy_stress double
246.292 490.955 0
490.955 1012.43 0
0 0 0

1022.4 2503.56 0
2503.56 -324.652 0
0 0 0

-2364.76 1629.14 0
1629.14 -1311.64 0
0 0 0

-972.649 5072.31 0
5072.31 512.311 0
0 0 0

1294.35 1305.98 0
1305.98 1786.72 0
0 0 0

1909.87 4008.07 0
4008.07 4014.31 0
0 0 0

765.385 881.3 0
881.3 -498.016 0
0 0 0

-833.938 1969.88 0
1969.88 1771.74 0
0 0 0

-5655.82 1849.27 0
1849.27 1418.79 0
0 0 0

-13687.1 306.775 0
306.775 -7565.96 0
0 0 0

3221.93 2665.37 0
2665.37 5316.19 0
0 0 0

-22445.4 1092.07 0
1092.07 -5188.06 0
0 0 0

10258.6 1590.91 0
1590.91 -3328.38 0
0 0 0

9499.61 -4455.49 0
-4455.49 -416.135 0
0 0 0

13768.4 4565.18 0
4565.18 9258.58 0
0 0 0

-8445.59 527.171 0
527.171 2322.89 0
0 0 0

-0.280358 2276.56 0
2276.56 5492.35 0
0 0 0

283.962 2797.15 0
2797.15 2168.17 0
0 0 0

-769.187 1979.66 0
1979.66 3454.68 0
0 0 0

-3829.6 1796.41 0
1796.41 2514.37 0
0 0 0

3616.52 3987.52 0
3987.52 6798.07 0
0 0 0

995.566 2004.4 0
2004.4 10333.2 0
0 0 0

-2955.49 2338.4 0
2338.4 7173.38 0
0 0 0

-2679.83 -154.847 0
-154.847 5435.34 0
0 0 0

2005.98 2179.55 0
2179.55 8930.46 0
0 0 0

-20990.2 3515.24 0
3515.24 -7194.26 0
0 0 0

-1898.46 1884.74 0
1884.74 3014.77 0
0 0 0

-3679.37 4010.34 0
4010.34 1758.07 0
0 0 0

-6437.73 397.453 0
397.453 -7004.84 0
0 0 0

-2541.39 -48.5091 0
-48.5091 -5182.3 0
0 0 0

-15334.7 2737.55 0
2737.55 -7787.06 0
0 0 0

-5361.41 -1283.54 0
-1283.54 -7202.34 0
0 0 0

-784.798 1674.1 0
1674.1 4717.76 0
0 0 0

-2284.45 2274.58 0
2274.58 3485.95 0
0 0 0

-967.584 2012.98 0
2012.98 4628.61 0
0 0 0

2590.44 2283.78 0
2283.78 3731.2 0
0 0 0

-5034.66 -1214.5 0
-1214.5 3947.69 0
0 0 0

-1562.51 3179.7 0
3179.7 12019.2 0
0 0 0

-7539.42 -2743.52 0
-2743.52 1072.24 0
0 0 0

-3103.14 -1493.67 0
-1493.67 3824.47 0
0 0 0

-5353.95 -4984.52 0
-4984.52 8959.22 0
0 0 0

-4821.28 4269 0
4269 7552.67 0
0 0 0

-3123.82 3247.67 0
3247.67 5107.45 0
0 0 0

-7602.33 -105.671 0
-105.671 -9042.48 0
0 0 0

-11163.6 -1628.39 0
-1628.39 -3487.01 0
0 0 0

-8553.38 -3608.19 0
-3608.19 -1142.07 0
0 0 0

-3675.38 3510.3 0
3510.3 -6259.16 0
0 0 0

-7.06876 -5535.99 0
-5535.99 -2835.28 0
0 0 0

-1945.19 -768.898 0
-768.898 -3559.72 0
0 0 0

5448.36 4504.96 0
4504.96 2315.46 0
0 0 0

2812.63 704.522 0
704.522 -975.387 0
0 0 0

-433.949 -43.0048 0
-43.0048 1539.06 0
0 0 0

-7717.77 2824.81 0
2824.81 211.224 0
0 0 0

-5973.19 -0.667061 0
-0.667061 -5131.3 0
0 0 0

-2038.79 -2737.65 0
-2737.65 7765.37 0
0 0 0

-3674.08 -6087.41 0
-6087.41 9720.5 0
0 0 0

368.488 4587.45 0
4587.45 2064.71 0
0 0 0

-4004.04 449.844 0
449.844 -6915.43 0
0 0 0

3322.39 -9308.45 0
-9308.45 10651.5 0
0 0 0

-755.84 -732.888 0
-732.888 13892.6 0
0 0 0

4286.1 -307.872 0
-307.872 -3518.7 0
0 0 0

10325 -1451.21 0
-1451.21 8551.74 0
0 0 0

5628.01 -2130.89 0
-2130.89 5607.35 0
0 0 0

-6987.32 5547.29 0
5547.29 2669.1 0
0 0 0

TENSORS velocity_gradient double
-2.8704 -1.97157 0
2.82002 3.50579 0
0 0 0

-0.362907 -4.4656 0
3.31725 -0.792765 0
0 0 0

-1.8283 -0.584891 0
5.21693 2.26386 0
0 0 0

-0.44416 -0.651674 0
5.17531 0.745549 0
0 0 0

0.0444946 -3.84248 0
4.30237 -3.40835 0
0 0 0

-2.73239 1.54569 0
9.10814 1.12037 0
0 0 0

-0.898594 1.03805 0
5.15864 0.693177 0
0 0 0

-1.60824 2.20096 0
6.81944 1.07811 0
0 0 0

-2.35803 0.892238 0
8.4638 3.5206 0
0 0 0

-11.1449 0.234443 0
3.92523 4.70016 0
0 0 0

-1.21509 1.2389 0
6.46957 2.91572 0
0 0 0

-5.07208 -2.79371 0
5.30845 5.56351 0
0 0 0

-11.1936 0.396002 0
3.97672 4.52936 0
0 0 0

-13.622 -0.597603 0
13.8726 1.01012 0
0 0 0

-10.5142 -11.467 0
5.05386 5.04047 0
0 0 0

-9.7076 -15.2027 0
8.42784 1.49378 0
0 0 0

-1.17751 -0.35054 0
7.20191 2.97867 0
0 0 0

-1.31071 -0.844896 0
7.13345 1.11063 0
0 0 0

-0.366095 -4.53946 0
7.1355 -4.41278 0
0 0 0

-0.112706 -5.46467 0
6.21709 -1.05931 0
0 0 0

-2.57079 -1.71302 0
4.83053 1.75582 0
0 0 0

-2.74851 -5.57092 0
4.24472 7.50517 0
0 0 0

-2.89437 -5.84708 0
1.2217 2.52621 0
0 0 0

-2.90214 -5.82095 0
0.0811888 6.36215 0
0 0 0

0.189559 -6.84459 0
5.77455 8.53999 0
0 0 0

0.650242 -8.25454 0
5.86148 8.27396 0
0 0 0

1.79584 -6.32374 0
6.07763 8.63827 0
0 0 0

2.27027 -7.92005 0
6.14608 7.73055 0
0 0 0

-7.39455 -10.1631 0
8.75128 6.68406 0
0 0 0

-6.15921 -13.4339 0
10.2151 2.80819 0
0 0 0

-2.28506 -10.6151 0
10.842 5.41792 0
0 0 0

-3.01681 -14.6098 0
13.5548 1.47848 0
0 0 0

0.654555 -4.24117 0
3.43613 -5.49394 0
0 0 0

0.881047 -5.1811 0
2.6152 -2.08712 0
0 0 0

3.66646 0.132396 0
-0.97605 -5.97445 0
0 0 0

1.96979 -0.735433 0
-1.08595 -2.84651 0
0 0 0

-2.34864 -4.02235 0
-2.57898 1.25053 0
0 0 0

-2.41903 -3.83251 0
-3.92861 3.76062 0
0 0 0

1.04638 -1.7982 0
-3.42902 0.380686 0
0 0 0

-0.560856 -3.35459 0
-6.72606 3.04111 0
0 0 0

1.29442 -5.49053 0
1.41137 5.72857 0
0 0 0

4.57267 -7.59217 0
6.30784 5.92085 0
0 0 0

0.39926 -4.98496 0
-6.3937 5.42392 0
0 0 0

6.64881 -5.1029 0
6.29178 2.59958 0
0 0 0

4.27748 -9.87866 0
8.00791 5.63252 0
0 0 0

0.928185 -13.4026 0
17.4099 2.65816 0
0 0 0

6.63776 -1.56686 0
6.1282 -0.537334 0
0 0 0

3.18612 4.22345 0
18.5616 1.46585 0
0 0 0

5.712 0.156505 0
-2.00938 -6.49148 0
0 0 0

3.03862 -0.388773 0
-4.61563 -3.99133 0
0 0 0

3.73358 2.95962 0
-1.24898 -3.89201 0
0 0 0

3.57635 5.65515 0
-6.60806 -4.76529 0
0 0 0

3.27417 1.49814 0
-5.42697 -1.7977 0
0 0 0

1.67566 3.09646 0
-8.04344 -3.79606 0
0 0 0

3.65809 5.41801 0
-6.98061 -3.68443 0
0 0 0

5.66865 4.18951 0
-6.41177 -3.3494 0
0 0 0

2.98482 -0.453284 0
-7.50847 -5.2466 0
0 0 0

5.30036 -1.5832 0
5.08198 -5.42503 0
0 0 0

7.08133 0.525221 0
-5.8345 -4.84675 0
0 0 0

3.19029 -5.62638 0
2.2061 0.544832 0
0 0 0

4.61363 1.04098 0
4.60341 -3.59631 0
0 0 0

0.754838 3.81355 0
12.8193 0.497737 0
0 0 0

2.31878 -10.9151 0
2.90863 13.5298 0
0 0 0

-0.320338 -19.4031 0
5.77071 29.7411 0
0 0 0

SCALARS active double 1
LOOKUP_TABLE default
1
1
1
1
1
1
1
1
1
1
1
1
1
1
1
1
1
1
1
1
1
1
1
1
1
1
1
1
1
1
1
1
1
1
1
1
1
1
1
1
1
1
1
1
1
1
1
1
1
1
1
1
1
1
1
1
1
1
1
1
1
1
1
1
SCALARS extent double 1
LOOKUP_TABLE default
0.0125
0.0125
0.0125
0.0125
0.0125
0.0125
0.0125
0.0125
0.0125
0.0125
0.0125
0.0125
0.0125
0.0125
0.0125
0.0125
0.0125
0.0125
0.0125
0.0125
0.0125
0.0125
0.0125
0.0125
0.0125
0.0125
0.0125
0.0125
0.0125
0.0125
0.0125
0.0125
0.0125
0.0125
0.0125
0.0125
0.0125
0.0125
0.0125
0.0125
0.0125
0.0125
0.0125
0.0125
0.0125
0.0125
0.0125
0.0125
0.0125
0.0125
0.0125
0.0125
0.0125
0.0125
0.0125
0.0125
0.0125
0.0125
0.0125
0.0125
0.0125
0.0125
0.0125
0.0125
SCALARS pressure double 1
LOOKUP_TABLE default
-629.359
-348.875
1838.2
230.169
-1540.53
-2962.09
-133.685
-468.901
2118.52
10626.5
-4269.06
13816.8
-3465.11
-4541.74
-11513.5
3061.35
-2746.04
-1226.07
-1342.75
657.613
-5207.3
-5664.36
-2108.95
-1377.75
-5468.22
14092.2
-558.153
960.654
6721.28
3861.85
11560.9
6281.88
-1966.48
-600.752
-1830.51
-3160.82
543.488
-5228.36
3233.59
-360.669
-1802.63
-1365.69
-991.814
8322.4
7325.31
4847.72
4967.27
1421.18
2752.46
-3881.91
-918.619
-552.554
3753.28
5552.25
-2863.29
-3023.21
-1216.6
5459.74
-6986.92
-6568.39
-383.698
-9438.37
-5617.68
2159.11
SCALARS density double 1
LOOKUP_TABLE default
993.476
996.378
1019.3
1002.4
984.106
969.664
998.611
995.135
1022.28
1116.85
956.573
1154.53
964.604
953.864
887.151
1032.35
971.845
987.33
986.132
1006.86
947.284
942.792
978.306
985.774
944.717
1157.84
994.212
1010.04
1072.4
1040.98
1127.76
1067.51
979.756
993.772
981.143
967.662
1005.67
947.077
1034.2
996.256
981.427
985.897
989.738
1090.41
1079.16
1051.71
1053.02
1014.89
1029.04
960.432
990.492
994.27
1039.81
1059.44
970.661
969.048
987.427
1058.42
929.913
933.97
996.017
906.505
943.25
1022.71
