# vtk DataFile Version 3.0
Frame: 22, Time: 0.374
ASCII
DATASET UNSTRUCTURED_GRID
POINTS 64 double
0.965369 0.0809182 0 
0.940586 0.0759857 0 
0.960072 0.10577 0 
0.93587 0.100027 0 
0.914885 0.0707978 0 
0.89311 0.0634112 0 
0.910034 0.0958767 0 
0.886834 0.0901248 0 
0.86861 0.0568741 0 
0.842214 0.0545048 0 
0.863641 0.0832299 0 
0.83927 0.0813618 0 
0.817497 0.0534308 0 
0.790438 0.0513853 0 
0.815805 0.0796078 0 
0.789943 0.0753125 0 
0.956126 0.13098 0 
0.932165 0.12468 0 
0.95439 0.155317 0 
0.929913 0.149886 0 
0.90755 0.121344 0 
0.883028 0.11586 0 
0.904762 0.146767 0 
0.880542 0.140404 0 
0.858707 0.109087 0 
0.835533 0.106969 0 
0.856932 0.135085 0 
0.832094 0.133116 0 
0.812463 0.104661 0 
0.787482 0.10033 0 
0.807706 0.128975 0 
0.783335 0.124632 0 
0.949168 0.180262 0 
0.92458 0.17404 0 
0.943167 0.204802 0 
0.918452 0.199634 0 
0.899727 0.171932 0 
0.876557 0.165803 0 
0.893969 0.196102 0 
0.870324 0.191214 0 
0.85289 0.161349 0 
0.82883 0.159021 0 
0.847684 0.187056 0 
0.824394 0.183309 0 
0.804196 0.153949 0 
0.779013 0.149881 0 
0.800224 0.179149 0 
0.775087 0.175085 0 
0.93069 0.229002 0 
0.910495 0.224515 0 
0.918274 0.25525 0 
0.901548 0.250321 0 
0.888258 0.220018 0 
0.865204 0.217248 0 
0.881559 0.24595 0 
0.859541 0.243474 0 
0.842873 0.21311 0 
0.819887 0.208171 0 
0.838026 0.238881 0 
0.815418 0.234226 0 
0.795587 0.205241 0 
0.770841 0.200014 0 
0.790065 0.231266 0 
0.76608 0.225712 0 
CELLS 64 128
1 0
1 1
1 2
1 3
1 4
1 5
1 6
1 7
1 8
1 9
1 10
1 11
1 12
1 13
1 14
1 15
1 16
1 17
1 18
1 19
1 20
1 21
1 22
1 23
1 24
1 25
1 26
1 27
1 28
1 29
1 30
1 31
1 32
1 33
1 34
1 35
1 36
1 37
1 38
1 39
1 40
1 41
1 42
1 43
1 44
1 45
1 46
1 47
1 48
1 49
1 50
1 51
1 52
1 53
1 54
1 55
1 56
1 57
1 58
1 59
1 60
1 61
1 62
1 63
CELL_TYPES 64
1
1
1
1
1
1
1
1
1
1
1
1
1
1
1
1
1
1
1
1
1
1
1
1
1
1
1
1
1
1
1
1
1
1
1
1
1
1
1
1
1
1
1
1
1
1
1
1
1
1
1
1
1
1
1
1
1
1
1
1
1
1
1
1
POINT_DATA 64
VECTORS displacement double
0.352869 -0.231582 0 
0.328086 -0.261514 0 
0.322572 -0.20673 0 
0.29837 -0.237473 0 
0.302385 -0.291702 0 
0.28061 -0.324089 0 
0.272534 -0.266623 0 
0.249334 -0.297375 0 
0.25611 -0.355626 0 
0.229714 -0.382995 0 
0.226141 -0.32927 0 
0.20177 -0.356138 0 
0.204997 -0.409069 0 
0.177938 -0.436115 0 
0.178305 -0.382892 0 
0.152443 -0.412188 0 
0.293626 -0.18152 0 
0.269665 -0.21282 0 
0.26689 -0.157183 0 
0.242413 -0.187614 0 
0.24505 -0.241156 0 
0.220528 -0.27164 0 
0.217262 -0.215733 0 
0.193042 -0.247096 0 
0.196207 -0.303413 0 
0.173033 -0.330531 0 
0.169432 -0.277415 0 
0.144594 -0.304384 0 
0.149963 -0.357839 0 
0.124982 -0.38717 0 
0.120206 -0.333525 0 
0.0958349 -0.362868 0 
0.236668 -0.132238 0 
0.21208 -0.16346 0 
0.205667 -0.107698 0 
0.180952 -0.137866 0 
0.187227 -0.190568 0 
0.164057 -0.221697 0 
0.156469 -0.166398 0 
0.132824 -0.196286 0 
0.14039 -0.251151 0 
0.11633 -0.278479 0 
0.110184 -0.225444 0 
0.0868939 -0.254191 0 
0.091696 -0.308551 0 
0.0665126 -0.337619 0 
0.062724 -0.283351 0 
0.0375869 -0.312415 0 
0.16819 -0.0834978 0 
0.147995 -0.112985 0 
0.130774 -0.0572504 0 
0.114048 -0.0871788 0 
0.125758 -0.142482 0 
0.102704 -0.170252 0 
0.0940595 -0.11655 0 
0.0720412 -0.144026 0 
0.0803733 -0.19939 0 
0.0573871 -0.229329 0 
0.0505261 -0.173619 0 
0.0279181 -0.203274 0 
0.0330871 -0.257259 0 
0.00834052 -0.287486 0 
0.00256465 -0.231234 0 
-0.0214197 -0.261788 0 
VECTORS velocity double
-0.94259 -0.511597 0 
-1.09475 0.837263 0 
0.148648 -0.0413321 0 
-0.560337 1.20046 0 
-1.47632 1.72811 0 
-1.0388 1.02726 0 
-0.584258 1.35882 0 
-0.996036 1.32155 0 
-0.612085 1.03025 0 
-0.920915 1.27945 0 
-1.37241 1.73799 0 
-1.72416 2.00903 0 
-0.154095 1.12977 0 
0.520957 1.25783 0 
-1.7665 2.16732 0 
-1.09445 2.32381 0 
0.0522962 -0.229245 0 
-0.447328 1.51806 0 
-0.0266703 0.27543 0 
-0.0985175 1.2647 0 
0.112266 1.20598 0 
0.0619716 1.28334 0 
-0.063455 1.27411 0 
-0.130191 1.43414 0 
-0.0301085 1.49145 0 
-0.386262 1.44231 0 
0.0645297 1.73895 0 
-0.0292309 1.7648 0 
-1.00477 1.40278 0 
-0.99641 2.66134 0 
-0.347689 1.51243 0 
-0.481767 2.8136 0 
0.332267 0.474129 0 
0.397962 1.18326 0 
1.2438 0.807059 0 
0.257822 1.49377 0 
0.336648 1.60073 0 
0.23424 1.78588 0 
0.0869088 1.8413 0 
-0.03348 1.8948 0 
0.215776 1.97975 0 
0.339176 1.89991 0 
0.295311 1.98901 0 
0.534531 1.79071 0 
0.302337 2.18466 0 
0.239237 3.42796 0 
0.239778 2.6004 0 
-0.00408592 3.49276 0 
-0.158889 -0.620364 0 
0.594723 1.4199 0 
-0.622668 0.108956 0 
0.99344 2.15593 0 
0.517063 1.60472 0 
0.579266 1.88509 0 
0.81728 2.23421 0 
0.558276 2.04147 0 
0.541657 2.05614 0 
0.766584 1.96025 0 
0.659255 2.39368 0 
1.27048 2.39062 0 
0.885032 2.78635 0 
0.583474 3.43819 0 
1.32361 2.80242 0 
1.47532 3.71162 0 
SCALARS mass double 1
LOOKUP_TABLE default
0.625
0.625
0.625
0.625
0.625
0.625
0.625
0.625
0.625
0.625
0.625
0.625
0.625
0.625
0.625
0.625
0.625
0.625
0.625
0.625
0.625
0.625
0.625
0.625
0.625
0.625
0.625
0.625
0.625
0.625
0.625
0.625
0.625
0.625
0.625
0.625
0.625
0.625
0.625
0.625
0.625
0.625
0.625
0.625
0.625
0.625
0.625
0.625
0.625
0.625
0.625
0.625
0.625
0.625
0.625
0.625
0.625
0.625
0.625
0.625
0.625
0.625
0.625
0.625
SCALARS volume double 1
LOOKUP_TABLE default
0.000635703
0.00063156
0.000621783
0.0006103
0.000601081
0.000624242
0.000613431
0.000622527
0.000638326
0.000634993
0.000645652
0.00062651
0.000625753
0.00060138
0.000651105
0.000643478
0.000617801
0.000623172
0.00062991
0.000617424
0.0006131
0.000598127
0.000660536
0.000598525
0.000610455
0.000594263
0.000653271
0.00063454
0.000585569
0.00059486
0.000603336
0.000604006
0.00061517
0.00061324
0.000609577
0.000653181
0.000592646
0.000598765
0.00057822
0.00061298
0.000618941
0.000628431
0.000609004
0.000576904
0.000632453
0.000633464
0.000634774
0.000630534
0.000496536
0.00058377
0.000400125
0.00053498
0.000572717
0.000604926
0.000578839
0.000587319
0.000596295
0.000605313
0.00056695
0.000609565
0.000664053
0.000630061
0.000614174
0.000616548
VECTORS momentum double
-0.589119 -0.319748 0 
-0.68422 0.523289 0 
0.0929047 -0.0258326 0 
-0.350211 0.750289 0 
-0.922703 1.08007 0 
-0.649251 0.642039 0 
-0.365161 0.84926 0 
-0.622523 0.825967 0 
-0.382553 0.643908 0 
-0.575572 0.799659 0 
-0.857753 1.08624 0 
-1.0776 1.25564 0 
-0.0963092 0.706108 0 
0.325598 0.786144 0 
-1.10406 1.35457 0 
-0.684032 1.45238 0 
0.0326851 -0.143278 0 
-0.27958 0.948786 0 
-0.0166689 0.172144 0 
-0.0615734 0.790436 0 
0.0701665 0.753739 0 
0.0387322 0.802088 0 
-0.0396594 0.796322 0 
-0.0813692 0.896335 0 
-0.0188178 0.932158 0 
-0.241414 0.901442 0 
0.040331 1.08684 0 
-0.0182693 1.103 0 
-0.627978 0.876737 0 
-0.622756 1.66333 0 
-0.217305 0.945267 0 
-0.301105 1.7585 0 
0.207667 0.29633 0 
0.248726 0.739535 0 
0.777377 0.504412 0 
0.161139 0.933605 0 
0.210405 1.00046 0 
0.1464 1.11618 0 
0.054318 1.15081 0 
-0.020925 1.18425 0 
0.13486 1.23735 0 
0.211985 1.18745 0 
0.184569 1.24313 0 
0.334082 1.1192 0 
0.188961 1.36541 0 
0.149523 2.14247 0 
0.149861 1.62525 0 
-0.0025537 2.18297 0 
-0.0993055 -0.387728 0 
0.371702 0.88744 0 
-0.389167 0.0680972 0 
0.6209 1.34746 0 
0.323165 1.00295 0 
0.362042 1.17818 0 
0.5108 1.39638 0 
0.348923 1.27592 0 
0.338535 1.28509 0 
0.479115 1.22516 0 
0.412035 1.49605 0 
0.794051 1.49414 0 
0.553145 1.74147 0 
0.364671 2.14887 0 
0.827256 1.75151 0 
0.922073 2.31976 0 
VECTORS body_force double
0 -9.81 0 
0 -9.81 0 
0 -9.81 0 
0 -9.81 0 
0 -9.81 0 
0 -9.81 0 
0 -9.81 0 
0 -9.81 0 
0 -9.81 0 
0 -9.81 0 
0 -9.81 0 
0 -9.81 0 
0 -9.81 0 
0 -9.81 0 
0 -9.81 0 
0 -9.81 0 
0 -9.81 0 
0 -9.81 0 
0 -9.81 0 
0 -9.81 0 
0 -9.81 0 
0 -9.81 0 
0 -9.81 0 
0 -9.81 0 
0 -9.81 0 
0 -9.81 0 
0 -9.81 0 
0 -9.81 0 
0 -9.81 0 
0 -9.81 0 
0 -9.81 0 
0 -9.81 0 
0 -9.81 0 
0 -9.81 0 
0 -9.81 0 
0 -9.81 0 
0 -9.81 0 
0 -9.81 0 
0 -9.81 0 
0 -9.81 0 
0 -9.81 0 
0 -9.81 0 
0 -9.81 0 
0 -9.81 0 
0 -9.81 0 
0 -9.81 0 
0 -9.81 0 
0 -9.81 0 
0 -9.81 0 
0 -9.81 0 
0 -9.81 0 
0 -9.81 0 
0 -9.81 0 
0 -9.81 0 
0 -9.81 0 
0 -9.81 0 
0 -9.81 0 
0 -9.81 0 
0 -9.81 0 
0 -9.81 0 
0 -9.81 0 
0 -9.81 0 
0 -9.81 0 
0 -9.81 0 
TENSORS cauchy_stress double
2666.31 -10.8127 0
-10.8127 598.958 0
0 0 0

3331.33 540.898 0
540.898 -1323.33 0
0 0 0

192.544 -1073.97 0
-1073.97 -1184.9 0
0 0 0

-2374.33 739.527 0
739.527 -2202.73 0
0 0 0

-7026.9 1817.66 0
1817.66 -477.461 0
0 0 0

-3241.44 -845.518 0
-845.518 3007.99 0
0 0 0

-3937.47 -3275.98 0
-3275.98 344.436 0
0 0 0

-6982.08 -2112.35 0
-2112.35 6219.57 0
0 0 0

949.394 514.093 0
514.093 3107.72 0
0 0 0

1575.34 -3971.05 0
-3971.05 1475.15 0
0 0 0

-375.986 -1827.17 0
-1827.17 6627.81 0
0 0 0

-4786.34 -3768.9 0
-3768.9 5250.5 0
0 0 0

2502.1 -2322.99 0
-2322.99 -2270.67 0
0 0 0

3124.88 -78.3873 0
-78.3873 -10533.5 0
0 0 0

-400.233 -1495.9 0
-1495.9 8269.33 0
0 0 0

2991.99 -1904.77 0
-1904.77 2610.98 0
0 0 0

-1866.64 3437.52 0
3437.52 -361.345 0
0 0 0

-929.056 4864.81 0
4864.81 365.809 0
0 0 0

360 115.468 0
115.468 1144.73 0
0 0 0

-1747.93 2272.39 0
2272.39 -597.465 0
0 0 0

-3296.92 974.934 0
974.934 -399.804 0
0 0 0

-6084.34 8513.97 0
8513.97 -2367.22 0
0 0 0

3509.92 -3530.04 0
-3530.04 7124.74 0
0 0 0

-8092.24 4112.34 0
4112.34 -231.584 0
0 0 0

-6741.47 942.053 0
942.053 2213.08 0
0 0 0

-8770.87 -5935.65 0
-5935.65 -927.033 0
0 0 0

1087.7 1809.74 0
1809.74 7420.02 0
0 0 0

-692.642 -2065.43 0
-2065.43 3605.84 0
0 0 0

-6998.15 -2627.3 0
-2627.3 -5534.17 0
0 0 0

-3303.36 -4364.47 0
-4364.47 -6201.56 0
0 0 0

-3264.47 3139.85 0
3139.85 -3519.76 0
0 0 0

-4876.26 -1191.61 0
-1191.61 -1694.42 0
0 0 0

-2115.39 1425.46 0
1425.46 -933.16 0
0 0 0

-2365.08 -3127.63 0
-3127.63 -1287.84 0
0 0 0

-544.496 -2367.25 0
-2367.25 -4260.49 0
0 0 0

4778.66 -6096.69 0
-6096.69 3702.64 0
0 0 0

-5428.13 -2015.72 0
-2015.72 -4793.9 0
0 0 0

-7485.91 -909.493 0
-909.493 -760.764 0
0 0 0

-7586.85 -1046.47 0
-1046.47 -7374.16 0
0 0 0

-6428.6 -2854.54 0
-2854.54 2694.12 0
0 0 0

-3990.74 -2826.14 0
-2826.14 2117.43 0
0 0 0

-168.522 -3924.03 0
-3924.03 1221.42 0
0 0 0

-7721.99 -6244.73 0
-6244.73 2735.94 0
0 0 0

-7891.84 896.9 0
896.9 -7507.51 0
0 0 0

-1187.01 742.324 0
742.324 3466.64 0
0 0 0

-234.592 1224.82 0
1224.82 2821.42 0
0 0 0

1250.64 -2504.75 0
-2504.75 1733.33 0
0 0 0

-1760.79 3499.37 0
3499.37 3456.18 0
0 0 0

-28480 -20797.6 0
-20797.6 -15769.1 0
0 0 0

-8931.01 -8124.58 0
-8124.58 -4192.97 0
0 0 0

-56388 -23012.8 0
-23012.8 -29376.4 0
0 0 0

-24407.2 -8826.02 0
-8826.02 -5501.08 0
0 0 0

-10490.8 -6899.41 0
-6899.41 -6309.08 0
0 0 0

-7329.69 -3367.13 0
-3367.13 1051.74 0
0 0 0

-13931.7 -8630.16 0
-8630.16 -823.661 0
0 0 0

-12720.8 -4880.24 0
-4880.24 762.372 0
0 0 0

-9057.77 -952.422 0
-952.422 16.273 0
0 0 0

-7768.6 -1168.45 0
-1168.45 1613.6 0
0 0 0

-16163.7 28.5242 0
28.5242 -2582.72 0
0 0 0

-2947.66 -2406.78 0
-2406.78 -1861.13 0
0 0 0

3658.59 -3668.75 0
-3668.75 7997.15 0
0 0 0

-460.771 3436.35 0
3436.35 2011.63 0
0 0 0

-2885.74 -1217.08 0
-1217.08 -474.366 0
0 0 0

-4206.58 -393.973 0
-393.973 1588.16 0
0 0 0

TENSORS velocity_gradient double
-0.881873 12.678 0
-19.7703 0.650756 0
0 0 0

1.26123 12.1818 0
-14.0139 -0.368434 0
0 0 0

0.261843 9.54717 0
-18.3153 2.0426 0
0 0 0

1.01597 10.8528 0
-14.0556 0.571215 0
0 0 0

1.28774 12.3041 0
-14.0033 -0.319501 0
0 0 0

-0.701667 11.8818 0
-3.91721 0.0835377 0
0 0 0

1.14517 12.185 0
-14.0503 -0.148399 0
0 0 0

1.42065 11.3586 0
-5.29587 0.477563 0
0 0 0

-1.24581 7.96622 0
-3.25886 3.23956 0
0 0 0

-8.8226 -0.267351 0
-2.91883 10.2432 0
0 0 0

0.849948 9.47683 0
-4.86697 1.89177 0
0 0 0

-1.20689 5.14405 0
-5.88544 3.91976 0
0 0 0

-8.88125 -5.8511 0
-2.82635 14.8959 0
0 0 0

-10.6225 -8.45389 0
-2.37942 21.4677 0
0 0 0

-1.80267 -2.30297 0
-5.66918 6.62293 0
0 0 0

-7.04909 -9.55518 0
-6.37624 10.3202 0
0 0 0

2.44202 8.95165 0
-17.295 2.01109 0
0 0 0

-0.106378 9.32456 0
-14.0711 1.76572 0
0 0 0

1.718 8.72397 0
-16.1072 1.88717 0
0 0 0

-1.02126 9.07906 0
-14.1044 1.85491 0
0 0 0

0.0866545 10.6155 0
-14.0696 1.776 0
0 0 0

1.65104 11.8169 0
-6.6735 2.57314 0
0 0 0

-0.957773 10.1283 0
-13.3753 1.86798 0
0 0 0

0.486737 11.949 0
-7.84181 2.70565 0
0 0 0

1.97995 12.9685 0
-6.34346 3.7287 0
0 0 0

4.35018 14.1718 0
-8.57103 5.10707 0
0 0 0

0.747696 13.0689 0
-7.57996 3.82941 0
0 0 0

1.4216 15.555 0
-10.4747 5.44995 0
0 0 0

4.10704 11.9041 0
-8.33784 6.88484 0
0 0 0

-2.18742 0.338382 0
-11.0234 10.4044 0
0 0 0

1.95144 18.5024 0
-10.1586 7.20859 0
0 0 0

-0.698939 18.9629 0
-15.15 10.5264 0
0 0 0

-1.57256 9.3622 0
-15.0745 1.86344 0
0 0 0

0.90899 7.96734 0
-14.2937 2.0312 0
0 0 0

2.485 -3.97351 0
-15.5875 -7.81456 0
0 0 0

2.808 3.9769 0
-14.988 -0.511893 0
0 0 0

-0.30251 5.90643 0
-11.311 2.2917 0
0 0 0

-0.793644 6.6775 0
-8.63721 2.69581 0
0 0 0

-2.39669 5.56019 0
-9.22938 2.18257 0
0 0 0

-2.13324 7.01739 0
-9.10835 2.81534 0
0 0 0

-0.799517 7.94527 0
-9.52043 3.13513 0
0 0 0

-1.28716 9.38477 0
-11.9609 3.56827 0
0 0 0

-2.69759 8.25533 0
-11.482 3.23405 0
0 0 0

-2.76923 9.67177 0
-12.3919 3.65174 0
0 0 0

-0.704017 13.8528 0
-13.0221 5.28696 0
0 0 0

-0.0752716 17.1287 0
-18.9438 8.98715 0
0 0 0

-2.02916 11.1728 0
-15.2177 3.79951 0
0 0 0

-1.29088 12.8284 0
-18.2736 2.29812 0
0 0 0

-2.47498 -4.34255 0
-20.3536 -7.42422 0
0 0 0

-1.39124 0.120834 0
-19.3388 -3.24496 0
0 0 0

-6.21053 -19.6318 0
-21.4993 -18.0799 0
0 0 0

-5.65787 -9.37311 0
-19.2901 -12.6379 0
0 0 0

-3.37296 2.80134 0
-10.8501 -0.135053 0
0 0 0

-3.26135 3.65723 0
-10.5969 1.80676 0
0 0 0

-4.3838 2.08255 0
-13.1269 -0.454618 0
0 0 0

-4.22768 3.8713 0
-12.7893 2.29244 0
0 0 0

-5.1666 5.06456 0
-12.1556 2.64162 0
0 0 0

-4.59321 7.73649 0
-12.4115 1.52158 0
0 0 0

-8.0452 5.62768 0
-10.8179 2.37994 0
0 0 0

-7.49575 8.18102 0
-11.0732 1.19339 0
0 0 0

-3.232 10.358 0
-15.951 1.28148 0
0 0 0

-2.87207 12.4664 0
-16.587 1.33532 0
0 0 0

-3.81068 10.0688 0
-15.3776 0.0767402 0
0 0 0

-3.67211 10.6302 0
-15.5719 -0.710177 0
0 0 0

SCALARS active double 1
LOOKUP_TABLE default
1
1
1
1
1
1
1
1
1
1
1
1
1
1
1
1
1
1
1
1
1
1
1
1
1
1
1
1
1
1
1
1
1
1
1
1
1
1
1
1
1
1
1
1
1
1
1
1
1
1
1
1
1
1
1
1
1
1
1
1
1
1
1
1
SCALARS extent double 1
LOOKUP_TABLE default
0.0125
0.0125
0.0125
0.0125
0.0125
0.0125
0.0125
0.0125
0.0125
0.0125
0.0125
0.0125
0.0125
0.0125
0.0125
0.0125
0.0125
0.0125
0.0125
0.0125
0.0125
0.0125
0.0125
0.0125
0.0125
0.0125
0.0125
0.0125
0.0125
0.0125
0.0125
0.0125
0.0125
0.0125
0.0125
0.0125
0.0125
0.0125
0.0125
0.0125
0.0125
0.0125
0.0125
0.0125
0.0125
0.0125
0.0125
0.0125
0.0125
0.0125
0.0125
0.0125
0.0125
0.0125
0.0125
0.0125
0.0125
0.0125
0.0125
0.0125
0.0125
0.0125
0.0125
0.0125
SCALARS pressure double 1
LOOKUP_TABLE default
-1632.63
-1004
496.177
2288.53
3752.18
116.725
1796.52
381.255
-2028.56
-1525.24
-3125.91
-232.079
-115.715
3704.3
-3934.55
-2801.49
1113.99
281.624
-752.366
1172.7
1848.36
4225.78
-5317.33
4161.91
2264.19
4848.95
-4253.86
-1456.6
6266.16
4752.46
3392.12
3285.34
1524.27
1826.46
2402.49
-4240.65
5111.01
4123.34
7480.5
1867.24
936.654
-526.449
2493.02
7699.67
-1139.82
-1293.41
-1491.98
-847.696
22124.5
6561.99
42882.2
14954.1
8399.96
3138.98
7377.67
5979.21
4520.75
3077.5
9373.2
2404.4
-5827.87
-775.428
1680.05
1309.21
SCALARS density double 1
LOOKUP_TABLE default
983.164
989.613
1005.17
1024.09
1039.79
1001.21
1018.86
1003.97
979.124
984.263
968.013
997.589
998.797
1039.28
959.907
971.285
1011.65
1002.93
992.206
1012.27
1019.41
1044.93
946.201
1044.23
1023.83
1051.72
956.724
984.966
1067.34
1050.67
1035.91
1034.76
1015.98
1019.18
1025.3
956.856
1054.59
1043.82
1080.9
1019.61
1009.79
994.54
1026.27
1083.37
988.216
986.639
984.603
991.223
1258.72
1070.63
1562.01
1168.27
1091.29
1033.18
1079.75
1064.16
1048.14
1032.52
1102.39
1025.32
941.19
991.968
1017.63
1013.71
