# vtk DataFile Version 3.0
Frame: 32, Time: 0.544
ASCII
DATASET UNSTRUCTURED_GRID
POINTS 64 double
0.716919 0.0326674 0 
0.683536 0.0360165 0 
0.710643 0.0515543 0 
0.685913 0.0564438 0 
0.650593 0.0426638 0 
0.622433 0.0498372 0 
0.660137 0.0630438 0 
0.635034 0.0719721 0 
0.596755 0.0614697 0 
0.573011 0.0750066 0 
0.611357 0.083244 0 
0.588371 0.0963023 0 
0.552069 0.0880996 0 
0.529579 0.100722 0 
0.56649 0.109923 0 
0.543277 0.121981 0 
0.717079 0.0716613 0 
0.692053 0.0788212 0 
0.730742 0.0857721 0 
0.705862 0.0978108 0 
0.668275 0.0857406 0 
0.644931 0.0946774 0 
0.681415 0.107523 0 
0.657337 0.115955 0 
0.62257 0.105983 0 
0.60109 0.116876 0 
0.636478 0.127528 0 
0.614322 0.139307 0 
0.579135 0.12972 0 
0.55718 0.143374 0 
0.59151 0.151041 0 
0.571484 0.165029 0 
0.743187 0.103964 0 
0.719183 0.116969 0 
0.758027 0.123076 0 
0.733444 0.136759 0 
0.695915 0.127384 0 
0.671382 0.136724 0 
0.708526 0.146766 0 
0.684424 0.157963 0 
0.649114 0.149704 0 
0.627797 0.161947 0 
0.662937 0.170401 0 
0.641445 0.182337 0 
0.605481 0.173471 0 
0.585363 0.187683 0 
0.620151 0.195028 0 
0.59999 0.209207 0 
0.76941 0.142786 0 
0.745264 0.156193 0 
0.782006 0.165327 0 
0.758082 0.177348 0 
0.722789 0.167605 0 
0.700425 0.179015 0 
0.736278 0.189044 0 
0.713246 0.199735 0 
0.679001 0.190874 0 
0.656384 0.202823 0 
0.691672 0.211868 0 
0.670871 0.224069 0 
0.634919 0.21639 0 
0.613713 0.230146 0 
0.649368 0.237726 0 
0.627934 0.251068 0 
CELLS 64 128
1 0
1 1
1 2
1 3
1 4
1 5
1 6
1 7
1 8
1 9
1 10
1 11
1 12
1 13
1 14
1 15
1 16
1 17
1 18
1 19
1 20
1 21
1 22
1 23
1 24
1 25
1 26
1 27
1 28
1 29
1 30
1 31
1 32
1 33
1 34
1 35
1 36
1 37
1 38
1 39
1 40
1 41
1 42
1 43
1 44
1 45
1 46
1 47
1 48
1 49
1 50
1 51
1 52
1 53
1 54
1 55
1 56
1 57
1 58
1 59
1 60
1 61
1 62
1 63
CELL_TYPES 64
1
1
1
1
1
1
1
1
1
1
1
1
1
1
1
1
1
1
1
1
1
1
1
1
1
1
1
1
1
1
1
1
1
1
1
1
1
1
1
1
1
1
1
1
1
1
1
1
1
1
1
1
1
1
1
1
1
1
1
1
1
1
1
1
POINT_DATA 64
VECTORS displacement double
0.104419 -0.279833 0 
0.0710356 -0.301483 0 
0.073143 -0.260946 0 
0.0484126 -0.281056 0 
0.0380932 -0.319836 0 
0.00993272 -0.337663 0 
0.0226366 -0.299456 0 
-0.00246563 -0.315528 0 
-0.0157451 -0.35103 0 
-0.039489 -0.362493 0 
-0.0261428 -0.329256 0 
-0.0491289 -0.341198 0 
-0.0604312 -0.3744 0 
-0.0829214 -0.386778 0 
-0.0710101 -0.352577 0 
-0.0942231 -0.365519 0 
0.0545792 -0.240839 0 
0.0295531 -0.258679 0 
0.0432417 -0.226728 0 
0.0183618 -0.239689 0 
0.00577478 -0.276759 0 
-0.0175689 -0.292823 0 
-0.00608538 -0.254977 0 
-0.030163 -0.271545 0 
-0.0399296 -0.306517 0 
-0.0614099 -0.320624 0 
-0.0510224 -0.284972 0 
-0.0731779 -0.298193 0 
-0.0833655 -0.33278 0 
-0.10532 -0.344126 0 
-0.09599 -0.311459 0 
-0.116016 -0.322471 0 
0.0306868 -0.208536 0 
0.00668337 -0.220531 0 
0.0205268 -0.189424 0 
-0.00405627 -0.200741 0 
-0.0165848 -0.235116 0 
-0.0411175 -0.250776 0 
-0.0289735 -0.215734 0 
-0.0530761 -0.229537 0 
-0.0633858 -0.262796 0 
-0.0847028 -0.275553 0 
-0.0745627 -0.242099 0 
-0.0960546 -0.255163 0 
-0.107019 -0.289029 0 
-0.127137 -0.299817 0 
-0.117349 -0.267472 0 
-0.13751 -0.278293 0 
0.00691029 -0.169714 0 
-0.0172358 -0.181307 0 
-0.00549441 -0.147173 0 
-0.029418 -0.160152 0 
-0.0397105 -0.194895 0 
-0.0620746 -0.208485 0 
-0.0512223 -0.173456 0 
-0.0742536 -0.187765 0 
-0.0834991 -0.221626 0 
-0.106116 -0.234677 0 
-0.0958279 -0.200632 0 
-0.116629 -0.213431 0 
-0.127581 -0.24611 0 
-0.148787 -0.257354 0 
-0.138132 -0.224774 0 
-0.159566 -0.236432 0 
VECTORS velocity double
-0.913784 -0.0215396 0 
-0.437631 -0.135166 0 
-0.407792 0.496989 0 
-0.370962 0.0712211 0 
-0.468391 0.669408 0 
-0.501822 0.544832 0 
-0.179192 0.0189936 0 
-0.469748 0.250829 0 
-0.528636 -0.0842469 0 
-0.698256 -0.477006 0 
-0.544473 -0.0166933 0 
-1.05574 -0.162981 0 
-0.751879 -0.559546 0 
-1.06467 -0.307466 0 
-1.41753 0.110552 0 
-1.37234 -0.703812 0 
-0.511826 0.0482944 0 
-0.851705 0.236044 0 
-0.828013 0.298672 0 
-0.580792 0.48945 0 
-0.630288 0.183622 0 
-0.774631 0.239863 0 
-0.824112 0.159813 0 
-1.15692 0.0320925 0 
-0.923152 0.150694 0 
-1.10195 0.0333574 0 
-1.34102 0.0327837 0 
-1.56637 0.090619 0 
-1.26451 -0.132362 0 
-1.40827 -0.637093 0 
-1.43909 -0.111142 0 
-1.87045 -0.479763 0 
-0.941518 -0.00413606 0 
-0.120108 0.528542 0 
-0.632802 0.473398 0 
-0.452568 0.191312 0 
-0.543342 -0.0104773 0 
-0.788315 -0.233287 0 
-1.11694 0.024939 0 
-1.51661 0.127084 0 
-1.02638 -0.0711972 0 
-1.25396 -0.243839 0 
-1.36054 0.0410963 0 
-1.35578 -0.431136 0 
-1.45579 -0.0617758 0 
-1.51901 -0.39066 0 
-1.84274 -0.276885 0 
-1.74239 -0.237567 0 
-0.828058 -0.0755924 0 
-1.0789 0.091396 0 
-0.926821 0.184959 0 
-1.05993 0.096225 0 
-1.08784 0.0948917 0 
-1.20251 0.0955501 0 
-1.37648 0.227816 0 
-1.4814 -0.227172 0 
-1.4854 -0.286883 0 
-1.51948 -0.288241 0 
-1.55229 0.0256727 0 
-2.16101 -0.123741 0 
-1.56973 -0.136341 0 
-1.95092 -0.258735 0 
-2.18757 -0.366028 0 
-1.73848 -0.251599 0 
SCALARS mass double 1
LOOKUP_TABLE default
0.625
0.625
0.625
0.625
0.625
0.625
0.625
0.625
0.625
0.625
0.625
0.625
0.625
0.625
0.625
0.625
0.625
0.625
0.625
0.625
0.625
0.625
0.625
0.625
0.625
0.625
0.625
0.625
0.625
0.625
0.625
0.625
0.625
0.625
0.625
0.625
0.625
0.625
0.625
0.625
0.625
0.625
0.625
0.625
0.625
0.625
0.625
0.625
0.625
0.625
0.625
0.625
0.625
0.625
0.625
0.625
0.625
0.625
0.625
0.625
0.625
0.625
0.625
0.625
SCALARS volume double 1
LOOKUP_TABLE default
0.000449885
0.000510708
0.000549594
0.000598286
0.000571734
0.000624959
0.000610648
0.000636437
0.000634678
0.000619357
0.000646463
0.00064156
0.000654405
0.000618668
0.000631421
0.00063989
0.00049188
0.000564605
0.000554004
0.000602026
0.00057282
0.000594641
0.000635111
0.000592423
0.000616383
0.000632901
0.000630389
0.000652584
0.000593994
0.000626396
0.000626946
0.000646515
0.000580797
0.000599075
0.000595465
0.000614566
0.000584237
0.000603439
0.000605986
0.000651719
0.000640564
0.000615509
0.0006207
0.000599206
0.000622702
0.000630486
0.000630555
0.000639088
0.000604637
0.00060427
0.000635505
0.000620526
0.000633191
0.000625241
0.000620179
0.000614514
0.000600272
0.000630474
0.000622351
0.000612715
0.000616585
0.000635066
0.000616561
0.000617968
VECTORS momentum double
-0.571115 -0.0134622 0 
-0.27352 -0.0844787 0 
-0.25487 0.310618 0 
-0.231851 0.0445132 0 
-0.292745 0.41838 0 
-0.313638 0.34052 0 
-0.111995 0.011871 0 
-0.293592 0.156768 0 
-0.330397 -0.0526543 0 
-0.43641 -0.298129 0 
-0.340295 -0.0104333 0 
-0.659835 -0.101863 0 
-0.469924 -0.349716 0 
-0.665421 -0.192166 0 
-0.885958 0.0690952 0 
-0.857712 -0.439883 0 
-0.319891 0.030184 0 
-0.532316 0.147527 0 
-0.517508 0.18667 0 
-0.362995 0.305906 0 
-0.39393 0.114764 0 
-0.484145 0.149914 0 
-0.51507 0.0998831 0 
-0.723078 0.0200578 0 
-0.57697 0.094184 0 
-0.688716 0.0208484 0 
-0.838137 0.0204898 0 
-0.978982 0.0566369 0 
-0.790316 -0.082726 0 
-0.880166 -0.398183 0 
-0.899434 -0.0694638 0 
-1.16903 -0.299852 0 
-0.588449 -0.00258504 0 
-0.0750676 0.330339 0 
-0.395501 0.295874 0 
-0.282855 0.11957 0 
-0.339589 -0.00654831 0 
-0.492697 -0.145804 0 
-0.698088 0.0155869 0 
-0.94788 0.0794275 0 
-0.641489 -0.0444982 0 
-0.783725 -0.152399 0 
-0.850337 0.0256852 0 
-0.847363 -0.26946 0 
-0.909866 -0.0386099 0 
-0.949384 -0.244162 0 
-1.15171 -0.173053 0 
-1.089 -0.148479 0 
-0.517536 -0.0472453 0 
-0.674311 0.0571225 0 
-0.579263 0.115599 0 
-0.662456 0.0601406 0 
-0.679901 0.0593073 0 
-0.751568 0.0597188 0 
-0.860299 0.142385 0 
-0.925878 -0.141983 0 
-0.928374 -0.179302 0 
-0.949677 -0.18015 0 
-0.97018 0.0160454 0 
-1.35063 -0.0773381 0 
-0.98108 -0.0852132 0 
-1.21933 -0.161709 0 
-1.36723 -0.228767 0 
-1.08655 -0.157249 0 
VECTORS body_force double
0 -9.81 0 
0 -9.81 0 
0 -9.81 0 
0 -9.81 0 
0 -9.81 0 
0 -9.81 0 
0 -9.81 0 
0 -9.81 0 
0 -9.81 0 
0 -9.81 0 
0 -9.81 0 
0 -9.81 0 
0 -9.81 0 
0 -9.81 0 
0 -9.81 0 
0 -9.81 0 
0 -9.81 0 
0 -9.81 0 
0 -9.81 0 
0 -9.81 0 
0 -9.81 0 
0 -9.81 0 
0 -9.81 0 
0 -9.81 0 
0 -9.81 0 
0 -9.81 0 
0 -9.81 0 
0 -9.81 0 
0 -9.81 0 
0 -9.81 0 
0 -9.81 0 
0 -9.81 0 
0 -9.81 0 
0 -9.81 0 
0 -9.81 0 
0 -9.81 0 
0 -9.81 0 
0 -9.81 0 
0 -9.81 0 
0 -9.81 0 
0 -9.81 0 
0 -9.81 0 
0 -9.81 0 
0 -9.81 0 
0 -9.81 0 
0 -9.81 0 
0 -9.81 0 
0 -9.81 0 
0 -9.81 0 
0 -9.81 0 
0 -9.81 0 
0 -9.81 0 
0 -9.81 0 
0 -9.81 0 
0 -9.81 0 
0 -9.81 0 
0 -9.81 0 
0 -9.81 0 
0 -9.81 0 
0 -9.81 0 
0 -9.81 0 
0 -9.81 0 
0 -9.81 0 
0 -9.81 0 
TENSORS cauchy_stress double
10297.2 -13948.2 0
-13948.2 -73520.4 0
0 0 0

8832.5 -13345.3 0
-13345.3 -47669.6 0
0 0 0

-8239.32 -3435.68 0
-3435.68 -16486 0
0 0 0

-2257.28 1097.96 0
1097.96 -6143.14 0
0 0 0

9831.39 -7436.19 0
-7436.19 -26961.8 0
0 0 0

11653.3 -891.9 0
-891.9 -11665.8 0
0 0 0

-1217.61 -1771.67 0
-1771.67 -3249.81 0
0 0 0

2028.22 -982.655 0
-982.655 1459.1 0
0 0 0

5627.7 -427.369 0
-427.369 -2672.81 0
0 0 0

679.172 139.169 0
139.169 -2423.32 0
0 0 0

2687.09 -873.787 0
-873.787 3805.97 0
0 0 0

4872.16 -3.31118 0
-3.31118 156.782 0
0 0 0

3083.16 826.402 0
826.402 5758.07 0
0 0 0

68.6406 -1494.4 0
-1494.4 -2026.99 0
0 0 0

1081.4 -1443.8 0
-1443.8 884.209 0
0 0 0

1007.31 1870.8 0
1870.8 3520.63 0
0 0 0

-10376.2 -6854.43 0
-6854.43 -35684.8 0
0 0 0

-208.029 -2283.36 0
-2283.36 -19335.3 0
0 0 0

-1945.5 -8663.96 0
-8663.96 -21242.8 0
0 0 0

5292.67 822.844 0
822.844 -12494.9 0
0 0 0

-7046.04 4209.1 0
4209.1 -9719.36 0
0 0 0

-1383.32 2262.19 0
2262.19 -8192.34 0
0 0 0

7202.3 4775.3 0
4775.3 -4116.12 0
0 0 0

-1340.09 5905.06 0
5905.06 -8954.39 0
0 0 0

-3493.48 1759.84 0
1759.84 823.744 0
0 0 0

1767.21 733.19 0
733.19 648.678 0
0 0 0

3410.18 2839.94 0
2839.94 -1759 0
0 0 0

3108.78 1451.37 0
1451.37 5196.68 0
0 0 0

-4957.47 -1794.54 0
-1794.54 -4827.77 0
0 0 0

600.069 1168.97 0
1168.97 -171.019 0
0 0 0

1876.62 1325.63 0
1325.63 -1278.83 0
0 0 0

1812.74 2803.92 0
2803.92 4695.78 0
0 0 0

-4095.82 -6080.27 0
-6080.27 -10009.9 0
0 0 0

1403.69 1408.38 0
1408.38 -9550.92 0
0 0 0

-409.575 -4420.87 0
-4420.87 -8899.85 0
0 0 0

6133.94 -2837.2 0
-2837.2 -9371.62 0
0 0 0

2484.16 1019.08 0
1019.08 -15454.3 0
0 0 0

970.094 -91.9548 0
-91.9548 -7721.5 0
0 0 0

5174.92 2851.08 0
2851.08 -11116.1 0
0 0 0

9848.61 4582.46 0
4582.46 -1798.38 0
0 0 0

1319.76 2110.79 0
2110.79 3410.38 0
0 0 0

-2817.66 698.548 0
698.548 -125.185 0
0 0 0

337.815 4688.66 0
4688.66 -1665.33 0
0 0 0

2977.76 3524.22 0
3524.22 -11082.8 0
0 0 0

-1966.87 2618.41 0
2618.41 1258.6 0
0 0 0

210.3 267.137 0
267.137 1470.22 0
0 0 0

872.682 3074.65 0
3074.65 828.993 0
0 0 0

4368.27 3420.93 0
3420.93 -81.5333 0
0 0 0

-1995.38 -1359.9 0
-1359.9 -4374.57 0
0 0 0

848.597 -2402.16 0
-2402.16 -7335.14 0
0 0 0

2277.3 -849.214 0
-849.214 928.132 0
0 0 0

3015.76 1831.88 0
1831.88 -4397.3 0
0 0 0

773.398 4567.72 0
4567.72 1730.4 0
0 0 0

4328.63 2302.15 0
2302.15 -4254.56 0
0 0 0

2120.41 1886.19 0
1886.19 -3609.41 0
0 0 0

1723.62 2850.6 0
2850.6 -4977.46 0
0 0 0

-3549 -941.314 0
-941.314 -4214.09 0
0 0 0

1966.37 -405.58 0
-405.58 -289.372 0
0 0 0

-47.0736 2495.24 0
2495.24 -769.605 0
0 0 0

-877.278 1765.03 0
1765.03 -2940.43 0
0 0 0

-3712.17 1150.39 0
1150.39 1105.25 0
0 0 0

2431.99 -1970.36 0
-1970.36 640.415 0
0 0 0

866.602 2030.13 0
2030.13 -3480.93 0
0 0 0

-1687.48 484.666 0
484.666 -488.454 0
0 0 0

TENSORS velocity_gradient double
-1.02722 -11.8127 0
2.74633 3.91067 0
0 0 0

-1.5481 -10.5725 0
-2.86396 3.73409 0
0 0 0

-1.54067 -5.13777 0
3.7482 1.82122 0
0 0 0

-1.34005 -2.66461 0
-3.32639 0.166185 0
0 0 0

-0.678128 -9.32167 0
0.19627 5.83435 0
0 0 0

1.14164 -9.22892 0
5.46993 0.657391 0
0 0 0

-0.488388 -6.02522 0
-2.63395 -2.56614 0
0 0 0

2.11724 -8.10822 0
4.76177 -2.86007 0
0 0 0

2.23615 -9.68189 0
6.78328 -0.894212 0
0 0 0

2.31746 -9.49849 0
7.42631 -0.886384 0
0 0 0

2.66562 -9.23963 0
4.09317 -1.48062 0
0 0 0

2.04763 -9.34987 0
7.48857 -1.08156 0
0 0 0

1.92366 -8.99427 0
5.62785 -0.879923 0
0 0 0

-0.678057 -5.45917 0
-0.394239 -0.415395 0
0 0 0

1.83724 -7.71353 0
7.32313 -1.60984 0
0 0 0

-3.05119 -6.71741 0
-0.46947 -1.11288 0
0 0 0

-1.79741 -1.08003 0
2.72231 0.366382 0
0 0 0

1.5783 -1.85737 0
-0.953651 0.8225 0
0 0 0

-1.94116 -1.21992 0
1.73943 -0.590151 0
0 0 0

-1.85176 -2.9299 0
1.02981 0.132319 0
0 0 0

2.47917 -4.94877 0
-0.2212 -1.69094 0
0 0 0

3.26167 -7.53921 0
3.00114 -3.35556 0
0 0 0

4.27468 -7.75728 0
1.68654 -3.04489 0
0 0 0

4.17274 -7.47082 0
2.12111 -4.26608 0
0 0 0

3.57443 -7.86092 0
2.82486 -3.39015 0
0 0 0

3.11237 -8.14814 0
3.87271 -2.45452 0
0 0 0

3.96117 -7.59226 0
1.78992 -4.09174 0
0 0 0

4.17096 -7.98115 0
1.22266 -3.04024 0
0 0 0

1.50582 -7.92805 0
6.90551 -1.88016 0
0 0 0

1.27357 -7.5568 0
6.61285 -1.41746 0
0 0 0

1.07286 -6.25616 0
6.3606 -2.13437 0
0 0 0

0.600172 -4.25114 0
5.76704 -1.20008 0
0 0 0

-1.58303 -3.13591 0
0.774006 -2.0191 0
0 0 0

-0.411635 -5.97958 0
0.715715 -2.15067 0
0 0 0

-1.12757 -2.64352 0
-0.944236 -1.66039 0
0 0 0

1.5687 -4.54534 0
0.698833 -2.1629 0
0 0 0

3.21737 -7.76387 0
2.2218 -2.37733 0
0 0 0

3.92341 -7.64028 0
3.18403 -3.54366 0
0 0 0

2.45392 -7.4578 0
0.773057 -2.27937 0
0 0 0

3.6627 -8.88166 0
3.81639 -3.17927 0
0 0 0

3.92835 -7.85887 0
2.33058 -3.69122 0
0 0 0

3.59023 -7.10517 0
0.591753 -2.75405 0
0 0 0

3.50278 -8.61038 0
3.74138 -3.05202 0
0 0 0

2.29135 -7.97964 0
0.382925 -2.89464 0
0 0 0

2.85523 -5.69638 0
0.473584 -2.52755 0
0 0 0

-0.237725 -4.76904 0
4.71526 -1.85019 0
0 0 0

1.48744 -6.37368 0
0.26822 -2.36968 0
0 0 0

-0.445499 -3.06877 0
0.59126 0.426725 0
0 0 0

-0.383534 -2.21234 0
0.210723 -0.991074 0
0 0 0

2.49649 -8.07449 0
0.914014 -0.80383 0
0 0 0

1.09415 -5.54415 0
0.115629 -1.6008 0
0 0 0

2.04426 -7.424 0
-0.300752 -0.77697 0
0 0 0

3.22865 -8.62654 0
1.67068 -1.92596 0
0 0 0

3.4233 -8.96358 0
2.81696 -3.02923 0
0 0 0

3.62293 -8.37602 0
2.87359 -1.16163 0
0 0 0

3.48688 -10.0787 0
3.56485 -0.872378 0
0 0 0

3.24199 -8.81654 0
3.61905 -3.14873 0
0 0 0

2.77412 -7.1912 0
3.5222 -0.728492 0
0 0 0

2.16473 -9.56518 0
3.4297 -0.3365 0
0 0 0

1.17739 -7.90324 0
3.29072 -0.102557 0
0 0 0

0.235713 -5.32502 0
0.371902 0.0190319 0
0 0 0

-0.546798 -4.12313 0
0.510418 -0.19372 0
0 0 0

-0.349308 -6.24147 0
2.10818 0.0858679 0
0 0 0

-1.20156 -0.509467 0
0.569157 0.492255 0
0 0 0

SCALARS active double 1
LOOKUP_TABLE default
1
1
1
1
1
1
1
1
1
1
1
1
1
1
1
1
1
1
1
1
1
1
1
1
1
1
1
1
1
1
1
1
1
1
1
1
1
1
1
1
1
1
1
1
1
1
1
1
1
1
1
1
1
1
1
1
1
1
1
1
1
1
1
1
SCALARS extent double 1
LOOKUP_TABLE default
0.0125
0.0125
0.0125
0.0125
0.0125
0.0125
0.0125
0.0125
0.0125
0.0125
0.0125
0.0125
0.0125
0.0125
0.0125
0.0125
0.0125
0.0125
0.0125
0.0125
0.0125
0.0125
0.0125
0.0125
0.0125
0.0125
0.0125
0.0125
0.0125
0.0125
0.0125
0.0125
0.0125
0.0125
0.0125
0.0125
0.0125
0.0125
0.0125
0.0125
0.0125
0.0125
0.0125
0.0125
0.0125
0.0125
0.0125
0.0125
0.0125
0.0125
0.0125
0.0125
0.0125
0.0125
0.0125
0.0125
0.0125
0.0125
0.0125
0.0125
0.0125
0.0125
0.0125
0.0125
SCALARS pressure double 1
LOOKUP_TABLE default
31611.6
19418.6
12362.6
4200.21
8565.21
6.24282
2233.71
-1743.66
-1477.45
872.076
-3246.53
-2514.47
-4420.61
979.176
-982.805
-2263.97
23030.5
9771.68
11594.1
3601.1
8382.7
4787.83
-1543.09
5147.24
1334.87
-1207.94
-825.591
-4152.73
4892.62
-214.525
-298.895
-3254.26
7052.85
4073.62
4654.71
1618.84
6485.08
3375.7
2970.6
-4025.11
-2365.07
1471.42
663.757
4052.51
354.134
-840.259
-850.837
-2143.37
3184.98
3243.27
-1602.72
690.77
-1251.9
-37.0322
744.499
1626.92
3881.54
-838.501
408.339
1908.86
1303.46
-1536.2
1307.16
1087.96
SCALARS density double 1
LOOKUP_TABLE default
1389.25
1223.79
1137.2
1044.65
1093.17
1000.06
1023.5
982.029
984.752
1009.11
966.8
974.188
955.066
1010.24
989.831
976.73
1270.63
1106.97
1128.15
1038.16
1091.09
1051.05
984.08
1054.99
1013.98
987.516
991.451
957.731
1052.2
997.771
996.896
966.722
1076.11
1043.28
1049.6
1016.98
1069.77
1035.73
1031.38
959.003
975.703
1015.42
1006.93
1043.05
1003.69
991.299
991.19
977.956
1033.68
1034.31
983.47
1007.21
987.065
999.615
1007.77
1017.06
1041.19
991.318
1004.26
1020.05
1013.65
984.15
1013.69
1011.38
