# vtk DataFile Version 3.0
Frame: 40, Time: 0.68
ASCII
DATASET UNSTRUCTURED_GRID
POINTS 64 double
0.149001 0.446398 0 
0.162394 0.425612 0 
0.127644 0.433585 0 
0.141696 0.412885 0 
0.17545 0.404051 0 
0.190256 0.382473 0 
0.154416 0.390745 0 
0.168271 0.369553 0 
0.201826 0.360847 0 
0.214961 0.33869 0 
0.180755 0.347515 0 
0.194347 0.325583 0 
0.228471 0.317865 0 
0.241543 0.294941 0 
0.20717 0.304646 0 
0.221657 0.282295 0 
0.106287 0.421461 0 
0.119401 0.399171 0 
0.0849639 0.407935 0 
0.0985823 0.386446 0 
0.132571 0.377697 0 
0.145745 0.355867 0 
0.111368 0.364278 0 
0.12466 0.343095 0 
0.158248 0.335096 0 
0.171929 0.313771 0 
0.136901 0.320903 0 
0.150322 0.299803 0 
0.184339 0.29207 0 
0.197763 0.269844 0 
0.163679 0.27755 0 
0.176841 0.25776 0 
0.0632214 0.394687 0 
0.0768587 0.373163 0 
0.042087 0.381462 0 
0.0551421 0.359726 0 
0.089544 0.351219 0 
0.102999 0.329684 0 
0.0677674 0.338707 0 
0.0813364 0.316748 0 
0.115892 0.308833 0 
0.128827 0.287417 0 
0.0948515 0.295578 0 
0.107378 0.27406 0 
0.142059 0.265676 0 
0.155845 0.245647 0 
0.121112 0.251775 0 
0.134787 0.231421 0 
0.0198437 0.368663 0 
0.0339426 0.347504 0 
0.998475 0.355687 0 
0.012496 0.333457 0 
0.046288 0.325504 0 
0.0603922 0.303659 0 
0.0245197 0.311308 0 
0.0393731 0.290429 0 
0.0731795 0.28236 0 
0.0861169 0.261581 0 
0.0512832 0.269209 0 
0.0640121 0.24758 0 
0.0995457 0.239239 0 
0.114232 0.218006 0 
0.0769256 0.22578 0 
0.0914516 0.205524 0 
CELLS 64 128
1 0
1 1
1 2
1 3
1 4
1 5
1 6
1 7
1 8
1 9
1 10
1 11
1 12
1 13
1 14
1 15
1 16
1 17
1 18
1 19
1 20
1 21
1 22
1 23
1 24
1 25
1 26
1 27
1 28
1 29
1 30
1 31
1 32
1 33
1 34
1 35
1 36
1 37
1 38
1 39
1 40
1 41
1 42
1 43
1 44
1 45
1 46
1 47
1 48
1 49
1 50
1 51
1 52
1 53
1 54
1 55
1 56
1 57
1 58
1 59
1 60
1 61
1 62
1 63
CELL_TYPES 64
1
1
1
1
1
1
1
1
1
1
1
1
1
1
1
1
1
1
1
1
1
1
1
1
1
1
1
1
1
1
1
1
1
1
1
1
1
1
1
1
1
1
1
1
1
1
1
1
1
1
1
1
1
1
1
1
1
1
1
1
1
1
1
1
POINT_DATA 64
VECTORS displacement double
-0.0634991 0.233898 0 
-0.050106 0.188112 0 
-0.109856 0.221085 0 
-0.0958037 0.175385 0 
-0.0370503 0.141551 0 
-0.0222439 0.0949727 0 
-0.0830842 0.128245 0 
-0.0692294 0.0820534 0 
-0.010674 0.0483474 0 
0.00246109 0.00118985 0 
-0.0567452 0.0350151 0 
-0.0431527 -0.0119166 0 
0.0159712 -0.0446352 0 
0.0290432 -0.0925589 0 
-0.03033 -0.0578543 0 
-0.015843 -0.105205 0 
-0.156213 0.208961 0 
-0.143099 0.161671 0 
-0.202536 0.195435 0 
-0.188918 0.148946 0 
-0.129929 0.115197 0 
-0.116755 0.0683673 0 
-0.176132 0.101778 0 
-0.16284 0.055595 0 
-0.104252 0.0225959 0 
-0.0905706 -0.0237287 0 
-0.150599 0.00840293 0 
-0.137178 -0.0376968 0 
-0.0781615 -0.07043 0 
-0.0647369 -0.117656 0 
-0.123821 -0.0849498 0 
-0.110659 -0.12974 0 
-0.249279 0.182187 0 
-0.235641 0.135663 0 
-0.295413 0.168962 0 
-0.282358 0.122226 0 
-0.222956 0.0887186 0 
-0.209501 0.0421844 0 
-0.269733 0.0762073 0 
-0.256164 0.0292483 0 
-0.196608 -0.00366693 0 
-0.183673 -0.0500835 0 
-0.242648 -0.0169218 0 
-0.230122 -0.0634401 0 
-0.170441 -0.0968239 0 
-0.156655 -0.141853 0 
-0.216388 -0.110725 0 
-0.202713 -0.156079 0 
-0.342656 0.156163 0 
-0.328557 0.110004 0 
-0.389025 0.143187 0 
-0.375004 0.095957 0 
-0.316212 0.0630045 0 
-0.302108 0.0161593 0 
-0.36298 0.048808 0 
-0.348127 0.00292865 0 
-0.289321 -0.03014 0 
-0.276383 -0.0759186 0 
-0.336217 -0.043291 0 
-0.323488 -0.0899199 0 
-0.262954 -0.123261 0 
-0.248268 -0.169494 0 
-0.310574 -0.13672 0 
-0.296048 -0.181976 0 
VECTORS velocity double
-0.269019 -1.171 0 
-0.0961729 -1.22664 0 
-0.224868 -1.44205 0 
0.161649 -1.32035 0 
-0.107331 -0.810061 0 
0.226556 -1.30103 0 
0.134835 -1.48795 0 
0.135121 -1.25205 0 
-0.0071643 -0.640341 0 
0.139339 -1.00861 0 
0.378745 -1.14249 0 
0.36167 -1.28613 0 
0.235456 -0.489588 0 
0.589273 -0.49503 0 
0.454881 -1.09106 0 
0.823415 -0.884228 0 
-0.0433008 -1.48592 0 
0.478702 -1.35804 0 
-0.175771 -1.724 0 
0.156518 -1.64508 0 
0.058306 -1.32655 0 
0.206686 -1.30811 0 
-0.0421881 -1.47883 0 
0.219971 -1.24347 0 
0.322572 -1.31746 0 
0.378716 -1.76971 0 
0.453975 -0.823985 0 
0.36345 -1.32098 0 
0.57151 -1.07396 0 
0.893973 -0.93078 0 
0.525596 -1.22138 0 
0.710212 -1.05175 0 
0.105713 -1.57324 0 
0.390108 -1.53175 0 
0.0383733 -1.93088 0 
0.299794 -1.58097 0 
0.341656 -1.67975 0 
0.438172 -1.64708 0 
0.141826 -1.60852 0 
0.384553 -1.56843 0 
0.482513 -1.14986 0 
0.610489 -1.49138 0 
0.513278 -1.37239 0 
0.613937 -1.50946 0 
0.89711 -1.50051 0 
0.724266 -1.17301 0 
0.673468 -1.58696 0 
0.710506 -1.32014 0 
-0.0250294 -1.7136 0 
0.414073 -1.71869 0 
0.231073 -2.1473 0 
0.468848 -1.91553 0 
0.110275 -1.62294 0 
0.47399 -1.61888 0 
0.421903 -2.01575 0 
0.651513 -1.90623 0 
0.562829 -1.40459 0 
0.504809 -1.29826 0 
0.704513 -1.75462 0 
0.781469 -1.74747 0 
0.665088 -1.27414 0 
0.915312 -1.57148 0 
0.878734 -1.63061 0 
1.0146 -1.40666 0 
SCALARS mass double 1
LOOKUP_TABLE default
0.625
0.625
0.625
0.625
0.625
0.625
0.625
0.625
0.625
0.625
0.625
0.625
0.625
0.625
0.625
0.625
0.625
0.625
0.625
0.625
0.625
0.625
0.625
0.625
0.625
0.625
0.625
0.625
0.625
0.625
0.625
0.625
0.625
0.625
0.625
0.625
0.625
0.625
0.625
0.625
0.625
0.625
0.625
0.625
0.625
0.625
0.625
0.625
0.625
0.625
0.625
0.625
0.625
0.625
0.625
0.625
0.625
0.625
0.625
0.625
0.625
0.625
0.625
0.625
SCALARS volume double 1
LOOKUP_TABLE default
0.000627833
0.00061764
0.000623286
0.000622914
0.000626344
0.000630552
0.00063649
0.000607337
0.000628147
0.00062165
0.000641235
0.00061777
0.000621809
0.000618715
0.000635205
0.000622643
0.000637747
0.000613344
0.000628053
0.000638728
0.000630382
0.000630842
0.000622945
0.000616824
0.000625337
0.000612958
0.000615097
0.000639764
0.000624309
0.000624376
0.00063082
0.000619543
0.000624901
0.000629953
0.000626639
0.000618559
0.000613161
0.000629677
0.000632296
0.000616099
0.000622919
0.000617181
0.000632726
0.000628638
0.000617202
0.000628449
0.000630761
0.000624577
0.00063048
0.00061694
0.000626886
0.000625163
0.000629366
0.000623639
0.000628767
0.00062573
0.000624596
0.00062945
0.000620973
0.000631224
0.000622652
0.00063524
0.00062616
0.000617576
VECTORS momentum double
-0.168137 -0.731872 0 
-0.0601081 -0.766651 0 
-0.140543 -0.901284 0 
0.101031 -0.825221 0 
-0.067082 -0.506288 0 
0.141597 -0.813144 0 
0.0842719 -0.92997 0 
0.0844507 -0.782529 0 
-0.00447769 -0.400213 0 
0.087087 -0.630382 0 
0.236716 -0.714059 0 
0.226044 -0.803833 0 
0.14716 -0.305993 0 
0.368295 -0.309394 0 
0.2843 -0.681912 0 
0.514634 -0.552642 0 
-0.027063 -0.9287 0 
0.299189 -0.848776 0 
-0.109857 -1.0775 0 
0.0978234 -1.02817 0 
0.0364412 -0.829093 0 
0.129179 -0.817571 0 
-0.0263676 -0.924267 0 
0.137482 -0.777166 0 
0.201608 -0.823415 0 
0.236698 -1.10607 0 
0.283734 -0.51499 0 
0.227156 -0.825613 0 
0.357194 -0.671227 0 
0.558733 -0.581737 0 
0.328498 -0.763364 0 
0.443882 -0.657345 0 
0.0660707 -0.983278 0 
0.243818 -0.957346 0 
0.0239833 -1.2068 0 
0.187371 -0.988104 0 
0.213535 -1.04984 0 
0.273858 -1.02942 0 
0.0886415 -1.00533 0 
0.240346 -0.980266 0 
0.301571 -0.718662 0 
0.381556 -0.932114 0 
0.320799 -0.857743 0 
0.383711 -0.943414 0 
0.560694 -0.937816 0 
0.452666 -0.733129 0 
0.420917 -0.991853 0 
0.444066 -0.825088 0 
-0.0156434 -1.071 0 
0.258796 -1.07418 0 
0.14442 -1.34206 0 
0.29303 -1.1972 0 
0.0689218 -1.01434 0 
0.296244 -1.0118 0 
0.263689 -1.25985 0 
0.407196 -1.19139 0 
0.351768 -0.877867 0 
0.315506 -0.811412 0 
0.44032 -1.09663 0 
0.488418 -1.09217 0 
0.41568 -0.796336 0 
0.57207 -0.982173 0 
0.549209 -1.01913 0 
0.634123 -0.879163 0 
VECTORS body_force double
0 -9.81 0 
0 -9.81 0 
0 -9.81 0 
0 -9.81 0 
0 -9.81 0 
0 -9.81 0 
0 -9.81 0 
0 -9.81 0 
0 -9.81 0 
0 -9.81 0 
0 -9.81 0 
0 -9.81 0 
0 -9.81 0 
0 -9.81 0 
0 -9.81 0 
0 -9.81 0 
0 -9.81 0 
0 -9.81 0 
0 -9.81 0 
0 -9.81 0 
0 -9.81 0 
0 -9.81 0 
0 -9.81 0 
0 -9.81 0 
0 -9.81 0 
0 -9.81 0 
0 -9.81 0 
0 -9.81 0 
0 -9.81 0 
0 -9.81 0 
0 -9.81 0 
0 -9.81 0 
0 -9.81 0 
0 -9.81 0 
0 -9.81 0 
0 -9.81 0 
0 -9.81 0 
0 -9.81 0 
0 -9.81 0 
0 -9.81 0 
0 -9.81 0 
0 -9.81 0 
0 -9.81 0 
0 -9.81 0 
0 -9.81 0 
0 -9.81 0 
0 -9.81 0 
0 -9.81 0 
0 -9.81 0 
0 -9.81 0 
0 -9.81 0 
0 -9.81 0 
0 -9.81 0 
0 -9.81 0 
0 -9.81 0 
0 -9.81 0 
0 -9.81 0 
0 -9.81 0 
0 -9.81 0 
0 -9.81 0 
0 -9.81 0 
0 -9.81 0 
0 -9.81 0 
0 -9.81 0 
TENSORS cauchy_stress double
447.148 -168.739 0
-168.739 422.456 0
0 0 0

-664.746 -188.677 0
-188.677 -1613.2 0
0 0 0

-1556.64 -738.26 0
-738.26 1028.5 0
0 0 0

805.966 1773.66 0
1773.66 -1448.78 0
0 0 0

-1041.62 1136.28 0
1136.28 1454.62 0
0 0 0

3030.18 1543.48 0
1543.48 -1329.27 0
0 0 0

-295.512 -1045.75 0
-1045.75 3798.66 0
0 0 0

-1606.64 1721.42 0
1721.42 -3906.38 0
0 0 0

1075.83 -602.31 0
-602.31 -110.09 0
0 0 0

-1250.75 471.857 0
471.857 217.166 0
0 0 0

3934.32 -1599.97 0
-1599.97 997.34 0
0 0 0

-2273.73 -37.7279 0
-37.7279 36.1238 0
0 0 0

198.239 -1299.57 0
-1299.57 -1182.64 0
0 0 0

-1290.43 423.737 0
423.737 -653.282 0
0 0 0

3344.18 35.2703 0
35.2703 -229.671 0
0 0 0

-1364.75 -169.042 0
-169.042 638.284 0
0 0 0

2194.78 421.263 0
421.263 1687.81 0
0 0 0

-1892.22 -2447.34 0
-2447.34 -1728.08 0
0 0 0

640.743 -932.999 0
-932.999 296.274 0
0 0 0

2681.39 134.608 0
134.608 1497.01 0
0 0 0

1438.95 -532.74 0
-532.74 210.069 0
0 0 0

655.111 2082.8 0
2082.8 1134.09 0
0 0 0

-708.841 904.584 0
904.584 75.5515 0
0 0 0

-1862.44 -548.727 0
-548.727 -669.765 0
0 0 0

-880.766 1582.68 0
1582.68 984.287 0
0 0 0

-1057.32 -158.516 0
-158.516 -2684.12 0
0 0 0

382.237 -891.762 0
-891.762 -3453.83 0
0 0 0

585.496 305.105 0
305.105 3904.59 0
0 0 0

131.783 -495.569 0
-495.569 -344.394 0
0 0 0

-958.446 -608.202 0
-608.202 766.386 0
0 0 0

1544.84 -87.6654 0
-87.6654 237.555 0
0 0 0

-945.067 2015.36 0
2015.36 -741.426 0
0 0 0

-874.39 52.9292 0
52.9292 844.015 0
0 0 0

1187.29 75.4672 0
75.4672 330.622 0
0 0 0

801.767 -64.276 0
-64.276 -298.1 0
0 0 0

515.823 780.509 0
780.509 -2507.95 0
0 0 0

-3867.32 -410.688 0
-410.688 189.485 0
0 0 0

3624.5 798.927 0
798.927 -2190.84 0
0 0 0

927.724 418.156 0
418.156 1304.31 0
0 0 0

-1196.62 -788.539 0
-788.539 -1561.9 0
0 0 0

-3458.05 454.292 0
454.292 2816.6 0
0 0 0

1272.4 743.957 0
743.957 -3693.3 0
0 0 0

1434.17 -292.296 0
-292.296 928.596 0
0 0 0

-120.506 -427.644 0
-427.644 1236.74 0
0 0 0

-1752.07 -239.526 0
-239.526 -662.279 0
0 0 0

835 -1224.59 0
-1224.59 223.17 0
0 0 0

637.837 -1161.28 0
-1161.28 1126.8 0
0 0 0

476.201 2495.76 0
2495.76 -606.406 0
0 0 0

645.39 282.358 0
282.358 1033.28 0
0 0 0

-2381.95 -1023.75 0
-1023.75 -114.202 0
0 0 0

207.55 177.805 0
177.805 371.855 0
0 0 0

448.896 -352.369 0
-352.369 -398.67 0
0 0 0

663.495 927.463 0
927.463 675.359 0
0 0 0

-616.118 -859.763 0
-859.763 196.768 0
0 0 0

536.705 61.2483 0
61.2483 618.793 0
0 0 0

114.393 -27.1569 0
-27.1569 110.167 0
0 0 0

-110.341 897.003 0
897.003 -14.1444 0
0 0 0

-196.259 1354.89 0
1354.89 1560.7 0
0 0 0

142.919 -159.597 0
-159.597 -1386.04 0
0 0 0

298.576 -584.71 0
-584.71 1607.02 0
0 0 0

-324.464 -527.933 0
-527.933 -399.427 0
0 0 0

-420.73 -2022.43 0
-2022.43 3545.84 0
0 0 0

1237.5 -682.192 0
-682.192 -880.86 0
0 0 0

-806.827 -437.556 0
-437.556 -1491.06 0
0 0 0

TENSORS velocity_gradient double
-0.829765 -3.77867 0
3.65762 0.754937 0
0 0 0

-0.0102844 -4.71564 0
3.21443 0.461884 0
0 0 0

-1.32024 -4.2755 0
4.86434 0.962487 0
0 0 0

-0.71702 -4.6818 0
4.75381 1.03693 0
0 0 0

-0.367953 -4.39533 0
4.25926 -0.195746 0
0 0 0

-0.60121 -3.10132 0
4.36384 -0.166768 0
0 0 0

-0.491307 -3.40004 0
4.48717 -0.569463 0
0 0 0

-0.711787 -3.2913 0
4.2176 -0.418026 0
0 0 0

-1.01058 -3.32425 0
6.62915 0.238261 0
0 0 0

-0.274859 -6.1709 0
7.49692 -0.38285 0
0 0 0

-0.764731 -4.67254 0
4.05369 0.112135 0
0 0 0

-0.247138 -6.00479 0
4.32578 0.202111 0
0 0 0

-0.279536 -6.16791 0
8.23402 -0.853918 0
0 0 0

-0.126202 -5.8749 0
8.40893 1.42658 0
0 0 0

-0.273622 -6.10805 0
8.65769 -0.143386 0
0 0 0

0.215871 -5.22964 0
7.46386 0.225204 0
0 0 0

-0.971057 -3.65243 0
4.80036 0.848321 0
0 0 0

-0.398537 -3.7428 0
4.68099 0.145895 0
0 0 0

-0.246239 -3.1016 0
3.66363 -0.0459953 0
0 0 0

-0.0701441 -3.33838 0
3.81809 -0.813038 0
0 0 0

-0.266284 -3.41564 0
4.5639 -0.72028 0
0 0 0

-0.311663 -3.43004 0
4.39066 -0.64357 0
0 0 0

-0.242306 -3.37742 0
4.49117 -0.836215 0
0 0 0

-0.181541 -4.57687 0
4.16138 -0.37146 0
0 0 0

-0.513371 -5.0121 0
4.14196 0.629784 0
0 0 0

0.0769017 -5.387 0
4.39378 0.469844 0
0 0 0

-0.0578096 -4.71725 0
3.2456 0.159611 0
0 0 0

0.227375 -4.69116 0
3.52906 0.425381 0
0 0 0

0.5085 -4.56081 0
4.8273 -0.949227 0
0 0 0

0.571749 -4.64182 0
5.87327 -1.24741 0
0 0 0

0.547105 -4.50536 0
5.37357 -0.164618 0
0 0 0

0.600301 -4.54033 0
6.12631 -0.659492 0
0 0 0

-0.0162548 -3.0208 0
3.28559 -0.443839 0
0 0 0

0.135778 -3.21878 0
3.58203 -0.47159 0
0 0 0

0.0844694 -3.15392 0
4.4387 0.111987 0
0 0 0

0.174319 -3.10121 0
3.91886 -0.0789002 0
0 0 0

0.262426 -3.62402 0
4.00225 -0.800396 0
0 0 0

0.0244246 -4.53039 0
3.8953 -1.12716 0
0 0 0

0.317754 -4.39453 0
4.31427 -0.421626 0
0 0 0

0.397221 -4.4431 0
4.9533 -0.812171 0
0 0 0

0.00975658 -4.59874 0
2.74397 -0.720238 0
0 0 0

0.160651 -4.28967 0
2.41286 0.51621 0
0 0 0

0.345346 -4.26585 0
5.14031 0.094925 0
0 0 0

0.271258 -4.11081 0
2.52642 0.699839 0
0 0 0

0.341703 -4.39894 0
2.59874 0.404031 0
0 0 0

-0.183535 -1.31747 0
6.25882 0.289529 0
0 0 0

0.36002 -3.88604 0
2.68784 0.51399 0
0 0 0

-0.456325 -2.10699 0
2.56563 0.442753 0
0 0 0

-0.0628522 -3.41254 0
4.59138 0.380005 0
0 0 0

-0.262424 -3.83767 0
4.7955 0.116871 0
0 0 0

-0.316175 -3.35868 0
4.2267 0.458417 0
0 0 0

-0.274643 -4.26452 0
4.79949 -0.0139915 0
0 0 0

-0.151154 -4.32634 0
4.76365 0.0397243 0
0 0 0

0.432072 -4.40939 0
5.29965 -0.235875 0
0 0 0

-0.235303 -4.28566 0
4.74149 0.0171737 0
0 0 0

-0.0639003 -4.92246 0
4.61818 -1.10097 0
0 0 0

0.116359 -4.64507 0
4.92671 -0.190713 0
0 0 0

-0.333178 -4.36795 0
4.20488 0.25427 0
0 0 0

0.0600205 -5.00573 0
4.43053 -0.886398 0
0 0 0

-0.494723 -3.98129 0
3.75413 -0.707925 0
0 0 0

-0.278833 -3.76162 0
3.16204 0.0201893 0
0 0 0

-1.18575 -3.23212 0
2.42713 0.229112 0
0 0 0

-0.215908 -3.54479 0
3.16652 -0.525504 0
0 0 0

0.141786 -3.79938 0
2.64299 -0.152881 0
0 0 0

SCALARS active double 1
LOOKUP_TABLE default
1
1
1
1
1
1
1
1
1
1
1
1
1
1
1
1
1
1
1
1
1
1
1
1
1
1
1
1
1
1
1
1
1
1
1
1
1
1
1
1
1
1
1
1
1
1
1
1
1
1
1
1
1
1
1
1
1
1
1
1
1
1
1
1
SCALARS extent double 1
LOOKUP_TABLE default
0.0125
0.0125
0.0125
0.0125
0.0125
0.0125
0.0125
0.0125
0.0125
0.0125
0.0125
0.0125
0.0125
0.0125
0.0125
0.0125
0.0125
0.0125
0.0125
0.0125
0.0125
0.0125
0.0125
0.0125
0.0125
0.0125
0.0125
0.0125
0.0125
0.0125
0.0125
0.0125
0.0125
0.0125
0.0125
0.0125
0.0125
0.0125
0.0125
0.0125
0.0125
0.0125
0.0125
0.0125
0.0125
0.0125
0.0125
0.0125
0.0125
0.0125
0.0125
0.0125
0.0125
0.0125
0.0125
0.0125
0.0125
0.0125
0.0125
0.0125
0.0125
0.0125
0.0125
0.0125
SCALARS pressure double 1
LOOKUP_TABLE default
-434.802
1138.97
264.07
321.409
-206.5
-850.454
-1751.58
2756.51
-482.869
516.794
-2465.83
1118.8
492.199
971.855
-1557.26
363.235
-1941.3
1810.15
-468.508
-2089.2
-824.511
-894.603
316.645
1266.1
-51.7604
1870.72
1535.8
-2245.05
106.305
96.0299
-891.196
843.246
15.1876
-758.958
-251.833
996.063
1838.92
-716.832
-1116.02
1379.26
320.724
1210.45
-1181.38
-558.116
1207.17
-529.085
-882.319
65.1026
-839.335
1248.08
-289.703
-25.1129
-669.427
209.675
-577.749
-112.28
62.2429
-682.222
621.558
-952.799
361.945
-1562.56
-178.32
1148.94
SCALARS density double 1
LOOKUP_TABLE default
995.488
1011.92
1002.75
1003.35
997.855
991.194
981.949
1029.08
994.991
1005.39
974.681
1011.7
1005.13
1010.16
983.935
1003.78
980.013
1019
995.139
978.507
991.462
990.739
1003.3
1013.25
999.462
1019.65
1016.1
976.922
1001.11
1001
990.774
1008.81
1000.16
992.138
997.384
1010.41
1019.31
992.573
988.461
1014.45
1003.34
1012.67
987.789
994.212
1012.63
994.513
990.866
1000.68
991.309
1013.06
996.992
999.739
993.062
1002.18
994.009
998.833
1000.65
992.93
1006.49
990.14
1003.77
983.881
998.147
1012.02
