# vtk DataFile Version 3.0
Frame: 23, Time: 0.391
ASCII
DATASET UNSTRUCTURED_GRID
POINTS 64 double
0.955278 0.0872261 0 
0.929811 0.0879795 0 
0.95466 0.113268 0 
0.929368 0.112349 0 
0.902612 0.0896857 0 
0.878729 0.088773 0 
0.901972 0.113937 0 
0.8762 0.114386 0 
0.852258 0.0885951 0 
0.825028 0.0882422 0 
0.85004 0.113747 0 
0.823423 0.114085 0 
0.800694 0.0863249 0 
0.775617 0.0818788 0 
0.798173 0.112837 0 
0.772859 0.108008 0 
0.95285 0.13938 0 
0.927877 0.13695 0 
0.952693 0.163995 0 
0.927474 0.161584 0 
0.902236 0.137868 0 
0.875204 0.138154 0 
0.901543 0.161708 0 
0.875093 0.160614 0 
0.847797 0.137352 0 
0.822546 0.137685 0 
0.848946 0.16064 0 
0.822925 0.16217 0 
0.797409 0.137059 0 
0.771734 0.134899 0 
0.797353 0.161233 0 
0.772667 0.161669 0 
0.948704 0.189182 0 
0.923109 0.185095 0 
0.943966 0.213003 0 
0.918009 0.209745 0 
0.897209 0.185493 0 
0.872202 0.184325 0 
0.892301 0.208726 0 
0.867262 0.208848 0 
0.846635 0.185 0 
0.821741 0.187152 0 
0.843327 0.209573 0 
0.819229 0.211202 0 
0.796409 0.186788 0 
0.771451 0.188846 0 
0.794421 0.212688 0 
0.769659 0.214866 0 
0.931626 0.235729 0 
0.910756 0.233646 0 
0.91881 0.26164 0 
0.90232 0.259232 0 
0.887934 0.232682 0 
0.864586 0.234611 0 
0.882943 0.258913 0 
0.86176 0.261114 0 
0.841772 0.235321 0 
0.818142 0.236196 0 
0.840445 0.261404 0 
0.817679 0.262521 0 
0.793477 0.239312 0 
0.768425 0.2401 0 
0.792249 0.265919 0 
0.767306 0.265853 0 
CELLS 64 128
1 0
1 1
1 2
1 3
1 4
1 5
1 6
1 7
1 8
1 9
1 10
1 11
1 12
1 13
1 14
1 15
1 16
1 17
1 18
1 19
1 20
1 21
1 22
1 23
1 24
1 25
1 26
1 27
1 28
1 29
1 30
1 31
1 32
1 33
1 34
1 35
1 36
1 37
1 38
1 39
1 40
1 41
1 42
1 43
1 44
1 45
1 46
1 47
1 48
1 49
1 50
1 51
1 52
1 53
1 54
1 55
1 56
1 57
1 58
1 59
1 60
1 61
1 62
1 63
CELL_TYPES 64
1
1
1
1
1
1
1
1
1
1
1
1
1
1
1
1
1
1
1
1
1
1
1
1
1
1
1
1
1
1
1
1
1
1
1
1
1
1
1
1
1
1
1
1
1
1
1
1
1
1
1
1
1
1
1
1
1
1
1
1
1
1
1
1
POINT_DATA 64
VECTORS displacement double
0.342778 -0.225274 0 
0.317311 -0.249521 0 
0.31716 -0.199232 0 
0.291868 -0.225151 0 
0.290112 -0.272814 0 
0.266229 -0.298727 0 
0.264472 -0.248563 0 
0.2387 -0.273114 0 
0.239758 -0.323905 0 
0.212528 -0.349258 0 
0.21254 -0.298753 0 
0.185923 -0.323415 0 
0.188194 -0.376175 0 
0.163117 -0.405621 0 
0.160673 -0.349663 0 
0.135359 -0.379492 0 
0.29035 -0.17312 0 
0.265377 -0.20055 0 
0.265193 -0.148505 0 
0.239974 -0.175916 0 
0.239736 -0.224632 0 
0.212704 -0.249346 0 
0.214043 -0.200792 0 
0.187593 -0.226886 0 
0.185297 -0.275148 0 
0.160046 -0.299815 0 
0.161446 -0.25186 0 
0.135425 -0.27533 0 
0.134909 -0.325441 0 
0.109234 -0.352601 0 
0.109853 -0.301267 0 
0.085167 -0.325831 0 
0.236204 -0.123318 0 
0.210609 -0.152405 0 
0.206466 -0.0994973 0 
0.180509 -0.127755 0 
0.184709 -0.177007 0 
0.159702 -0.203175 0 
0.154801 -0.153774 0 
0.129762 -0.178652 0 
0.134135 -0.2275 0 
0.109241 -0.250348 0 
0.105827 -0.202927 0 
0.0817287 -0.226298 0 
0.0839093 -0.275712 0 
0.0589508 -0.298654 0 
0.0569211 -0.249812 0 
0.0321586 -0.272634 0 
0.169126 -0.0767713 0 
0.148256 -0.103854 0 
0.13131 -0.0508603 0 
0.11482 -0.0782684 0 
0.125434 -0.129818 0 
0.102086 -0.152889 0 
0.0954434 -0.103587 0 
0.0742595 -0.126386 0 
0.0792715 -0.177179 0 
0.0556417 -0.201304 0 
0.0529452 -0.151096 0 
0.0301787 -0.174979 0 
0.0309772 -0.223188 0 
0.00592463 -0.2474 0 
0.0047493 -0.196581 0 
-0.0201936 -0.221647 0 
VECTORS velocity double
-1.44358 0.282104 0 
-1.14318 0.777312 0 
0.0846888 0.458371 0 
-0.34308 1.01521 0 
-1.48295 1.1834 0 
-1.15393 0.917554 0 
-0.302255 0.654999 0 
-0.675493 1.02201 0 
-0.888615 1.91852 0 
-1.48649 2.67923 0 
-1.07097 2.27138 0 
-1.51798 2.77448 0 
-1.10949 2.28881 0 
-0.857283 1.62351 0 
-1.75258 2.71818 0 
-1.37611 2.2487 0 
-0.0247342 0.0240921 0 
-0.461223 1.23337 0 
-0.435542 0.317214 0 
-0.505031 0.814131 0 
0.0241328 0.393407 0 
-0.104801 0.826835 0 
-0.5874 0.257456 0 
-0.956088 0.802554 0 
-0.165126 1.69621 0 
-0.44271 1.61457 0 
-1.05445 1.66986 0 
-0.910432 1.61452 0 
-0.998252 1.29362 0 
-1.08122 2.11582 0 
-0.801185 1.12807 0 
-0.777859 2.26973 0 
-0.755129 0.157284 0 
-0.446181 0.207436 0 
0.304453 0.841112 0 
-0.618521 0.18888 0 
-0.345701 -0.0210584 0 
-0.726034 0.684781 0 
-0.640324 -0.240169 0 
-0.947544 0.400609 0 
-1.11712 1.44719 0 
-1.00388 1.27262 0 
-0.891428 0.953272 0 
-1.04912 0.615257 0 
-0.806354 1.37963 0 
-0.438457 2.38694 0 
-1.54461 1.17851 0 
-1.21038 1.68595 0 
0.0169272 -0.28318 0 
0.0149815 0.201072 0 
-0.343646 -0.209666 0 
0.292363 0.409038 0 
-0.428982 -0.3492 0 
-0.436812 0.186479 0 
0.0310653 0.221908 0 
0.0414537 0.131781 0 
-0.645024 0.57564 0 
-0.868967 0.524336 0 
-0.0723666 0.632146 0 
0.069855 0.863009 0 
-1.08628 1.28581 0 
-1.09116 1.58859 0 
-0.239568 1.33833 0 
-0.387366 1.78323 0 
SCALARS mass double 1
LOOKUP_TABLE default
0.625
0.625
0.625
0.625
0.625
0.625
0.625
0.625
0.625
0.625
0.625
0.625
0.625
0.625
0.625
0.625
0.625
0.625
0.625
0.625
0.625
0.625
0.625
0.625
0.625
0.625
0.625
0.625
0.625
0.625
0.625
0.625
0.625
0.625
0.625
0.625
0.625
0.625
0.625
0.625
0.625
0.625
0.625
0.625
0.625
0.625
0.625
0.625
0.625
0.625
0.625
0.625
0.625
0.625
0.625
0.625
0.625
0.625
0.625
0.625
0.625
0.625
0.625
0.625
SCALARS volume double 1
LOOKUP_TABLE default
0.000638019
0.000656041
0.000624833
0.000626127
0.000599418
0.000620696
0.000597682
0.000615574
0.000634527
0.000619099
0.000634467
0.000621716
0.000638635
0.000611795
0.000666173
0.000647523
0.000632534
0.000629778
0.000633915
0.000605441
0.000595518
0.000600178
0.000629205
0.000592815
0.000599849
0.000593004
0.000635007
0.00062081
0.000607782
0.00063109
0.00062322
0.000645055
0.000614279
0.000604019
0.000563207
0.000640646
0.000574598
0.000587676
0.000585823
0.000618219
0.000597297
0.000612657
0.000599789
0.000581387
0.000632378
0.000623635
0.000637607
0.000618142
0.000462993
0.000565268
0.000376956
0.000495957
0.000555449
0.000587836
0.00054428
0.000573645
0.000582055
0.000599299
0.000577998
0.000617469
0.000650905
0.000609281
0.00063424
0.000621947
VECTORS momentum double
-0.90224 0.176315 0 
-0.714489 0.48582 0 
0.0529305 0.286482 0 
-0.214425 0.634507 0 
-0.926846 0.739622 0 
-0.721208 0.573471 0 
-0.18891 0.409374 0 
-0.422183 0.638755 0 
-0.555384 1.19908 0 
-0.929057 1.67452 0 
-0.669359 1.41962 0 
-0.948734 1.73405 0 
-0.693433 1.4305 0 
-0.535802 1.0147 0 
-1.09536 1.69887 0 
-0.860066 1.40544 0 
-0.0154589 0.0150576 0 
-0.288264 0.770856 0 
-0.272214 0.198259 0 
-0.315645 0.508832 0 
0.015083 0.245879 0 
-0.0655007 0.516772 0 
-0.367125 0.16091 0 
-0.597555 0.501596 0 
-0.103204 1.06013 0 
-0.276694 1.00911 0 
-0.659029 1.04366 0 
-0.56902 1.00908 0 
-0.623908 0.808516 0 
-0.67576 1.32239 0 
-0.500741 0.705044 0 
-0.486162 1.41858 0 
-0.471955 0.0983024 0 
-0.278863 0.129647 0 
0.190283 0.525695 0 
-0.386576 0.11805 0 
-0.216063 -0.0131615 0 
-0.453771 0.427988 0 
-0.400203 -0.150106 0 
-0.592215 0.250381 0 
-0.698197 0.904495 0 
-0.627427 0.795385 0 
-0.557142 0.595795 0 
-0.655698 0.384535 0 
-0.503971 0.862266 0 
-0.274035 1.49184 0 
-0.965379 0.736571 0 
-0.75649 1.05372 0 
0.0105795 -0.176988 0 
0.00936345 0.12567 0 
-0.214779 -0.131041 0 
0.182727 0.255649 0 
-0.268114 -0.21825 0 
-0.273007 0.11655 0 
0.0194158 0.138693 0 
0.0259086 0.0823632 0 
-0.40314 0.359775 0 
-0.543104 0.32771 0 
-0.0452291 0.395091 0 
0.0436593 0.539381 0 
-0.678924 0.803631 0 
-0.681972 0.992869 0 
-0.14973 0.836457 0 
-0.242104 1.11452 0 
VECTORS body_force double
0 -9.81 0 
0 -9.81 0 
0 -9.81 0 
0 -9.81 0 
0 -9.81 0 
0 -9.81 0 
0 -9.81 0 
0 -9.81 0 
0 -9.81 0 
0 -9.81 0 
0 -9.81 0 
0 -9.81 0 
0 -9.81 0 
0 -9.81 0 
0 -9.81 0 
0 -9.81 0 
0 -9.81 0 
0 -9.81 0 
0 -9.81 0 
0 -9.81 0 
0 -9.81 0 
0 -9.81 0 
0 -9.81 0 
0 -9.81 0 
0 -9.81 0 
0 -9.81 0 
0 -9.81 0 
0 -9.81 0 
0 -9.81 0 
0 -9.81 0 
0 -9.81 0 
0 -9.81 0 
0 -9.81 0 
0 -9.81 0 
0 -9.81 0 
0 -9.81 0 
0 -9.81 0 
0 -9.81 0 
0 -9.81 0 
0 -9.81 0 
0 -9.81 0 
0 -9.81 0 
0 -9.81 0 
0 -9.81 0 
0 -9.81 0 
0 -9.81 0 
0 -9.81 0 
0 -9.81 0 
0 -9.81 0 
0 -9.81 0 
0 -9.81 0 
0 -9.81 0 
0 -9.81 0 
0 -9.81 0 
0 -9.81 0 
0 -9.81 0 
0 -9.81 0 
0 -9.81 0 
0 -9.81 0 
0 -9.81 0 
0 -9.81 0 
0 -9.81 0 
0 -9.81 0 
0 -9.81 0 
TENSORS cauchy_stress double
830.541 1832.59 0
1832.59 3134.07 0
0 0 0

8249.03 -2381.18 0
-2381.18 1072.51 0
0 0 0

-1119.08 -3944.93 0
-3944.93 1067.67 0
0 0 0

2553.05 -3690.97 0
-3690.97 -2206.48 0
0 0 0

-3386.62 -19.626 0
-19.626 -4650.36 0
0 0 0

404.072 -3246.62 0
-3246.62 -1732.93 0
0 0 0

-2898.48 -6779 0
-6779 -5696.2 0
0 0 0

-930.849 -5034.74 0
-5034.74 -1991.48 0
0 0 0

4152.35 -4171.12 0
-4171.12 -1243.22 0
0 0 0

-735.607 -1194.48 0
-1194.48 -1088.71 0
0 0 0

4921.9 -5689.49 0
-5689.49 -2030.87 0
0 0 0

383.538 -1524.83 0
-1524.83 -1396.63 0
0 0 0

2307.22 -2384.03 0
-2384.03 1843.17 0
0 0 0

-3117.09 175.295 0
175.295 -989.567 0
0 0 0

5358.44 -1220.09 0
-1220.09 6910.36 0
0 0 0

-918.805 -3898.99 0
-3898.99 7726.91 0
0 0 0

673.155 1047.89 0
1047.89 1631.23 0
0 0 0

3159.86 1886.11 0
1886.11 -1695.16 0
0 0 0

1536.31 -2666.09 0
-2666.09 1187.51 0
0 0 0

-835.959 -525.756 0
-525.756 -5278.5 0
0 0 0

-1957.79 -1834.31 0
-1834.31 -7334.67 0
0 0 0

4099.42 3477 0
3477 -11892.8 0
0 0 0

2541.43 -7107.06 0
-7107.06 -1252.01 0
0 0 0

-848.594 -1051.05 0
-1051.05 -9318.54 0
0 0 0

-393.744 -755.723 0
-755.723 -7504.98 0
0 0 0

-3901.92 -1660.36 0
-1660.36 -6204.07 0
0 0 0

5943.86 -1618.4 0
-1618.4 -2889.14 0
0 0 0

123.884 -2134.38 0
-2134.38 -1417.46 0
0 0 0

117.987 2741.79 0
2741.79 -5490.29 0
0 0 0

-2819.8 -439.866 0
-439.866 4684.68 0
0 0 0

1651.99 3419.61 0
3419.61 -2200.53 0
0 0 0

-2640.19 -1672.18 0
-1672.18 8714.02 0
0 0 0

-1285.92 232.073 0
232.073 -2041.42 0
0 0 0

-1027.43 -4545.83 0
-4545.83 -5539.17 0
0 0 0

-2571.8 -4475.5 0
-4475.5 -17448.3 0
0 0 0

6174.38 -6815.7 0
-6815.7 -1419.58 0
0 0 0

-3738.64 -6816.08 0
-6816.08 -12430.6 0
0 0 0

-3570.48 -6769.34 0
-6769.34 -8271.13 0
0 0 0

-4137.83 -6258.19 0
-6258.19 -8311.16 0
0 0 0

-3256.26 -5420.8 0
-5420.8 1158.53 0
0 0 0

-2890.27 -7320.28 0
-7320.28 -5828.41 0
0 0 0

-1173.82 -8539.58 0
-8539.58 -2662.08 0
0 0 0

-8592.58 -7786.94 0
-7786.94 674.482 0
0 0 0

-5780.27 -3096.39 0
-3096.39 -8130.22 0
0 0 0

-1143.21 -4052.29 0
-4052.29 3400.19 0
0 0 0

-3257.86 -5270.93 0
-5270.93 2837.41 0
0 0 0

-574.833 -6622.81 0
-6622.81 4415.3 0
0 0 0

-4309.28 -1361.42 0
-1361.42 2187.51 0
0 0 0

-33525.7 -23106.4 0
-23106.4 -24174.3 0
0 0 0

-9872.65 -10340.3 0
-10340.3 -9445.03 0
0 0 0

-61329.9 -30255.1 0
-30255.1 -35905.2 0
0 0 0

-31358.6 -14545.4 0
-14545.4 -13115.1 0
0 0 0

-13925.5 -11691.7 0
-11691.7 -8761.81 0
0 0 0

-9517.24 -6100.81 0
-6100.81 -2271.8 0
0 0 0

-23395.2 -12673.1 0
-12673.1 -3198.47 0
0 0 0

-18793.2 -5599.08 0
-5599.08 2304.45 0
0 0 0

-10384.8 -3913.18 0
-3913.18 -3304.84 0
0 0 0

-7881.57 -3514.39 0
-3514.39 -193.479 0
0 0 0

-15622.1 -845.892 0
-845.892 587.425 0
0 0 0

-4090.43 -4955.08 0
-4955.08 1759.23 0
0 0 0

692.356 -6068.09 0
-6068.09 7117.66 0
0 0 0

-1961.29 -742.382 0
-742.382 -2937.22 0
0 0 0

-305.079 -2204.87 0
-2204.87 3127.3 0
0 0 0

-2659.86 -1620.99 0
-1620.99 1718.11 0
0 0 0

TENSORS velocity_gradient double
0.346968 13.9232 0
-5.0682 -0.831416 0
0 0 0

1.1333 12.8524 0
-6.2603 -1.08895 0
0 0 0

0.909222 7.31495 0
-3.37515 -2.44394 0
0 0 0

1.9618 6.87568 0
-5.69272 -4.05382 0
0 0 0

1.60976 11.5384 0
-9.07172 -0.451844 0
0 0 0

2.91188 9.35222 0
-18.8526 -0.310281 0
0 0 0

2.76106 6.26876 0
-9.27199 -6.05716 0
0 0 0

4.65524 5.45944 0
-18.3466 -7.2352 0
0 0 0

3.00503 6.49704 0
-16.2218 -0.143616 0
0 0 0

3.41382 1.91418 0
-7.68011 1.95198 0
0 0 0

4.8803 4.82804 0
-13.9024 -8.41681 0
0 0 0

5.22986 6.04828 0
-7.81207 -10.7506 0
0 0 0

1.40699 -2.20721 0
-2.68094 4.28292 0
0 0 0

-1.80242 -3.76918 0
6.81918 7.24006 0
0 0 0

1.98639 7.21514 0
-2.7447 -11.889 0
0 0 0

-0.844971 6.35611 0
2.73567 -5.61376 0
0 0 0

1.30845 7.28971 0
-2.82032 -2.54298 0
0 0 0

2.48987 6.84026 0
-3.82497 -4.17911 0
0 0 0

0.980171 -1.37521 0
-1.31884 -2.85137 0
0 0 0

2.87856 -1.33268 0
-1.30472 -5.89534 0
0 0 0

3.33479 6.27185 0
-7.57882 -6.05069 0
0 0 0

5.46045 5.42171 0
-17.3975 -7.27967 0
0 0 0

3.99653 -1.59065 0
-6.41054 -9.17762 0
0 0 0

6.12942 -2.15891 0
-16.406 -10.8219 0
0 0 0

4.45296 4.85732 0
-10.1579 -8.57573 0
0 0 0

3.83197 6.10794 0
-5.52846 -10.8481 0
0 0 0

4.54639 -2.74257 0
-10.5008 -11.609 0
0 0 0

3.13453 -3.08281 0
-5.26691 -9.43337 0
0 0 0

1.46104 7.22864 0
-5.33737 -11.8069 0
0 0 0

-0.0358089 6.66841 0
-4.55595 -5.71342 0
0 0 0

1.01746 -3.06643 0
-7.59333 -7.34907 0
0 0 0

-0.185476 -1.5859 0
-8.96394 -7.63787 0
0 0 0

1.41186 -1.29791 0
1.45493 -3.24121 0
0 0 0

3.08495 -1.37036 0
1.86417 -6.47401 0
0 0 0

3.15615 7.731 0
3.87562 -1.86822 0
0 0 0

3.30448 7.49344 0
3.93207 -1.97041 0
0 0 0

5.57909 -1.66058 0
-9.72624 -9.5691 0
0 0 0

6.70363 -2.22659 0
-15.2281 -10.9608 0
0 0 0

6.57781 7.76539 0
-13.2873 -2.98356 0
0 0 0

6.59059 9.28148 0
-13.3152 -6.29818 0
0 0 0

4.38859 -2.78243 0
-9.8743 -11.551 0
0 0 0

3.42988 -3.09573 0
-7.81723 -9.3218 0
0 0 0

4.23611 9.96866 0
-10.3662 -7.94534 0
0 0 0

4.25312 8.43143 0
-10.4394 -5.15373 0
0 0 0

-0.347084 -3.04246 0
-8.19618 -7.31532 0
0 0 0

-2.02497 -1.50694 0
-8.33293 -7.66495 0
0 0 0

-0.962911 6.6362 0
-8.42284 -2.84116 0
0 0 0

-1.55932 4.20087 0
-8.10948 -2.61657 0
0 0 0

3.54006 7.61472 0
4.00825 -1.93119 0
0 0 0

3.5219 7.42628 0
4.00238 -1.99213 0
0 0 0

1.67034 2.95856 0
3.65639 -0.152043 0
0 0 0

2.39698 5.67599 0
0.338193 0.254029 0
0 0 0

5.11605 8.04148 0
-10.0915 -3.58717 0
0 0 0

5.0121 9.45835 0
-9.86421 -6.68486 0
0 0 0

3.15123 7.96493 0
-7.34597 -0.304904 0
0 0 0

2.94106 10.1336 0
-7.24935 -1.30197 0
0 0 0

5.84901 9.87539 0
-13.342 -7.77999 0
0 0 0

5.88569 8.34748 0
-13.4087 -5.00103 0
0 0 0

6.49925 11.6561 0
-15.5483 -1.53083 0
0 0 0

6.47478 12.3791 0
-15.576 -0.712714 0
0 0 0

1.10524 6.54442 0
-8.46636 -2.77211 0
0 0 0

0.95153 4.06793 0
-8.24473 -2.60941 0
0 0 0

2.91797 12.5451 0
-8.30841 -0.0567024 0
0 0 0

2.90239 11.1254 0
-8.30836 -0.0517767 0
0 0 0

SCALARS active double 1
LOOKUP_TABLE default
1
1
1
1
1
1
1
1
1
1
1
1
1
1
1
1
1
1
1
1
1
1
1
1
1
1
1
1
1
1
1
1
1
1
1
1
1
1
1
1
1
1
1
1
1
1
1
1
1
1
1
1
1
1
1
1
1
1
1
1
1
1
1
1
SCALARS extent double 1
LOOKUP_TABLE default
0.0125
0.0125
0.0125
0.0125
0.0125
0.0125
0.0125
0.0125
0.0125
0.0125
0.0125
0.0125
0.0125
0.0125
0.0125
0.0125
0.0125
0.0125
0.0125
0.0125
0.0125
0.0125
0.0125
0.0125
0.0125
0.0125
0.0125
0.0125
0.0125
0.0125
0.0125
0.0125
0.0125
0.0125
0.0125
0.0125
0.0125
0.0125
0.0125
0.0125
0.0125
0.0125
0.0125
0.0125
0.0125
0.0125
0.0125
0.0125
0.0125
0.0125
0.0125
0.0125
0.0125
0.0125
0.0125
0.0125
0.0125
0.0125
0.0125
0.0125
0.0125
0.0125
0.0125
0.0125
SCALARS pressure double 1
LOOKUP_TABLE default
-1982.3
-4660.77
25.7055
-173.288
4018.49
664.431
4297.34
1461.16
-1454.57
912.16
-1445.51
506.544
-2075.19
2053.33
-6134.4
-3404.05
-1152.19
-732.35
-1361.91
3057.23
4646.23
3896.7
-644.709
5083.57
3949.36
5052.99
-1527.36
646.79
2686.15
-932.443
274.271
-3036.92
1663.67
3283.3
10010
-2377.4
8084.64
5920.81
6224.5
1048.87
4359.34
1917.95
3959.05
6955.25
-1128.49
210.227
-1920.24
1060.88
28850
9658.84
48617.5
22236.9
11343.7
5894.52
13296.8
8244.37
6844.82
4037.53
7517.35
1165.6
-3905.01
2449.26
-1411.11
470.876
SCALARS density double 1
LOOKUP_TABLE default
979.595
952.684
1000.27
998.199
1042.68
1006.93
1045.71
1015.31
984.986
1009.53
985.079
1005.28
978.649
1021.58
938.195
965.217
988.089
992.412
985.936
1032.31
1049.51
1041.36
993.317
1054.29
1041.93
1053.96
984.241
1006.75
1028.33
990.349
1002.86
968.91
1017.45
1034.74
1109.72
975.578
1087.72
1063.51
1066.88
1010.97
1046.38
1020.15
1042.03
1075.01
988.332
1002.19
980.228
1011.09
1349.91
1105.67
1658.02
1260.19
1125.21
1063.22
1148.31
1089.52
1073.78
1042.88
1081.32
1012.2
960.202
1025.8
985.432
1004.91
