# vtk DataFile Version 3.0
Frame: 51, Time: 0.867
ASCII
DATASET UNSTRUCTURED_GRID
POINTS 64 double
0.00158503 0.285908 0 
0.0253084 0.278856 0 
0.995658 0.260965 0 
0.0197927 0.255291 0 
0.0500344 0.271956 0 
0.0761797 0.266682 0 
0.0444227 0.248318 0 
0.0697604 0.242734 0 
0.100241 0.260508 0 
0.124725 0.254482 0 
0.0954804 0.235832 0 
0.119565 0.230392 0 
0.148693 0.250877 0 
0.17623 0.242378 0 
0.142267 0.224975 0 
0.169737 0.21958 0 
0.989421 0.237625 0 
0.0145502 0.230449 0 
0.985111 0.213031 0 
0.0105745 0.207235 0 
0.039179 0.224373 0 
0.0638908 0.21763 0 
0.0353668 0.20006 0 
0.059289 0.193748 0 
0.0877783 0.210409 0 
0.113345 0.205381 0 
0.0834419 0.184939 0 
0.109461 0.179571 0 
0.13674 0.198755 0 
0.16412 0.192909 0 
0.134439 0.17317 0 
0.158411 0.169684 0 
0.979802 0.18911 0 
0.00570536 0.183592 0 
0.974284 0.166315 0 
-0.000111661 0.159656 0 
0.0302329 0.175665 0 
0.0550848 0.168633 0 
0.0243135 0.152531 0 
0.0493932 0.143377 0 
0.078768 0.161439 0 
0.103729 0.154341 0 
0.0738369 0.136265 0 
0.0984287 0.129065 0 
0.128707 0.148503 0 
0.152347 0.145125 0 
0.124285 0.123362 0 
0.149556 0.119728 0 
0.966827 0.143235 0 
0.991677 0.136365 0 
0.95775 0.120972 0 
0.98219 0.11183 0 
0.0163637 0.128529 0 
0.0413026 0.120613 0 
0.00647539 0.10347 0 
0.0317967 0.0972649 0 
0.0655173 0.112496 0 
0.0903253 0.108764 0 
0.0569364 0.089295 0 
0.0838879 0.0849034 0 
0.116813 0.101809 0 
0.143642 0.0973085 0 
0.108999 0.0799085 0 
0.133704 0.0728385 0 
CELLS 64 128
1 0
1 1
1 2
1 3
1 4
1 5
1 6
1 7
1 8
1 9
1 10
1 11
1 12
1 13
1 14
1 15
1 16
1 17
1 18
1 19
1 20
1 21
1 22
1 23
1 24
1 25
1 26
1 27
1 28
1 29
1 30
1 31
1 32
1 33
1 34
1 35
1 36
1 37
1 38
1 39
1 40
1 41
1 42
1 43
1 44
1 45
1 46
1 47
1 48
1 49
1 50
1 51
1 52
1 53
1 54
1 55
1 56
1 57
1 58
1 59
1 60
1 61
1 62
1 63
CELL_TYPES 64
1
1
1
1
1
1
1
1
1
1
1
1
1
1
1
1
1
1
1
1
1
1
1
1
1
1
1
1
1
1
1
1
1
1
1
1
1
1
1
1
1
1
1
1
1
1
1
1
1
1
1
1
1
1
1
1
1
1
1
1
1
1
1
1
POINT_DATA 64
VECTORS displacement double
-0.210915 0.0734079 0 
-0.187192 0.0413557 0 
-0.241842 0.0484653 0 
-0.217707 0.0177914 0 
-0.162466 0.00945592 0 
-0.13632 -0.0208182 0 
-0.193077 -0.0141819 0 
-0.16774 -0.0447656 0 
-0.112259 -0.0519923 0 
-0.0877745 -0.083018 0 
-0.14202 -0.0766684 0 
-0.117935 -0.107108 0 
-0.0638066 -0.111623 0 
-0.03627 -0.145122 0 
-0.0952327 -0.137525 0 
-0.0677627 -0.16792 0 
-0.273079 0.0251251 0 
-0.24795 -0.0070515 0 
-0.302389 0.00053136 0 
-0.276926 -0.0302645 0 
-0.223321 -0.0381267 0 
-0.198609 -0.0698697 0 
-0.252133 -0.06244 0 
-0.228211 -0.093752 0 
-0.174722 -0.102091 0 
-0.149155 -0.132119 0 
-0.204058 -0.127561 0 
-0.178039 -0.157929 0 
-0.12576 -0.163745 0 
-0.0983796 -0.194591 0 
-0.153061 -0.18933 0 
-0.129089 -0.217816 0 
-0.332698 -0.0233903 0 
-0.306795 -0.0539075 0 
-0.363216 -0.0461846 0 
-0.337612 -0.0778441 0 
-0.282267 -0.0868346 0 
-0.257415 -0.118867 0 
-0.313187 -0.109969 0 
-0.288107 -0.144123 0 
-0.233732 -0.151061 0 
-0.208771 -0.183159 0 
-0.263663 -0.176235 0 
-0.239071 -0.208435 0 
-0.183793 -0.213997 0 
-0.160153 -0.242375 0 
-0.213215 -0.239138 0 
-0.187944 -0.267772 0 
-0.395673 -0.0692653 0 
-0.370823 -0.101135 0 
-0.42975 -0.0915279 0 
-0.40531 -0.12567 0 
-0.346136 -0.133971 0 
-0.321197 -0.166887 0 
-0.381025 -0.15903 0 
-0.355703 -0.190235 0 
-0.296983 -0.200004 0 
-0.272175 -0.228736 0 
-0.330564 -0.223205 0 
-0.303612 -0.252597 0 
-0.245687 -0.260691 0 
-0.218858 -0.290192 0 
-0.278501 -0.282592 0 
-0.253796 -0.314661 0 
VECTORS velocity double
-2.32778 1.13741 0 
-2.21416 1.00002 0 
-2.52243 1.0528 0 
-1.71268 0.985101 0 
-2.66938 0.627299 0 
-2.74062 0.235054 0 
-2.07822 0.508402 0 
-2.3259 0.690972 0 
-2.26166 1.10628 0 
-1.71151 0.485981 0 
-1.292 0.907545 0 
-1.07518 1.03973 0 
-1.9823 1.31022 0 
-1.19819 2.21487 0 
-1.48547 1.16772 0 
-0.801752 1.95487 0 
-2.50463 0.975054 0 
-1.01583 1.05651 0 
-2.24392 0.831649 0 
-1.11528 1.13972 0 
-1.43149 0.72707 0 
-1.91691 0.657305 0 
-1.03215 0.953224 0 
-1.59823 1.27694 0 
-1.48617 0.839492 0 
-0.975623 0.900911 0 
-1.405 2.23711 0 
-0.914375 1.96676 0 
-1.29139 1.40766 0 
-0.769015 1.69638 0 
-1.3104 1.54276 0 
-0.758425 2.17605 0 
-2.19823 1.43167 0 
-1.40552 1.80265 0 
-1.76945 1.51321 0 
-1.5898 1.42355 0 
-1.1481 1.5102 0 
-1.52844 1.929 0 
-1.34014 1.25559 0 
-1.11366 1.50207 0 
-1.54707 2.72166 0 
-0.728681 2.10029 0 
-1.03447 1.87008 0 
-0.621654 1.62568 0 
-0.908998 1.01386 0 
-1.03221 2.01415 0 
-1.16842 0.627384 0 
-1.34818 1.41228 0 
-1.27784 1.62304 0 
-1.19799 1.10557 0 
-0.992589 1.26496 0 
-1.68768 1.31821 0 
-1.18295 1.11453 0 
-0.821618 1.41381 0 
-1.69203 1.41798 0 
-1.58102 1.82336 0 
-0.900445 1.79944 0 
-1.00517 2.37231 0 
-1.45262 1.87964 0 
-1.24403 2.17502 0 
-1.52413 2.19223 0 
-1.52201 1.89297 0 
-1.54372 1.95864 0 
-0.992456 1.68267 0 
SCALARS mass double 1
LOOKUP_TABLE default
0.625
0.625
0.625
0.625
0.625
0.625
0.625
0.625
0.625
0.625
0.625
0.625
0.625
0.625
0.625
0.625
0.625
0.625
0.625
0.625
0.625
0.625
0.625
0.625
0.625
0.625
0.625
0.625
0.625
0.625
0.625
0.625
0.625
0.625
0.625
0.625
0.625
0.625
0.625
0.625
0.625
0.625
0.625
0.625
0.625
0.625
0.625
0.625
0.625
0.625
0.625
0.625
0.625
0.625
0.625
0.625
0.625
0.625
0.625
0.625
0.625
0.625
0.625
0.625
SCALARS volume double 1
LOOKUP_TABLE default
0.000630117
0.000629904
0.000615268
0.000602937
0.00062453
0.000622095
0.000600443
0.000603824
0.000649394
0.000588993
0.000675045
0.000576813
0.000624205
0.000633188
0.000688618
0.000601184
0.000639522
0.000609204
0.000623777
0.000604935
0.000621811
0.000627071
0.000612632
0.000598118
0.000676526
0.000596982
0.00063244
0.000680176
0.000638449
0.000643804
0.000631177
0.000648442
0.000622233
0.000616709
0.000615207
0.000647851
0.00060434
0.000635178
0.000625081
0.000653013
0.000630572
0.000677054
0.000660371
0.000606508
0.000638616
0.000638497
0.000619755
0.000626917
0.00061095
0.000657057
0.000630063
0.000604047
0.000635792
0.000611817
0.000641331
0.000632403
0.000617625
0.000568104
0.000654729
0.000647083
0.00057813
0.000607392
0.000633531
0.000643343
VECTORS momentum double
-1.45486 0.710882 0 
-1.38385 0.62501 0 
-1.57652 0.658001 0 
-1.07042 0.615688 0 
-1.66836 0.392062 0 
-1.71289 0.146909 0 
-1.29889 0.317751 0 
-1.45368 0.431857 0 
-1.41354 0.691427 0 
-1.06969 0.303738 0 
-0.807497 0.567216 0 
-0.671987 0.649829 0 
-1.23894 0.818887 0 
-0.748871 1.3843 0 
-0.928417 0.729824 0 
-0.501095 1.22179 0 
-1.56539 0.609409 0 
-0.634894 0.660316 0 
-1.40245 0.519781 0 
-0.697048 0.712324 0 
-0.894681 0.454419 0 
-1.19807 0.410815 0 
-0.645092 0.595765 0 
-0.998897 0.798086 0 
-0.928853 0.524683 0 
-0.609764 0.56307 0 
-0.878128 1.39819 0 
-0.571485 1.22922 0 
-0.807116 0.879788 0 
-0.480635 1.06024 0 
-0.818999 0.964223 0 
-0.474016 1.36003 0 
-1.37389 0.894794 0 
-0.878452 1.12666 0 
-1.10591 0.945756 0 
-0.993628 0.88972 0 
-0.717561 0.943875 0 
-0.955275 1.20563 0 
-0.837587 0.784745 0 
-0.696038 0.938793 0 
-0.966921 1.70103 0 
-0.455425 1.31268 0 
-0.646541 1.1688 0 
-0.388534 1.01605 0 
-0.568124 0.633661 0 
-0.645132 1.25885 0 
-0.73026 0.392115 0 
-0.842613 0.882676 0 
-0.798649 1.0144 0 
-0.748741 0.690983 0 
-0.620368 0.790602 0 
-1.0548 0.823883 0 
-0.739347 0.69658 0 
-0.513511 0.883629 0 
-1.05752 0.886236 0 
-0.988139 1.1396 0 
-0.562778 1.12465 0 
-0.628233 1.4827 0 
-0.907887 1.17478 0 
-0.77752 1.35939 0 
-0.952584 1.37014 0 
-0.951254 1.1831 0 
-0.964825 1.22415 0 
-0.620285 1.05167 0 
VECTORS body_force double
0 -9.81 0 
0 -9.81 0 
0 -9.81 0 
0 -9.81 0 
0 -9.81 0 
0 -9.81 0 
0 -9.81 0 
0 -9.81 0 
0 -9.81 0 
0 -9.81 0 
0 -9.81 0 
0 -9.81 0 
0 -9.81 0 
0 -9.81 0 
0 -9.81 0 
0 -9.81 0 
0 -9.81 0 
0 -9.81 0 
0 -9.81 0 
0 -9.81 0 
0 -9.81 0 
0 -9.81 0 
0 -9.81 0 
0 -9.81 0 
0 -9.81 0 
0 -9.81 0 
0 -9.81 0 
0 -9.81 0 
0 -9.81 0 
0 -9.81 0 
0 -9.81 0 
0 -9.81 0 
0 -9.81 0 
0 -9.81 0 
0 -9.81 0 
0 -9.81 0 
0 -9.81 0 
0 -9.81 0 
0 -9.81 0 
0 -9.81 0 
0 -9.81 0 
0 -9.81 0 
0 -9.81 0 
0 -9.81 0 
0 -9.81 0 
0 -9.81 0 
0 -9.81 0 
0 -9.81 0 
0 -9.81 0 
0 -9.81 0 
0 -9.81 0 
0 -9.81 0 
0 -9.81 0 
0 -9.81 0 
0 -9.81 0 
0 -9.81 0 
0 -9.81 0 
0 -9.81 0 
0 -9.81 0 
0 -9.81 0 
0 -9.81 0 
0 -9.81 0 
0 -9.81 0 
0 -9.81 0 
TENSORS cauchy_stress double
-2486.1 -3807.71 0
-3807.71 4054.07 0
0 0 0

-595.691 -2009.32 0
-2009.32 2098.64 0
0 0 0

-2790.95 -2212.66 0
-2212.66 -227.076 0
0 0 0

-4021.72 -553.326 0
-553.326 -2889.61 0
0 0 0

174.201 -2347.9 0
-2347.9 -318.923 0
0 0 0

470.906 665.736 0
665.736 -1366.85 0
0 0 0

-702.593 -2997.27 0
-2997.27 -7005.74 0
0 0 0

-2368.82 -1031.51 0
-1031.51 -4259.72 0
0 0 0

3508.97 2124.59 0
2124.59 3854.12 0
0 0 0

-7343.16 337.689 0
337.689 -4067.8 0
0 0 0

9858.04 2722.96 0
2722.96 4954.92 0
0 0 0

-12811.5 -745.607 0
-745.607 -2618.04 0
0 0 0

2958.35 4341.89 0
4341.89 -3203.18 0
0 0 0

3147.65 -690.128 0
-690.128 -644.682 0
0 0 0

9002.71 3678.48 0
3678.48 9638.66 0
0 0 0

-9738.15 -4971.68 0
-4971.68 2266.77 0
0 0 0

1569.61 -1618.66 0
-1618.66 2847.59 0
0 0 0

-947.365 -2962.57 0
-2962.57 -3975.51 0
0 0 0

2483.48 -1619.71 0
-1619.71 -2860.06 0
0 0 0

-2109.32 -3411.13 0
-3411.13 -4165.76 0
0 0 0

226.204 -1856.97 0
-1856.97 -1209.82 0
0 0 0

-2964.75 -3577.52 0
-3577.52 3600.95 0
0 0 0

-3318.59 -2950.28 0
-2950.28 -525.035 0
0 0 0

-5728.01 -4677.77 0
-4677.77 -2726.62 0
0 0 0

6758.57 -2285.59 0
-2285.59 8475.95 0
0 0 0

-8585.68 -1688.11 0
-1688.11 -234.362 0
0 0 0

1972.69 -2535.25 0
-2535.25 303.027 0
0 0 0

8763.76 -1211.01 0
-1211.01 7505.35 0
0 0 0

2079.07 -2740.39 0
-2740.39 2015.34 0
0 0 0

3319.73 -1365.36 0
-1365.36 2380.83 0
0 0 0

-1766.15 -2502.51 0
-2502.51 3657.48 0
0 0 0

4339.75 644.784 0
644.784 2741.24 0
0 0 0

2684.83 -2838.69 0
-2838.69 -3538.1 0
0 0 0

572.739 -1647.02 0
-1647.02 -3140.74 0
0 0 0

705.852 -2812.52 0
-2812.52 -3743.05 0
0 0 0

6866.26 838.363 0
838.363 39.4221 0
0 0 0

-2899.63 -5621.73 0
-5621.73 -3564.75 0
0 0 0

-1526.71 -1072.13 0
-1072.13 4633.15 0
0 0 0

-996.199 -3483.55 0
-3483.55 1021.27 0
0 0 0

3262.79 -3024.03 0
-3024.03 5169.02 0
0 0 0

-1733.55 -8575.1 0
-8575.1 3440.32 0
0 0 0

5504.08 1837.18 0
1837.18 9880.29 0
0 0 0

3634.14 1257.88 0
1257.88 6952.4 0
0 0 0

486.463 -2051.37 0
-2051.37 -6262.14 0
0 0 0

525.558 -2426.19 0
-2426.19 3618.95 0
0 0 0

-1205.25 3214.78 0
3214.78 5314.09 0
0 0 0

2647.09 2443.41 0
2443.41 -4267.8 0
0 0 0

1861.71 2195.56 0
2195.56 -1272.75 0
0 0 0

-126.496 -2814.51 0
-2814.51 -4245.92 0
0 0 0

8823.76 3140.73 0
3140.73 795.431 0
0 0 0

2235.38 -193.625 0
-193.625 -683.949 0
0 0 0

-3118.16 1337.88 0
1337.88 -3439.3 0
0 0 0

1350.64 2394.1 0
2394.1 1941.5 0
0 0 0

2140.86 133.38 0
133.38 -6240.41 0
0 0 0

4172.06 1536.47 0
1536.47 788.364 0
0 0 0

2305.5 -941.471 0
-941.471 -41.1067 0
0 0 0

4350.16 5418.55 0
5418.55 -6633.03 0
0 0 0

-1439.6 2046.31 0
2046.31 -16915.7 0
0 0 0

8617.32 -6050.33 0
-6050.33 319.122 0
0 0 0

3552.26 1638.81 0
1638.81 3125.13 0
0 0 0

1271.48 -991.799 0
-991.799 -16262.4 0
0 0 0

-54.1347 1963.33 0
1963.33 -5441.64 0
0 0 0

4659.64 -3168.82 0
-3168.82 -2052.54 0
0 0 0

-3704.08 1702.6 0
1702.6 9266.7 0
0 0 0

TENSORS velocity_gradient double
0.975729 -3.81186 0
-2.20928 -0.145965 0
0 0 0

-0.458467 -5.54763 0
-4.65478 1.041 0
0 0 0

5.62801 -3.73417 0
1.63465 -0.460803 0
0 0 0

1.42642 -5.89908 0
-5.70165 -0.263801 0
0 0 0

-0.285814 -7.69709 0
-2.20827 1.62713 0
0 0 0

0.169125 -10.7621 0
-0.338109 -0.739106 0
0 0 0

1.93616 -10.6872 0
-4.11868 -5.18795 0
0 0 0

2.06955 -12.5504 0
1.63156 -9.47933 0
0 0 0

5.52345 -13.1423 0
6.68405 -2.18266 0
0 0 0

7.60171 -12.7951 0
8.90648 -1.3571 0
0 0 0

3.32214 -12.3698 0
3.3209 -10.3138 0
0 0 0

6.26983 -11.0199 0
6.47154 -8.72359 0
0 0 0

6.84207 -11.8245 0
12.6638 -2.13658 0
0 0 0

7.24968 -6.93248 0
16.8216 -1.6736 0
0 0 0

5.88269 -9.46379 0
5.95701 -6.65546 0
0 0 0

5.5204 -7.43526 0
13.1836 -2.7313 0
0 0 0

7.05032 -9.03475 0
3.35281 -4.97186 0
0 0 0

3.32775 -10.0867 0
-4.24692 -5.64148 0
0 0 0

6.53115 -9.12937 0
1.13527 -5.37602 0
0 0 0

5.06926 -9.66543 0
-2.1969 -5.26212 0
0 0 0

3.7792 -11.9228 0
-3.72056 -7.78219 0
0 0 0

2.0043 -12.5663 0
2.68604 -9.22224 0
0 0 0

5.22859 -6.06718 0
-1.29824 -8.03807 0
0 0 0

2.46773 -2.52119 0
3.87609 -11.3115 0
0 0 0

1.98533 -12.5052 0
2.99246 -10.211 0
0 0 0

4.48866 -10.0853 0
4.01867 -9.57388 0
0 0 0

3.07446 -4.13956 0
4.47514 -12.9094 0
0 0 0

1.95309 -4.06529 0
-0.974505 -11.6362 0
0 0 0

3.9029 -3.66406 0
2.97804 -6.15464 0
0 0 0

3.37675 1.38666 0
9.04888 -0.93743 0
0 0 0

1.28524 -1.47142 0
-2.35945 -6.25721 0
0 0 0

1.30404 0.880429 0
5.68147 -1.75987 0
0 0 0

3.8575 -7.02594 0
-0.572645 -3.43865 0
0 0 0

4.99187 -3.11461 0
1.2078 -3.64374 0
0 0 0

-0.702952 -8.15845 0
-1.78307 -3.73924 0
0 0 0

1.81062 -3.70491 0
2.29688 -3.21027 0
0 0 0

4.74634 -2.36779 0
2.51399 -7.61673 0
0 0 0

4.17505 -2.23525 0
5.5618 -11.0292 0
0 0 0

4.23261 -2.33948 0
5.90074 -4.09419 0
0 0 0

4.35345 -2.60995 0
6.22146 -0.415332 0
0 0 0

4.67414 -3.82 0
6.05458 -12.5939 0
0 0 0

0.043922 -2.24761 0
-4.53144 -7.80322 0
0 0 0

3.46532 -0.1624 0
5.31766 1.47019 0
0 0 0

0.502523 2.54838 0
-0.0975254 3.21638 0
0 0 0

-1.00532 2.63214 0
-6.40248 -0.329549 0
0 0 0

-0.443375 4.82969 0
-0.0157755 1.64469 0
0 0 0

-2.16678 3.91034 0
-5.30388 2.16105 0
0 0 0

-0.937964 4.79119 0
-3.73422 1.48447 0
0 0 0

-3.73509 -1.08147 0
-1.87153 2.42158 0
0 0 0

-3.77875 -0.921848 0
-1.28615 0.281508 0
0 0 0

-3.87725 -1.13996 0
0.0344033 3.20569 0
0 0 0

-3.93571 -0.982961 0
0.818144 1.10084 0
0 0 0

5.04554 -1.68419 0
6.67194 -0.463515 0
0 0 0

5.41295 -2.81065 0
6.74275 -0.680641 0
0 0 0

5.85069 0.564701 0
6.84737 -2.50272 0
0 0 0

5.63872 5.51394 0
6.8372 -5.50431 0
0 0 0

0.631653 -1.15667 0
3.21548 0.732585 0
0 0 0

0.177306 1.80757 0
2.87842 2.93163 0
0 0 0

0.139287 8.28518 0
1.62283 -5.75209 0
0 0 0

0.420688 6.58113 0
1.39464 -4.37026 0
0 0 0

-2.31397 2.77254 0
-4.20904 -0.452868 0
0 0 0

-1.76793 -2.19357 0
-4.38629 -2.60631 0
0 0 0

1.42162 3.53439 0
-4.09224 -3.5709 0
0 0 0

2.8571 -1.52725 0
-4.11881 -3.47723 0
0 0 0

SCALARS active double 1
LOOKUP_TABLE default
1
1
1
1
1
1
1
1
1
1
1
1
1
1
1
1
1
1
1
1
1
1
1
1
1
1
1
1
1
1
1
1
1
1
1
1
1
1
1
1
1
1
1
1
1
1
1
1
1
1
1
1
1
1
1
1
1
1
1
1
1
1
1
1
SCALARS extent double 1
LOOKUP_TABLE default
0.0125
0.0125
0.0125
0.0125
0.0125
0.0125
0.0125
0.0125
0.0125
0.0125
0.0125
0.0125
0.0125
0.0125
0.0125
0.0125
0.0125
0.0125
0.0125
0.0125
0.0125
0.0125
0.0125
0.0125
0.0125
0.0125
0.0125
0.0125
0.0125
0.0125
0.0125
0.0125
0.0125
0.0125
0.0125
0.0125
0.0125
0.0125
0.0125
0.0125
0.0125
0.0125
0.0125
0.0125
0.0125
0.0125
0.0125
0.0125
0.0125
0.0125
0.0125
0.0125
0.0125
0.0125
0.0125
0.0125
0.0125
0.0125
0.0125
0.0125
0.0125
0.0125
0.0125
0.0125
SCALARS pressure double 1
LOOKUP_TABLE default
-783.985
-751.475
1509.01
3455.67
72.3606
447.974
3854.16
3314.27
-3681.55
5705.48
-7406.48
7714.78
122.418
-1251.49
-9320.69
3735.69
-2208.6
2461.44
188.288
3137.54
491.807
-318.098
1921.81
4227.31
-7617.26
4410.02
-1137.86
-8134.55
-2047.2
-2850.28
-945.665
-3540.5
426.634
1284
1518.6
-3452.84
3232.19
-1553.22
-12.5364
-4215.9
-853.388
-7692.19
-5293.27
2887.84
-2072.25
-2054.42
810.355
-294.48
2186.21
-4809.6
-775.716
3278.73
-1646.07
2049.77
-2480.21
-1132.2
1141.44
9177.65
-4468.22
-3338.7
7495.44
2747.89
-1303.55
-2781.31
SCALARS density double 1
LOOKUP_TABLE default
991.88
992.215
1015.82
1036.59
1000.75
1004.67
1040.9
1035.07
962.436
1061.13
925.864
1083.54
1001.27
987.069
907.615
1039.62
977.292
1025.93
1001.96
1033.17
1005.13
996.697
1020.19
1044.94
923.837
1046.93
988.236
918.88
978.934
970.792
990.213
963.848
1004.45
1013.44
1015.92
964.728
1034.19
983.976
999.87
957.102
991.164
923.118
946.438
1030.49
978.679
978.861
1008.46
996.942
1023
951.211
991.965
1034.69
983.027
1021.55
974.536
988.294
1011.94
1100.15
954.594
965.873
1081.07
1028.99
986.535
971.489
