# vtk DataFile Version 3.0
Frame: 9, Time: 0.153
ASCII
DATASET UNSTRUCTURED_GRID
POINTS 64 double
0.674482 0.235024 0 
0.657168 0.251227 0 
0.692732 0.253954 0 
0.674766 0.269797 0 
0.639115 0.268625 0 
0.620412 0.283362 0 
0.655778 0.288252 0 
0.636017 0.303075 0 
0.600182 0.299879 0 
0.58141 0.317959 0 
0.616196 0.319008 0 
0.598423 0.336793 0 
0.562171 0.334035 0 
0.544364 0.351751 0 
0.578955 0.352981 0 
0.561191 0.37027 0 
0.710101 0.272462 0 
0.690281 0.288661 0 
0.725976 0.289826 0 
0.70715 0.306955 0 
0.671712 0.306298 0 
0.651968 0.321284 0 
0.688832 0.324293 0 
0.669601 0.340174 0 
0.632574 0.338251 0 
0.615215 0.35521 0 
0.651221 0.356933 0 
0.632842 0.373949 0 
0.596293 0.371071 0 
0.579044 0.388501 0 
0.614415 0.390257 0 
0.597158 0.407708 0 
0.742797 0.308332 0 
0.724621 0.325574 0 
0.760141 0.325799 0 
0.742623 0.342744 0 
0.706147 0.342367 0 
0.687234 0.358978 0 
0.724166 0.359583 0 
0.704894 0.376479 0 
0.668626 0.375597 0 
0.650378 0.391884 0 
0.686063 0.393005 0 
0.667995 0.409965 0 
0.632315 0.408832 0 
0.614178 0.426598 0 
0.649969 0.427 0 
0.63203 0.444423 0 
0.778444 0.344116 0 
0.760188 0.360782 0 
0.796218 0.3629 0 
0.776954 0.379347 0 
0.741947 0.377464 0 
0.723305 0.394155 0 
0.758431 0.396233 0 
0.739985 0.412908 0 
0.704382 0.410693 0 
0.68586 0.427924 0 
0.721171 0.429242 0 
0.703298 0.445589 0 
0.667409 0.445076 0 
0.649937 0.46284 0 
0.685131 0.462721 0 
0.668257 0.48063 0 
CELLS 64 128
1 0
1 1
1 2
1 3
1 4
1 5
1 6
1 7
1 8
1 9
1 10
1 11
1 12
1 13
1 14
1 15
1 16
1 17
1 18
1 19
1 20
1 21
1 22
1 23
1 24
1 25
1 26
1 27
1 28
1 29
1 30
1 31
1 32
1 33
1 34
1 35
1 36
1 37
1 38
1 39
1 40
1 41
1 42
1 43
1 44
1 45
1 46
1 47
1 48
1 49
1 50
1 51
1 52
1 53
1 54
1 55
1 56
1 57
1 58
1 59
1 60
1 61
1 62
1 63
CELL_TYPES 64
1
1
1
1
1
1
1
1
1
1
1
1
1
1
1
1
1
1
1
1
1
1
1
1
1
1
1
1
1
1
1
1
1
1
1
1
1
1
1
1
1
1
1
1
1
1
1
1
1
1
1
1
1
1
1
1
1
1
1
1
1
1
1
1
POINT_DATA 64
VECTORS displacement double
0.0619822 -0.0774755 0 
0.0446681 -0.0862728 0 
0.0552323 -0.0585464 0 
0.0372663 -0.067703 0 
0.0266148 -0.0938747 0 
0.00791165 -0.104138 0 
0.0182784 -0.0742478 0 
-0.00148339 -0.0844254 0 
-0.0123184 -0.112621 0 
-0.0310903 -0.119541 0 
-0.0213037 -0.0934922 0 
-0.0390769 -0.100707 0 
-0.0503288 -0.128465 0 
-0.0681355 -0.135749 0 
-0.0585453 -0.109519 0 
-0.0763094 -0.11723 0 
0.0476009 -0.0400378 0 
0.0277807 -0.0488391 0 
0.0384758 -0.0226744 0 
0.0196501 -0.0305453 0 
0.00921238 -0.0562016 0 
-0.0105318 -0.0662161 0 
0.00133204 -0.0382068 0 
-0.0178991 -0.0473257 0 
-0.0299263 -0.0742485 0 
-0.0472852 -0.0822903 0 
-0.0362793 -0.0555674 0 
-0.0546581 -0.0635508 0 
-0.066207 -0.0914287 0 
-0.0834561 -0.0989989 0 
-0.0730846 -0.0722429 0 
-0.0903422 -0.0797918 0 
0.0302967 -0.00416809 0 
0.012121 -0.0119261 0 
0.0226409 0.0132994 0 
0.00512292 0.00524433 0 
-0.00635335 -0.020133 0 
-0.0252658 -0.0285219 0 
-0.0133343 -0.00291655 0 
-0.0326059 -0.0110207 0 
-0.0438741 -0.0369031 0 
-0.0621219 -0.0456163 0 
-0.0514367 -0.0194948 0 
-0.0695049 -0.0275352 0 
-0.0801854 -0.053668 0 
-0.0983219 -0.0609017 0 
-0.0875308 -0.0354997 0 
-0.10547 -0.0430769 0 
0.0159438 0.0316162 0 
-0.00231165 0.0232819 0 
0.00871793 0.0504 0 
-0.0105456 0.0418475 0 
-0.0205526 0.0149635 0 
-0.0391947 0.00665546 0 
-0.0290693 0.0337334 0 
-0.0475146 0.0254077 0 
-0.0581181 -0.00180673 0 
-0.07664 -0.00957574 0 
-0.0663289 0.0167417 0 
-0.0842023 0.00808899 0 
-0.0950912 -0.0174235 0 
-0.112563 -0.0246599 0 
-0.102369 0.000220507 0 
-0.119243 -0.00686998 0 
VECTORS velocity double
2.1551 -0.613754 0 
1.66928 -1.07265 0 
1.66734 -0.121931 0 
1.8467 -0.858762 0 
1.64202 -0.842601 0 
1.78785 -1.11151 0 
1.63379 -0.527041 0 
1.27285 -0.685321 0 
1.68844 -1.32546 0 
1.33273 -1.55374 0 
1.22173 -0.873934 0 
1.25387 -1.02205 0 
1.64142 -1.91361 0 
1.11476 -1.82944 0 
1.30144 -1.12505 0 
0.742949 -1.673 0 
1.81641 -0.867849 0 
1.15833 -0.829974 0 
2.01944 -0.433231 0 
1.46671 -0.393694 0 
1.45869 -0.822958 0 
1.51861 -0.982858 0 
1.34801 -0.678397 0 
1.35952 -0.858298 0 
1.38551 -1.29772 0 
1.13439 -1.34775 0 
1.22951 -0.889974 0 
0.97722 -0.947218 0 
1.2718 -1.39025 0 
0.776569 -1.84547 0 
1.16011 -1.12593 0 
0.415906 -1.74588 0 
1.22141 0.0954255 0 
1.08719 -0.174293 0 
0.914637 0.63567 0 
0.85246 -0.0283667 0 
1.09438 -0.380364 0 
1.07863 -0.528858 0 
0.893466 -0.214039 0 
0.897355 -0.284649 0 
0.941911 -0.757496 0 
0.902178 -0.792146 0 
0.762816 -0.689818 0 
0.595616 -0.694664 0 
1.07492 -0.850507 0 
0.327363 -1.41128 0 
0.573042 -0.688481 0 
0.270864 -1.11103 0 
1.4594 0.780114 0 
0.845249 0.191688 0 
0.691478 0.698333 0 
-0.0214099 0.744369 0 
0.754886 -0.202201 0 
0.942937 0.047464 0 
0.272303 0.408703 0 
0.26108 0.722876 0 
0.781452 -0.252135 0 
0.481548 -0.518758 0 
0.070182 0.398484 0 
0.337179 -0.209832 0 
0.419998 -0.64292 0 
0.146144 -1.13607 0 
0.248837 -0.129456 0 
-0.181514 -0.50688 0 
SCALARS mass double 1
LOOKUP_TABLE default
0.625
0.625
0.625
0.625
0.625
0.625
0.625
0.625
0.625
0.625
0.625
0.625
0.625
0.625
0.625
0.625
0.625
0.625
0.625
0.625
0.625
0.625
0.625
0.625
0.625
0.625
0.625
0.625
0.625
0.625
0.625
0.625
0.625
0.625
0.625
0.625
0.625
0.625
0.625
0.625
0.625
0.625
0.625
0.625
0.625
0.625
0.625
0.625
0.625
0.625
0.625
0.625
0.625
0.625
0.625
0.625
0.625
0.625
0.625
0.625
0.625
0.625
0.625
0.625
SCALARS volume double 1
LOOKUP_TABLE default
0.000617509
0.000618535
0.000625639
0.000622478
0.000613624
0.000629128
0.000611547
0.000617591
0.000627204
0.000629659
0.000624274
0.000623823
0.000623958
0.000629948
0.000624521
0.000621793
0.000575017
0.000663045
0.000644567
0.000642277
0.000578296
0.000606086
0.000628234
0.00066688
0.000636902
0.000636059
0.000649041
0.000619502
0.000617643
0.000638524
0.000631863
0.000637777
0.000619665
0.000631032
0.000623868
0.000602011
0.000607262
0.000616299
0.000629703
0.000642405
0.000597346
0.000623105
0.000634519
0.000627232
0.000642314
0.000627658
0.000626091
0.000634777
0.000641336
0.000613964
0.000648954
0.000619223
0.000620654
0.000629355
0.000616682
0.000605591
0.000630234
0.000618467
0.000623387
0.000615044
0.000614342
0.000630521
0.000620598
0.000621758
VECTORS momentum double
1.34694 -0.383596 0 
1.0433 -0.670406 0 
1.04209 -0.0762072 0 
1.15419 -0.536726 0 
1.02626 -0.526625 0 
1.11741 -0.694695 0 
1.02112 -0.329401 0 
0.795534 -0.428325 0 
1.05527 -0.828412 0 
0.832959 -0.971084 0 
0.763582 -0.546209 0 
0.78367 -0.638781 0 
1.02588 -1.19601 0 
0.696726 -1.1434 0 
0.813401 -0.703154 0 
0.464343 -1.04562 0 
1.13525 -0.542406 0 
0.723956 -0.518734 0 
1.26215 -0.270769 0 
0.916693 -0.246059 0 
0.911679 -0.514348 0 
0.949129 -0.614286 0 
0.842506 -0.423998 0 
0.849703 -0.536436 0 
0.865947 -0.811073 0 
0.708997 -0.842346 0 
0.768444 -0.556234 0 
0.610762 -0.592011 0 
0.794874 -0.868904 0 
0.485355 -1.15342 0 
0.725066 -0.703703 0 
0.259941 -1.09118 0 
0.76338 0.0596409 0 
0.679494 -0.108933 0 
0.571648 0.397294 0 
0.532788 -0.0177292 0 
0.683988 -0.237727 0 
0.674144 -0.330536 0 
0.558416 -0.133775 0 
0.560847 -0.177906 0 
0.588694 -0.473435 0 
0.563861 -0.495091 0 
0.47676 -0.431136 0 
0.37226 -0.434165 0 
0.671823 -0.531567 0 
0.204602 -0.882053 0 
0.358151 -0.4303 0 
0.16929 -0.694395 0 
0.912122 0.487571 0 
0.528281 0.119805 0 
0.432174 0.436458 0 
-0.0133812 0.465231 0 
0.471804 -0.126375 0 
0.589335 0.029665 0 
0.170189 0.255439 0 
0.163175 0.451798 0 
0.488408 -0.157585 0 
0.300968 -0.324224 0 
0.0438638 0.249053 0 
0.210737 -0.131145 0 
0.262499 -0.401825 0 
0.0913402 -0.710042 0 
0.155523 -0.0809103 0 
-0.113446 -0.3168 0 
VECTORS body_force double
0 -9.81 0 
0 -9.81 0 
0 -9.81 0 
0 -9.81 0 
0 -9.81 0 
0 -9.81 0 
0 -9.81 0 
0 -9.81 0 
0 -9.81 0 
0 -9.81 0 
0 -9.81 0 
0 -9.81 0 
0 -9.81 0 
0 -9.81 0 
0 -9.81 0 
0 -9.81 0 
0 -9.81 0 
0 -9.81 0 
0 -9.81 0 
0 -9.81 0 
0 -9.81 0 
0 -9.81 0 
0 -9.81 0 
0 -9.81 0 
0 -9.81 0 
0 -9.81 0 
0 -9.81 0 
0 -9.81 0 
0 -9.81 0 
0 -9.81 0 
0 -9.81 0 
0 -9.81 0 
0 -9.81 0 
0 -9.81 0 
0 -9.81 0 
0 -9.81 0 
0 -9.81 0 
0 -9.81 0 
0 -9.81 0 
0 -9.81 0 
0 -9.81 0 
0 -9.81 0 
0 -9.81 0 
0 -9.81 0 
0 -9.81 0 
0 -9.81 0 
0 -9.81 0 
0 -9.81 0 
0 -9.81 0 
0 -9.81 0 
0 -9.81 0 
0 -9.81 0 
0 -9.81 0 
0 -9.81 0 
0 -9.81 0 
0 -9.81 0 
0 -9.81 0 
0 -9.81 0 
0 -9.81 0 
0 -9.81 0 
0 -9.81 0 
0 -9.81 0 
0 -9.81 0 
0 -9.81 0 
TENSORS cauchy_stress double
-2236.53 513.811 0
513.811 -82.2551 0
0 0 0

226.373 3177.76 0
3177.76 -2226.05 0
0 0 0

-3290.23 5546.1 0
5546.1 3486.82 0
0 0 0

-1543.48 -1182.81 0
-1182.81 765.812 0
0 0 0

-1537.31 2354.12 0
2354.12 -1995.4 0
0 0 0

1549.1 -1253.54 0
-1253.54 -283.071 0
0 0 0

-7128.61 1346.45 0
1346.45 2943.89 0
0 0 0

-2134.67 479.787 0
479.787 -158.544 0
0 0 0

400.377 -57.7969 0
-57.7969 276.446 0
0 0 0

356.581 -90.3312 0
-90.3312 1071.74 0
0 0 0

-3019.31 -2012.26 0
-2012.26 2795.9 0
0 0 0

-784.139 96.3292 0
96.3292 421.607 0
0 0 0

2221.59 612.212 0
612.212 -2542.61 0
0 0 0

151.366 -12.0398 0
-12.0398 1365.12 0
0 0 0

-129.175 565.147 0
565.147 -18.2206 0
0 0 0

-2617.78 197.556 0
197.556 1628.43 0
0 0 0

-5033.19 -2552.58 0
-2552.58 -10996 0
0 0 0

5395.97 -4044.25 0
-4044.25 5967.66 0
0 0 0

1895.85 -1121.6 0
-1121.6 4032.33 0
0 0 0

1906.91 206.139 0
206.139 3336.84 0
0 0 0

-6990.88 -411.235 0
-411.235 -7944.69 0
0 0 0

1591.73 -2013.59 0
-2013.59 -7501.18 0
0 0 0

2533.91 1612.65 0
1612.65 -1541.52 0
0 0 0

6812.15 3177.72 0
3177.72 5660.72 0
0 0 0

1703.83 2659.87 0
2659.87 1923.97 0
0 0 0

2236.87 1256.31 0
1256.31 1136.08 0
0 0 0

1473.89 2893.13 0
2893.13 5784.61 0
0 0 0

2029.26 -47.0994 0
-47.0994 -3728.33 0
0 0 0

-416.137 1952.7 0
1952.7 -1861.09 0
0 0 0

3804.8 1920.83 0
1920.83 312.102 0
0 0 0

-1172 3203.02 0
3203.02 3272.31 0
0 0 0

1550.08 1645.46 0
1645.46 2341.56 0
0 0 0

-2575.43 -1632 0
-1632 926.78 0
0 0 0

2590.29 602.123 0
602.123 -743.233 0
0 0 0

-1383.95 982.594 0
982.594 1035.43 0
0 0 0

-485.848 832.703 0
832.703 -6720.98 0
0 0 0

-1555.04 367.055 0
367.055 -3981.73 0
0 0 0

366.871 -811.254 0
-811.254 -3062.8 0
0 0 0

4218.16 -335.591 0
-335.591 -2776.6 0
0 0 0

7109.67 90.5387 0
90.5387 -1827.54 0
0 0 0

-3856.18 374.921 0
374.921 -4846.76 0
0 0 0

895.644 1895.7 0
1895.7 -1479.49 0
0 0 0

2526.34 2180.84 0
2180.84 380.411 0
0 0 0

1541.31 888.001 0
888.001 -855.639 0
0 0 0

1136.29 1465.21 0
1465.21 4118.55 0
0 0 0

1520.85 -1325.62 0
-1325.62 -704.826 0
0 0 0

960.895 377.998 0
377.998 -625.424 0
0 0 0

728.443 1484.41 0
1484.41 2256.71 0
0 0 0

1082.46 1955.85 0
1955.85 3879.54 0
0 0 0

-1027.78 114.631 0
114.631 -2398.29 0
0 0 0

5437.53 2099.86 0
2099.86 1795.12 0
0 0 0

947.906 643.195 0
643.195 -2733.84 0
0 0 0

-3205.74 903.136 0
903.136 1863.87 0
0 0 0

1509.59 528.701 0
528.701 -174.365 0
0 0 0

-1151.06 -1037.19 0
-1037.19 -1425.46 0
0 0 0

-1803.13 1595.45 0
1595.45 -4263.56 0
0 0 0

3529.19 -1070.03 0
-1070.03 -1925.44 0
0 0 0

-49.4042 -657.247 0
-657.247 -1971.36 0
0 0 0

55.7213 1610.93 0
1610.93 -552.795 0
0 0 0

-2689.97 1231.45 0
1231.45 -398.136 0
0 0 0

-896.334 -379.076 0
-379.076 -2411.39 0
0 0 0

-1474.4 821.517 0
821.517 3165.76 0
0 0 0

1162.51 608.571 0
608.571 -2521.8 0
0 0 0

-1285.11 1787.04 0
1787.04 284.879 0
0 0 0

TENSORS velocity_gradient double
1.38063 -9.05851 0
2.8433 -0.508251 0
0 0 0

0.518043 -5.99583 0
3.31363 -1.20234 0
0 0 0

0.402853 -5.82726 0
3.29705 -0.0285465 0
0 0 0

0.294354 -5.07312 0
3.90843 -0.712191 0
0 0 0

0.736437 -4.84426 0
5.05274 -1.97328 0
0 0 0

0.554349 -4.61621 0
5.46427 -2.48868 0
0 0 0

0.276098 -5.00234 0
4.79592 -1.44736 0
0 0 0

0.313235 -4.55554 0
5.97043 -1.77589 0
0 0 0

-0.240718 -4.35367 0
8.88025 -2.61563 0
0 0 0

0.0882892 -4.93919 0
9.93868 -0.886754 0
0 0 0

0.115444 -4.25769 0
6.3044 -2.11508 0
0 0 0

0.627341 -4.29373 0
8.01281 -2.03139 0
0 0 0

0.791009 -5.76666 0
8.69527 0.577373 0
0 0 0

1.1652 -6.03195 0
4.1633 -1.37208 0
0 0 0

1.15931 -7.79555 0
7.56359 -1.7866 0
0 0 0

0.5339 -7.5601 0
7.18269 -1.63926 0
0 0 0

1.19615 -6.71703 0
7.23947 1.95509 0
0 0 0

0.232898 -5.12412 0
4.65222 -0.0949109 0
0 0 0

-1.96285 -9.66619 0
10.4962 4.99553 0
0 0 0

-3.60596 -8.55117 0
12.1649 2.78552 0
0 0 0

-0.351724 -6.27314 0
5.65883 0.278019 0
0 0 0

-0.797522 -4.92282 0
6.65589 -1.17624 0
0 0 0

-1.74704 -7.62123 0
7.14053 1.70957 0
0 0 0

-2.99784 -6.1244 0
8.46877 0.120062 0
0 0 0

-0.120393 -4.46016 0
6.6926 -1.78181 0
0 0 0

-0.197499 -9.04262 0
7.45249 -1.19704 0
0 0 0

-1.80273 -8.63559 0
8.48397 1.66384 0
0 0 0

-0.0377927 -8.88982 0
9.03472 0.31671 0
0 0 0

0.443905 -8.93504 0
7.36773 -2.22202 0
0 0 0

-0.195534 -8.28377 0
6.8416 -1.97766 0
0 0 0

0.10382 -9.04676 0
10.4377 -1.23805 0
0 0 0

-0.739044 -8.1832 0
7.79522 0.821809 0
0 0 0

-3.73963 -8.42744 0
12.4507 3.17839 0
0 0 0

-3.66921 -8.50062 0
12.6328 2.98911 0
0 0 0

0.226483 -8.79997 0
13.2127 1.58634 0
0 0 0

-3.60092 -8.42698 0
12.8095 3.1796 0
0 0 0

-3.55603 -8.52511 0
12.4032 2.75266 0
0 0 0

-3.32929 -7.30071 0
9.41367 2.59291 0
0 0 0

-3.91226 -7.56981 0
12.7305 2.49882 0
0 0 0

-4.18016 -6.97799 0
11.9776 2.76645 0
0 0 0

-2.66575 -8.03471 0
9.75106 2.2197 0
0 0 0

-0.865685 -8.64864 0
10.3313 1.63534 0
0 0 0

-1.98494 -7.33734 0
10.0972 2.57429 0
0 0 0

-1.38737 -8.89063 0
10.5239 0.728719 0
0 0 0

-0.0417215 -9.03607 0
11.0176 0.517871 0
0 0 0

-0.440164 -8.63692 0
10.753 0.782889 0
0 0 0

-0.619769 -9.27814 0
10.8665 0.375856 0
0 0 0

-0.79052 -8.95885 0
10.5192 0.698965 0
0 0 0

-0.58791 -9.63087 0
9.84808 -1.84649 0
0 0 0

-1.55146 -9.1172 0
8.42622 1.84964 0
0 0 0

-4.12047 -11.2792 0
6.47197 0.931179 0
0 0 0

-2.74227 -10.2164 0
7.99382 1.45052 0
0 0 0

-4.53042 -8.20146 0
12.4485 2.21072 0
0 0 0

-5.10269 -7.51514 0
12.1903 2.50709 0
0 0 0

-3.53052 -8.05516 0
7.58941 2.11733 0
0 0 0

-4.64644 -5.72727 0
12.5515 3.09033 0
0 0 0

-4.07052 -7.61556 0
12.0975 1.78879 0
0 0 0

-0.819026 -8.31301 0
11.0185 1.23138 0
0 0 0

-3.76166 -6.73302 0
13.1579 2.40103 0
0 0 0

-2.0261 -7.18698 0
12.9029 0.866251 0
0 0 0

-0.255127 -8.64684 0
11.381 0.690448 0
0 0 0

-0.0949121 -7.93353 0
10.4839 1.82831 0
0 0 0

0.411001 -6.54375 0
10.353 -1.19951 0
0 0 0

1.14928 -7.22735 0
8.60761 0.416583 0
0 0 0

SCALARS active double 1
LOOKUP_TABLE default
1
1
1
1
1
1
1
1
1
1
1
1
1
1
1
1
1
1
1
1
1
1
1
1
1
1
1
1
1
1
1
1
1
1
1
1
1
1
1
1
1
1
1
1
1
1
1
1
1
1
1
1
1
1
1
1
1
1
1
1
1
1
1
1
SCALARS extent double 1
LOOKUP_TABLE default
0.0125
0.0125
0.0125
0.0125
0.0125
0.0125
0.0125
0.0125
0.0125
0.0125
0.0125
0.0125
0.0125
0.0125
0.0125
0.0125
0.0125
0.0125
0.0125
0.0125
0.0125
0.0125
0.0125
0.0125
0.0125
0.0125
0.0125
0.0125
0.0125
0.0125
0.0125
0.0125
0.0125
0.0125
0.0125
0.0125
0.0125
0.0125
0.0125
0.0125
0.0125
0.0125
0.0125
0.0125
0.0125
0.0125
0.0125
0.0125
0.0125
0.0125
0.0125
0.0125
0.0125
0.0125
0.0125
0.0125
0.0125
0.0125
0.0125
0.0125
0.0125
0.0125
0.0125
0.0125
SCALARS pressure double 1
LOOKUP_TABLE default
1159.39
999.839
-98.2914
388.836
1766.35
-633.013
2092.36
1146.61
-338.412
-714.16
111.708
181.266
160.508
-758.244
73.6976
494.678
8014.6
-5681.82
-2964.09
-2621.88
7467.78
2954.73
-496.196
-6236.44
-1813.9
-1686.47
-3629.25
849.534
1138.61
-2058.45
-1050.15
-1945.82
824.325
-923.531
174.258
3603.41
2768.38
1347.97
-720.781
-2641.06
4351.47
291.926
-1453.38
-342.834
-2627.42
-408.012
-167.735
-1492.58
-2481
1713.04
-3616.33
892.965
670.931
-667.612
1288.26
3033.35
-801.877
1010.38
248.537
1544.05
1653.86
-845.68
679.642
500.115
SCALARS density double 1
LOOKUP_TABLE default
1012.13
1010.45
998.978
1004.05
1018.54
993.438
1022
1012
996.487
992.6
1001.16
1001.89
1001.67
992.145
1000.77
1005.16
1086.92
942.621
969.644
973.101
1080.76
1031.21
994.853
937.2
981.312
982.614
962.959
1008.87
1011.91
978.82
989.138
979.967
1008.61
990.441
1001.81
1038.19
1029.21
1014.12
992.532
972.907
1046.29
1003.04
984.999
996.441
973.045
995.766
998.257
984.597
974.528
1017.98
963.089
1009.33
1007
993.081
1013.49
1032.05
991.695
1010.56
1002.59
1016.19
1017.35
991.243
1007.09
1005.21
