# vtk DataFile Version 3.0
Frame: 25, Time: 0.425
ASCII
DATASET UNSTRUCTURED_GRID
POINTS 64 double
0.892945 0.0899835 0 
0.869117 0.0933369 0 
0.896202 0.115742 0 
0.871793 0.118612 0 
0.843588 0.0958012 0 
0.819471 0.095936 0 
0.846187 0.121421 0 
0.821913 0.123147 0 
0.793577 0.0982435 0 
0.768409 0.103954 0 
0.797996 0.125292 0 
0.774223 0.130124 0 
0.745535 0.108132 0 
0.720282 0.108293 0 
0.750077 0.133766 0 
0.723848 0.133572 0 
0.898533 0.141453 0 
0.87377 0.144251 0 
0.90474 0.165739 0 
0.880147 0.169454 0 
0.849843 0.146899 0 
0.825431 0.148734 0 
0.855432 0.17205 0 
0.830198 0.173368 0 
0.801469 0.150968 0 
0.779089 0.154097 0 
0.806328 0.176429 0 
0.782286 0.180136 0 
0.754888 0.156998 0 
0.728792 0.158966 0 
0.757822 0.181511 0 
0.73368 0.184296 0 
0.908211 0.191539 0 
0.882915 0.193998 0 
0.916108 0.216963 0 
0.886845 0.218692 0 
0.857674 0.197112 0 
0.832422 0.199558 0 
0.859757 0.220569 0 
0.833677 0.224666 0 
0.807585 0.203093 0 
0.78365 0.206764 0 
0.809653 0.227907 0 
0.785746 0.231597 0 
0.759603 0.20749 0 
0.735871 0.210199 0 
0.761888 0.233934 0 
0.738364 0.236606 0 
0.916644 0.242452 0 
0.889193 0.241954 0 
0.911147 0.269353 0 
0.88951 0.266996 0 
0.863586 0.243786 0 
0.838542 0.249364 0 
0.866616 0.268974 0 
0.842384 0.273983 0 
0.814564 0.252895 0 
0.789786 0.256931 0 
0.81918 0.276993 0 
0.795008 0.281403 0 
0.765343 0.261218 0 
0.740878 0.262748 0 
0.769705 0.287279 0 
0.744594 0.289482 0 
CELLS 64 128
1 0
1 1
1 2
1 3
1 4
1 5
1 6
1 7
1 8
1 9
1 10
1 11
1 12
1 13
1 14
1 15
1 16
1 17
1 18
1 19
1 20
1 21
1 22
1 23
1 24
1 25
1 26
1 27
1 28
1 29
1 30
1 31
1 32
1 33
1 34
1 35
1 36
1 37
1 38
1 39
1 40
1 41
1 42
1 43
1 44
1 45
1 46
1 47
1 48
1 49
1 50
1 51
1 52
1 53
1 54
1 55
1 56
1 57
1 58
1 59
1 60
1 61
1 62
1 63
CELL_TYPES 64
1
1
1
1
1
1
1
1
1
1
1
1
1
1
1
1
1
1
1
1
1
1
1
1
1
1
1
1
1
1
1
1
1
1
1
1
1
1
1
1
1
1
1
1
1
1
1
1
1
1
1
1
1
1
1
1
1
1
1
1
1
1
1
1
POINT_DATA 64
VECTORS displacement double
0.280445 -0.222516 0 
0.256617 -0.244163 0 
0.258702 -0.196758 0 
0.234293 -0.218888 0 
0.231088 -0.266699 0 
0.206971 -0.291564 0 
0.208687 -0.241079 0 
0.184413 -0.264353 0 
0.181077 -0.314256 0 
0.155909 -0.333546 0 
0.160496 -0.287208 0 
0.136723 -0.307376 0 
0.133035 -0.354368 0 
0.107782 -0.379207 0 
0.112577 -0.328734 0 
0.0863481 -0.353928 0 
0.236033 -0.171047 0 
0.21127 -0.193249 0 
0.21724 -0.146761 0 
0.192647 -0.168046 0 
0.187343 -0.215601 0 
0.162931 -0.238766 0 
0.167932 -0.19045 0 
0.142698 -0.214132 0 
0.138969 -0.261532 0 
0.116589 -0.283403 0 
0.118828 -0.236071 0 
0.0947856 -0.257364 0 
0.0923883 -0.305502 0 
0.066292 -0.328534 0 
0.0703222 -0.280989 0 
0.0461797 -0.303204 0 
0.195711 -0.120961 0 
0.170415 -0.143502 0 
0.178608 -0.0955371 0 
0.149345 -0.118808 0 
0.145174 -0.165388 0 
0.119922 -0.187942 0 
0.122257 -0.141931 0 
0.0961766 -0.162834 0 
0.0950849 -0.209407 0 
0.0711503 -0.230736 0 
0.0721533 -0.184593 0 
0.0482459 -0.205903 0 
0.0471032 -0.25501 0 
0.0233707 -0.277301 0 
0.024388 -0.228566 0 
0.000863793 -0.250894 0 
0.154144 -0.0700482 0 
0.126693 -0.0955459 0 
0.123647 -0.0431466 0 
0.10201 -0.0705041 0 
0.101086 -0.118714 0 
0.0760424 -0.138136 0 
0.0791163 -0.0935262 0 
0.0548839 -0.113517 0 
0.0520643 -0.159605 0 
0.0272861 -0.180569 0 
0.0316796 -0.135507 0 
0.007508 -0.156097 0 
0.00284317 -0.201282 0 
-0.0216223 -0.224752 0 
-0.0177948 -0.175221 0 
-0.0429056 -0.198018 0 
VECTORS velocity double
-2.66671 -0.243658 0 
-2.2788 -0.177559 0 
-2.16938 -0.348997 0 
-2.2983 0.0954044 0 
-2.09239 -0.124301 0 
-1.86077 -0.481138 0 
-1.86175 -0.23118 0 
-2.05513 -0.379802 0 
-1.82013 -0.559041 0 
-2.02469 -0.80031 0 
-2.12808 0.0709132 0 
-2.03607 0.141761 0 
-1.72239 -0.556326 0 
-2.0293 0.667452 0 
-2.03392 0.251784 0 
-1.69109 0.60894 0 
-2.17349 -0.797931 0 
-2.54345 0.488568 0 
-2.45726 -0.757515 0 
-2.1594 0.418734 0 
-2.20527 0.00165282 0 
-2.23196 -0.213888 0 
-2.28888 0.321717 0 
-2.49832 -0.00558549 0 
-1.71578 0.0922077 0 
-1.26733 -0.167258 0 
-2.05468 0.273894 0 
-1.46994 0.120849 0 
-1.28441 -0.665744 0 
-1.02477 0.115832 0 
-1.09111 -0.358904 0 
-1.08122 0.42177 0 
-2.7608 -1.48204 0 
-1.42827 0.457094 0 
-0.998576 -0.562446 0 
-1.71383 0.53779 0 
-1.09228 0.426143 0 
-1.26911 0.00656632 0 
-1.1898 0.144165 0 
-0.971694 0.132409 0 
-1.29469 0.291628 0 
-1.13452 0.0803591 0 
-0.630241 0.325165 0 
-0.673646 -0.285844 0 
-0.968765 0.203578 0 
-0.825393 0.415565 0 
-1.06055 -0.129299 0 
-0.686483 -0.151206 0 
-0.451394 -0.955622 0 
-1.86273 0.138287 0 
0.426984 0.237949 0 
-0.367363 0.280099 0 
-1.42548 -0.269729 0 
-0.474389 0.374958 0 
-0.394867 0.0607515 0 
-0.262161 0.0854528 0 
-0.391199 0.483171 0 
-0.426911 0.000734759 0 
-0.530051 0.425698 0 
-0.603754 0.0734631 0 
-0.542891 0.114338 0 
-0.243637 0.0489599 0 
-1.07845 -0.311919 0 
-1.04099 -0.0856043 0 
SCALARS mass double 1
LOOKUP_TABLE default
0.625
0.625
0.625
0.625
0.625
0.625
0.625
0.625
0.625
0.625
0.625
0.625
0.625
0.625
0.625
0.625
0.625
0.625
0.625
0.625
0.625
0.625
0.625
0.625
0.625
0.625
0.625
0.625
0.625
0.625
0.625
0.625
0.625
0.625
0.625
0.625
0.625
0.625
0.625
0.625
0.625
0.625
0.625
0.625
0.625
0.625
0.625
0.625
0.625
0.625
0.625
0.625
0.625
0.625
0.625
0.625
0.625
0.625
0.625
0.625
0.625
0.625
0.625
0.625
SCALARS volume double 1
LOOKUP_TABLE default
0.000623122
0.000614498
0.000619511
0.000618623
0.000610212
0.000635216
0.00061091
0.00061528
0.00062535
0.000626055
0.000621092
0.000600063
0.000621852
0.000629107
0.000622151
0.000632794
0.000625198
0.000638839
0.000636102
0.000614035
0.000597745
0.000578419
0.000640833
0.000604391
0.000589685
0.000588382
0.000650454
0.000628924
0.000605278
0.000643256
0.000615209
0.000633159
0.000608149
0.000606717
0.000708037
0.000654263
0.000621708
0.000639177
0.000613311
0.00062348
0.000630059
0.000612195
0.000602771
0.00060072
0.000594314
0.000617856
0.000629955
0.000634891
0.000660491
0.000621348
0.00048786
0.000569402
0.000602318
0.000614777
0.00062459
0.000622384
0.000598014
0.000618375
0.000593848
0.000626186
0.000631533
0.000625869
0.000629562
0.00064924
VECTORS momentum double
-1.66669 -0.152286 0 
-1.42425 -0.110974 0 
-1.35586 -0.218123 0 
-1.43644 0.0596278 0 
-1.30774 -0.0776884 0 
-1.16298 -0.300711 0 
-1.1636 -0.144487 0 
-1.28445 -0.237376 0 
-1.13758 -0.3494 0 
-1.26543 -0.500193 0 
-1.33005 0.0443207 0 
-1.27254 0.0886009 0 
-1.07649 -0.347704 0 
-1.26831 0.417157 0 
-1.2712 0.157365 0 
-1.05693 0.380588 0 
-1.35843 -0.498707 0 
-1.58966 0.305355 0 
-1.53579 -0.473447 0 
-1.34963 0.261708 0 
-1.3783 0.00103301 0 
-1.39497 -0.13368 0 
-1.43055 0.201073 0 
-1.56145 -0.00349093 0 
-1.07236 0.0576298 0 
-0.792083 -0.104536 0 
-1.28418 0.171184 0 
-0.91871 0.0755305 0 
-0.802759 -0.41609 0 
-0.64048 0.0723948 0 
-0.681944 -0.224315 0 
-0.675764 0.263606 0 
-1.7255 -0.926275 0 
-0.892669 0.285684 0 
-0.62411 -0.351529 0 
-1.07114 0.336119 0 
-0.682675 0.266339 0 
-0.793196 0.00410395 0 
-0.743622 0.090103 0 
-0.607309 0.0827555 0 
-0.809183 0.182268 0 
-0.709076 0.0502245 0 
-0.393901 0.203228 0 
-0.421029 -0.178652 0 
-0.605478 0.127236 0 
-0.515871 0.259728 0 
-0.662845 -0.0808118 0 
-0.429052 -0.0945038 0 
-0.282121 -0.597264 0 
-1.1642 0.0864292 0 
0.266865 0.148718 0 
-0.229602 0.175062 0 
-0.890925 -0.168581 0 
-0.296493 0.234349 0 
-0.246792 0.0379697 0 
-0.163851 0.053408 0 
-0.244499 0.301982 0 
-0.266819 0.000459224 0 
-0.331282 0.266061 0 
-0.377346 0.0459145 0 
-0.339307 0.0714611 0 
-0.152273 0.0306 0 
-0.674034 -0.19495 0 
-0.650619 -0.0535027 0 
VECTORS body_force double
0 -9.81 0 
0 -9.81 0 
0 -9.81 0 
0 -9.81 0 
0 -9.81 0 
0 -9.81 0 
0 -9.81 0 
0 -9.81 0 
0 -9.81 0 
0 -9.81 0 
0 -9.81 0 
0 -9.81 0 
0 -9.81 0 
0 -9.81 0 
0 -9.81 0 
0 -9.81 0 
0 -9.81 0 
0 -9.81 0 
0 -9.81 0 
0 -9.81 0 
0 -9.81 0 
0 -9.81 0 
0 -9.81 0 
0 -9.81 0 
0 -9.81 0 
0 -9.81 0 
0 -9.81 0 
0 -9.81 0 
0 -9.81 0 
0 -9.81 0 
0 -9.81 0 
0 -9.81 0 
0 -9.81 0 
0 -9.81 0 
0 -9.81 0 
0 -9.81 0 
0 -9.81 0 
0 -9.81 0 
0 -9.81 0 
0 -9.81 0 
0 -9.81 0 
0 -9.81 0 
0 -9.81 0 
0 -9.81 0 
0 -9.81 0 
0 -9.81 0 
0 -9.81 0 
0 -9.81 0 
0 -9.81 0 
0 -9.81 0 
0 -9.81 0 
0 -9.81 0 
0 -9.81 0 
0 -9.81 0 
0 -9.81 0 
0 -9.81 0 
0 -9.81 0 
0 -9.81 0 
0 -9.81 0 
0 -9.81 0 
0 -9.81 0 
0 -9.81 0 
0 -9.81 0 
0 -9.81 0 
TENSORS cauchy_stress double
-1766.4 1267.74 0
1267.74 1187.61 0
0 0 0

-2089.46 -1141.38 0
-1141.38 -1169.28 0
0 0 0

-2961.22 -4093.74 0
-4093.74 1264.92 0
0 0 0

-3286.9 -2658.36 0
-2658.36 1314.8 0
0 0 0

-2709.45 2886.41 0
2886.41 -1895.53 0
0 0 0

2643.6 2274.38 0
2274.38 474.447 0
0 0 0

-5670.21 -2969.97 0
-2969.97 1285.17 0
0 0 0

-7072.02 766.515 0
766.515 4057.8 0
0 0 0

-2453.78 -362.952 0
-362.952 2561.46 0
0 0 0

-4275.77 230.844 0
230.844 4600 0
0 0 0

-5842.05 -1392.02 0
-1392.02 4635.91 0
0 0 0

-5889.49 1188.29 0
1188.29 -1940.56 0
0 0 0

-2392.07 1621.22 0
1621.22 1420.94 0
0 0 0

503.633 2383.42 0
2383.42 755.939 0
0 0 0

329.125 3627.68 0
3627.68 -1207.65 0
0 0 0

29.3436 962.108 0
962.108 2353.85 0
0 0 0

358.531 -1925.75 0
-1925.75 -297.517 0
0 0 0

2452.18 1286.11 0
1286.11 1759.6 0
0 0 0

-1222.28 -957.146 0
-957.146 4608.44 0
0 0 0

-1564 2913.54 0
2913.54 -1839.83 0
0 0 0

-6424.97 3641.6 0
3641.6 -2149.44 0
0 0 0

-6557.81 8036.91 0
8036.91 -8337.06 0
0 0 0

108.604 775.194 0
775.194 4702.38 0
0 0 0

-5482.58 3235.71 0
3235.71 -965.541 0
0 0 0

-10402.5 3723.7 0
3723.7 -782.675 0
0 0 0

-9752.72 292.498 0
292.498 -1857.93 0
0 0 0

1629.11 192.03 0
192.03 6047.73 0
0 0 0

-4091.85 -1941.3 0
-1941.3 5295.57 0
0 0 0

-297.529 2875.91 0
2875.91 -5868.69 0
0 0 0

1528.96 855.5 0
855.5 4007.83 0
0 0 0

-1464.03 3897.46 0
3897.46 -1572.35 0
0 0 0

-1390.3 1055.99 0
1055.99 3884.62 0
0 0 0

-3645.33 493.417 0
493.417 -1610.7 0
0 0 0

-4185.78 -251.569 0
-251.569 -1523.79 0
0 0 0

21001 5306.2 0
5306.2 2988.47 0
0 0 0

9768.61 2720.55 0
2720.55 -969.091 0
0 0 0

405.212 -3654.85 0
-3654.85 -1420.7 0
0 0 0

-1038.59 -3395.24 0
-3395.24 5352.01 0
0 0 0

2263.74 -1459.54 0
-1459.54 -5894.31 0
0 0 0

-563.057 1962.77 0
1962.77 94.9365 0
0 0 0

-2118.66 -3188.48 0
-3188.48 3669.16 0
0 0 0

-6045.76 -5821.32 0
-5821.32 2064.96 0
0 0 0

-7948.73 1015.2 0
1015.2 984.316 0
0 0 0

-4082.22 2247.11 0
2247.11 -3537.43 0
0 0 0

-9937.27 -294.313 0
-294.313 255.888 0
0 0 0

-3481.06 -1175.46 0
-1175.46 1270.27 0
0 0 0

-5286.93 1823.55 0
1823.55 6805.53 0
0 0 0

-2712.25 3865.92 0
3865.92 5731.75 0
0 0 0

2080.09 -564.72 0
-564.72 8541.3 0
0 0 0

4630.03 3499.14 0
3499.14 -5757.12 0
0 0 0

-32976 -14701.9 0
-14701.9 -14663 0
0 0 0

-12967.7 329.561 0
329.561 -4948.58 0
0 0 0

-4430.81 -4041.81 0
-4041.81 -2678.19 0
0 0 0

-1051.53 756.531 0
756.531 -2119.92 0
0 0 0

-4709.75 -2532.31 0
-2532.31 4583.45 0
0 0 0

-3255.16 3141.04 0
3141.04 2448.54 0
0 0 0

-4250.9 -703.414 0
-703.414 -4236.92 0
0 0 0

-2192.48 -1972.66 0
-1972.66 143.277 0
0 0 0

-6065.27 5256.29 0
5256.29 -3767.02 0
0 0 0

1962.91 113.547 0
113.547 -1598.42 0
0 0 0

-3027.35 -70.8854 0
-70.8854 5027.12 0
0 0 0

-1433.14 -138.382 0
-138.382 1700.31 0
0 0 0

1039.75 4886.36 0
4886.36 358.877 0
0 0 0

-18.213 1516 0
1516 7335.72 0
0 0 0

TENSORS velocity_gradient double
-4.88241 1.65059 0
1.09707 0.283626 0
0 0 0

-5.9018 -0.264787 0
0.659084 1.97932 0
0 0 0

-1.63869 1.95129 0
-1.21578 -2.10636 0
0 0 0

-4.33062 0.949738 0
-2.5791 1.59949 0
0 0 0

-4.52523 -1.84406 0
1.98874 3.32876 0
0 0 0

-4.3019 -2.79582 0
2.29048 1.3724 0
0 0 0

-4.53451 -0.12169 0
0.268189 4.91959 0
0 0 0

-4.80291 0.542441 0
2.07164 6.07805 0
0 0 0

-0.60917 -1.4738 0
-1.8841 1.21495 0
0 0 0

-0.971481 4.44881 0
-2.44917 3.52308 0
0 0 0

-4.25877 1.67589 0
0.585766 6.58697 0
0 0 0

-4.24169 4.31954 0
-0.36495 4.93461 0
0 0 0

-1.20562 7.46503 0
-11.6426 2.31108 0
0 0 0

-1.05051 8.742 0
-15.5113 -0.85196 0
0 0 0

-3.7893 7.10104 0
-4.44054 2.77632 0
0 0 0

-2.19128 8.59112 0
-12.2616 -0.422166 0
0 0 0

-1.06808 1.90433 0
-5.32714 -2.50259 0
0 0 0

-2.93936 1.6303 0
-6.27421 1.39459 0
0 0 0

-2.29848 9.80406 0
-9.20402 1.15838 0
0 0 0

-3.76472 11.7086 0
-7.587 2.7173 0
0 0 0

-3.83312 3.29433 0
-3.82395 4.26634 0
0 0 0

-5.54018 5.37793 0
1.27224 4.75156 0
0 0 0

-3.90874 13.1995 0
-7.64288 3.29586 0
0 0 0

-4.97107 13.0266 0
1.612 3.04879 0
0 0 0

-5.6849 7.55571 0
1.19631 4.23131 0
0 0 0

-6.26273 9.77182 0
1.09793 3.20373 0
0 0 0

-4.86637 12.2129 0
1.68345 2.49359 0
0 0 0

-5.18041 11.1518 0
0.599073 2.69639 0
0 0 0

-6.302 9.82253 0
1.14438 3.34268 0
0 0 0

-2.69718 8.96896 0
-8.97876 0.90669 0
0 0 0

-5.11304 9.95432 0
0.566316 3.27861 0
0 0 0

-2.00356 9.09682 0
-5.67137 1.51636 0
0 0 0

-5.43277 9.41125 0
-13.504 0.619481 0
0 0 0

-5.21917 11.6673 0
-8.14632 2.61107 0
0 0 0

0.76242 23.4333 0
-13.1404 3.26675 0
0 0 0

-4.92463 15.7549 0
-7.46103 1.0097 0
0 0 0

-5.25481 13.5094 0
-8.11562 2.33743 0
0 0 0

-4.1494 13.5962 0
2.08568 1.55411 0
0 0 0

-4.86526 14.7888 0
-7.38661 -0.201449 0
0 0 0

-3.78163 14.2222 0
1.66775 -0.339348 0
0 0 0

-4.06795 13.4814 0
2.08597 0.847915 0
0 0 0

-3.39878 11.9616 0
0.524083 -0.448365 0
0 0 0

-3.74355 13.9417 0
1.59249 0.214985 0
0 0 0

-0.369387 12.1811 0
2.00169 -0.341349 0
0 0 0

-3.30853 9.01827 0
0.568103 -1.88401 0
0 0 0

-1.09028 7.09456 0
-3.51475 -2.63325 0
0 0 0

-0.0780802 9.2678 0
2.14378 -1.76231 0
0 0 0

0.170431 7.20428 0
-3.28006 -2.61282 0
0 0 0

11.2678 23.409 0
-10.6318 3.26096 0
0 0 0

-4.1002 15.8255 0
-6.42749 1.09814 0
0 0 0

14.5039 20.8817 0
-7.30826 12.2802 0
0 0 0

1.12345 17.8462 0
-1.84139 8.25272 0
0 0 0

-4.04109 14.9129 0
-6.35339 -0.0458933 0
0 0 0

-3.02252 9.86529 0
1.04267 -0.819064 0
0 0 0

1.6874 11.1605 0
-1.35839 2.5268 0
0 0 0

0.928883 4.83354 0
0.0248582 -1.46952 0
0 0 0

-2.67268 3.69694 0
0.923001 -0.140577 0
0 0 0

2.00083 -3.28729 0
3.5755 -0.22798 0
0 0 0

1.48663 0.540832 0
-0.108765 -0.441091 0
0 0 0

2.3946 -3.03542 0
4.40579 0.0284779 0
0 0 0

2.07427 -3.69573 0
3.87932 -1.91772 0
0 0 0

0.187666 -3.55494 0
-3.42395 -2.85534 0
0 0 0

2.51132 -3.62122 0
5.68741 -1.60946 0
0 0 0

-0.631138 -3.68631 0
-2.67122 -2.85918 0
0 0 0

SCALARS active double 1
LOOKUP_TABLE default
1
1
1
1
1
1
1
1
1
1
1
1
1
1
1
1
1
1
1
1
1
1
1
1
1
1
1
1
1
1
1
1
1
1
1
1
1
1
1
1
1
1
1
1
1
1
1
1
1
1
1
1
1
1
1
1
1
1
1
1
1
1
1
1
SCALARS extent double 1
LOOKUP_TABLE default
0.0125
0.0125
0.0125
0.0125
0.0125
0.0125
0.0125
0.0125
0.0125
0.0125
0.0125
0.0125
0.0125
0.0125
0.0125
0.0125
0.0125
0.0125
0.0125
0.0125
0.0125
0.0125
0.0125
0.0125
0.0125
0.0125
0.0125
0.0125
0.0125
0.0125
0.0125
0.0125
0.0125
0.0125
0.0125
0.0125
0.0125
0.0125
0.0125
0.0125
0.0125
0.0125
0.0125
0.0125
0.0125
0.0125
0.0125
0.0125
0.0125
0.0125
0.0125
0.0125
0.0125
0.0125
0.0125
0.0125
0.0125
0.0125
0.0125
0.0125
0.0125
0.0125
0.0125
0.0125
SCALARS pressure double 1
LOOKUP_TABLE default
289.395
1629.37
848.153
986.052
2302.49
-1559.02
2192.52
1507.11
-53.8419
-162.118
603.069
3915.02
485.562
-629.786
439.263
-1191.6
-30.5069
-2105.89
-1693.08
1701.92
4287.2
7447.44
-2405.49
3224.06
5592.57
5805.33
-3838.42
-601.857
3083.11
-2768.39
1518.19
-1247.16
2628.01
2854.79
-11994.7
-4399.76
507.744
-2156.71
1815.28
234.06
-775.249
1990.4
3482.2
3809.82
4840.69
1105.4
-759.304
-1509.75
-5310.7
563.544
23819.5
8958.16
3554.5
1585.73
63.1495
403.312
4243.91
1024.6
4916.14
-182.247
-999.883
-133.587
-699.311
-3658.75
SCALARS density double 1
LOOKUP_TABLE default
1003.01
1017.09
1008.86
1010.31
1024.23
983.917
1023.06
1015.8
999.44
998.315
1006.29
1041.56
1005.06
993.472
1004.58
987.684
999.683
978.337
982.546
1017.86
1045.6
1080.53
975.293
1034.1
1059.89
1062.24
960.867
993.76
1032.58
971.619
1015.91
987.113
1027.71
1030.13
882.722
955.274
1005.29
977.82
1019.06
1002.44
991.97
1020.92
1036.88
1040.42
1051.63
1011.56
992.134
984.421
946.266
1005.88
1281.1
1097.64
1037.66
1016.63
1000.66
1004.2
1045.13
1010.71
1052.46
998.106
989.655
998.612
992.754
962.664
