# vtk DataFile Version 3.0
Frame: 33, Time: 0.561
ASCII
DATASET UNSTRUCTURED_GRID
POINTS 64 double
0.159856 0.512732 0 
0.161939 0.488127 0 
0.135415 0.51186 0 
0.137759 0.487324 0 
0.162987 0.462377 0 
0.163882 0.436265 0 
0.138245 0.461934 0 
0.138537 0.436605 0 
0.162361 0.411669 0 
0.163501 0.386092 0 
0.137727 0.411119 0 
0.139017 0.384976 0 
0.165177 0.361296 0 
0.16497 0.334627 0 
0.139745 0.360475 0 
0.141308 0.333619 0 
0.110957 0.512027 0 
0.111457 0.486752 0 
0.0856282 0.511309 0 
0.0868424 0.486358 0 
0.112312 0.461941 0 
0.112364 0.436276 0 
0.0868509 0.461068 0 
0.0881162 0.435915 0 
0.11282 0.411575 0 
0.113938 0.385952 0 
0.088002 0.410222 0 
0.0885883 0.385497 0 
0.113738 0.361048 0 
0.11431 0.335136 0 
0.0885533 0.359756 0 
0.0901748 0.335693 0 
0.0601384 0.511222 0 
0.0612895 0.485697 0 
0.0351777 0.510195 0 
0.0358268 0.484568 0 
0.0613996 0.460354 0 
0.0626212 0.435033 0 
0.0363315 0.459941 0 
0.0371188 0.434362 0 
0.0635363 0.410371 0 
0.0634998 0.385666 0 
0.0382059 0.409284 0 
0.038251 0.384712 0 
0.0640519 0.360581 0 
0.0662696 0.335643 0 
0.0392697 0.358682 0 
0.0411466 0.333573 0 
0.00966157 0.509594 0 
0.011481 0.484265 0 
0.984717 0.508481 0 
0.98584 0.48258 0 
0.011007 0.458934 0 
0.0122969 0.433216 0 
0.985039 0.457502 0 
0.987422 0.431974 0 
0.0129844 0.408376 0 
0.0138626 0.383982 0 
0.987397 0.40743 0 
0.987895 0.38252 0 
0.0145117 0.358163 0 
0.0167996 0.332181 0 
0.988297 0.35755 0 
0.990364 0.332272 0 
CELLS 64 128
1 0
1 1
1 2
1 3
1 4
1 5
1 6
1 7
1 8
1 9
1 10
1 11
1 12
1 13
1 14
1 15
1 16
1 17
1 18
1 19
1 20
1 21
1 22
1 23
1 24
1 25
1 26
1 27
1 28
1 29
1 30
1 31
1 32
1 33
1 34
1 35
1 36
1 37
1 38
1 39
1 40
1 41
1 42
1 43
1 44
1 45
1 46
1 47
1 48
1 49
1 50
1 51
1 52
1 53
1 54
1 55
1 56
1 57
1 58
1 59
1 60
1 61
1 62
1 63
CELL_TYPES 64
1
1
1
1
1
1
1
1
1
1
1
1
1
1
1
1
1
1
1
1
1
1
1
1
1
1
1
1
1
1
1
1
1
1
1
1
1
1
1
1
1
1
1
1
1
1
1
1
1
1
1
1
1
1
1
1
1
1
1
1
1
1
1
1
POINT_DATA 64
VECTORS displacement double
-0.0526443 0.300232 0 
-0.0505612 0.250627 0 
-0.102085 0.29936 0 
-0.099741 0.249824 0 
-0.0495129 0.199877 0 
-0.0486177 0.148765 0 
-0.0992548 0.199434 0 
-0.0989634 0.149105 0 
-0.0501393 0.0991691 0 
-0.0489987 0.0485923 0 
-0.099773 0.0986195 0 
-0.0984831 0.0474759 0 
-0.0473229 -0.00120423 0 
-0.04753 -0.052873 0 
-0.0977547 -0.00202476 0 
-0.0961915 -0.0538808 0 
-0.151543 0.299527 0 
-0.151043 0.249252 0 
-0.201872 0.298809 0 
-0.200658 0.248858 0 
-0.150188 0.199441 0 
-0.150136 0.148776 0 
-0.200649 0.198568 0 
-0.199384 0.148415 0 
-0.14968 0.0990754 0 
-0.148562 0.0484522 0 
-0.199498 0.0977216 0 
-0.198912 0.0479969 0 
-0.148762 -0.00145166 0 
-0.14819 -0.0523639 0 
-0.198947 -0.00274375 0 
-0.197325 -0.0518075 0 
-0.252362 0.298722 0 
-0.251211 0.248197 0 
-0.302322 0.297695 0 
-0.301673 0.247068 0 
-0.2511 0.197854 0 
-0.249879 0.147533 0 
-0.301169 0.197441 0 
-0.300381 0.146862 0 
-0.248964 0.0978712 0 
-0.249 0.0481662 0 
-0.299294 0.0967837 0 
-0.299249 0.0472116 0 
-0.248448 -0.00191879 0 
-0.24623 -0.0518573 0 
-0.29823 -0.0038181 0 
-0.296353 -0.0539265 0 
-0.352838 0.297094 0 
-0.351019 0.246765 0 
-0.402783 0.295981 0 
-0.40166 0.24508 0 
-0.351493 0.196434 0 
-0.350203 0.145716 0 
-0.402461 0.195002 0 
-0.400078 0.144474 0 
-0.349516 0.095876 0 
-0.348637 0.0464819 0 
-0.400103 0.0949302 0 
-0.399605 0.0450197 0 
-0.347988 -0.00433737 0 
-0.3457 -0.0553187 0 
-0.399203 -0.00494986 0 
-0.397136 -0.0552282 0 
VECTORS velocity double
-0.127333 0.255133 0 
0.161187 0.198661 0 
-0.143545 -0.154752 0 
0.0992997 -0.214068 0 
-0.00134572 0.656743 0 
0.380583 -0.034997 0 
0.167932 -0.290346 0 
0.146841 -0.097256 0 
0.451219 0.549794 0 
0.663962 0.0786228 0 
0.326008 0.187199 0 
0.480248 -0.0272292 0 
0.68654 0.270787 0 
0.894628 0.498184 0 
0.601473 -0.0383773 0 
1.05878 -0.41522 0 
-0.00955272 -0.0986891 0 
0.45008 -0.0354394 0 
-0.31596 -0.130253 0 
0.204625 -0.180144 0 
0.0388333 0.0116488 0 
0.18682 -0.172502 0 
-0.125437 -0.0858833 0 
0.174938 -0.177121 0 
0.416964 -0.0942933 0 
0.548839 -0.545997 0 
0.711313 0.236428 0 
0.520704 -0.126441 0 
0.748481 0.104881 0 
0.867647 0.0621387 0 
0.627734 0.0757617 0 
0.801641 0.0532935 0 
-0.018418 -0.0949064 0 
0.319878 -0.248414 0 
-0.118271 -0.640958 0 
0.145431 -0.388192 0 
0.173509 -0.381098 0 
0.319048 -0.509988 0 
-0.0698394 -0.242377 0 
0.224766 -0.217279 0 
0.574489 -0.135055 0 
0.450742 -0.438815 0 
0.47259 -0.291115 0 
0.263523 -0.614673 0 
0.750057 -0.307391 0 
1.14913 -0.379588 0 
0.378769 -0.271954 0 
0.948081 -0.217927 0 
-0.136338 -0.261638 0 
0.335056 -0.477982 0 
-0.0951285 -0.808737 0 
0.229537 -0.603339 0 
-0.0619434 -0.434101 0 
0.376421 -0.395852 0 
0.0889108 -0.90675 0 
0.349606 -0.759112 0 
0.657468 -0.297655 0 
0.424049 -0.500332 0 
0.476741 -0.529021 0 
0.452169 -1.0659 0 
0.535116 -0.189481 0 
1.21012 -0.498173 0 
0.628522 -0.866862 0 
1.02714 -0.73233 0 
SCALARS mass double 1
LOOKUP_TABLE default
0.625
0.625
0.625
0.625
0.625
0.625
0.625
0.625
0.625
0.625
0.625
0.625
0.625
0.625
0.625
0.625
0.625
0.625
0.625
0.625
0.625
0.625
0.625
0.625
0.625
0.625
0.625
0.625
0.625
0.625
0.625
0.625
0.625
0.625
0.625
0.625
0.625
0.625
0.625
0.625
0.625
0.625
0.625
0.625
0.625
0.625
0.625
0.625
0.625
0.625
0.625
0.625
0.625
0.625
0.625
0.625
0.625
0.625
0.625
0.625
0.625
0.625
0.625
0.625
SCALARS volume double 1
LOOKUP_TABLE default
0.000625645
0.000623128
0.000611874
0.000617142
0.000627203
0.000622601
0.000651455
0.000605143
0.000637633
0.000621158
0.000643912
0.000618752
0.000641317
0.000613663
0.000641421
0.000642359
0.000637791
0.000600745
0.00062194
0.000628849
0.000645302
0.000633674
0.000632492
0.000619097
0.000615204
0.000610641
0.000605595
0.000633481
0.000617095
0.000620961
0.000631491
0.000619013
0.000624288
0.000638524
0.000629183
0.000622192
0.000607893
0.000644275
0.000630326
0.000614662
0.000634823
0.000606569
0.000642113
0.000611886
0.000623166
0.000641419
0.000645416
0.000604288
0.000625236
0.00061893
0.000624143
0.000622112
0.000638105
0.000614967
0.000625139
0.00062685
0.000628697
0.000617478
0.000627844
0.000622631
0.000627132
0.000638476
0.000633444
0.000621593
VECTORS momentum double
-0.0795831 0.159458 0 
0.100742 0.124163 0 
-0.0897157 -0.09672 0 
0.0620623 -0.133793 0 
-0.000841073 0.410464 0 
0.237864 -0.0218731 0 
0.104957 -0.181466 0 
0.0917759 -0.060785 0 
0.282012 0.343622 0 
0.414976 0.0491393 0 
0.203755 0.117 0 
0.300155 -0.0170183 0 
0.429087 0.169242 0 
0.559142 0.311365 0 
0.375921 -0.0239858 0 
0.661739 -0.259512 0 
-0.00597045 -0.0616807 0 
0.2813 -0.0221497 0 
-0.197475 -0.0814082 0 
0.127891 -0.11259 0 
0.0242708 0.00728052 0 
0.116762 -0.107814 0 
-0.0783982 -0.0536771 0 
0.109336 -0.110701 0 
0.260603 -0.0589333 0 
0.343024 -0.341248 0 
0.444571 0.147767 0 
0.32544 -0.0790258 0 
0.467801 0.0655508 0 
0.542279 0.0388367 0 
0.392334 0.0473511 0 
0.501026 0.0333084 0 
-0.0115113 -0.0593165 0 
0.199924 -0.155259 0 
-0.0739194 -0.400599 0 
0.0908941 -0.24262 0 
0.108443 -0.238186 0 
0.199405 -0.318742 0 
-0.0436496 -0.151486 0 
0.140479 -0.135799 0 
0.359056 -0.0844091 0 
0.281714 -0.274259 0 
0.295369 -0.181947 0 
0.164702 -0.384171 0 
0.468785 -0.192119 0 
0.718205 -0.237242 0 
0.236731 -0.169971 0 
0.592551 -0.136204 0 
-0.0852111 -0.163524 0 
0.20941 -0.298739 0 
-0.0594553 -0.505461 0 
0.143461 -0.377087 0 
-0.0387146 -0.271313 0 
0.235263 -0.247407 0 
0.0555693 -0.566719 0 
0.218504 -0.474445 0 
0.410917 -0.186035 0 
0.26503 -0.312708 0 
0.297963 -0.330638 0 
0.282606 -0.666188 0 
0.334447 -0.118425 0 
0.756323 -0.311358 0 
0.392826 -0.541789 0 
0.64196 -0.457706 0 
VECTORS body_force double
0 -9.81 0 
0 -9.81 0 
0 -9.81 0 
0 -9.81 0 
0 -9.81 0 
0 -9.81 0 
0 -9.81 0 
0 -9.81 0 
0 -9.81 0 
0 -9.81 0 
0 -9.81 0 
0 -9.81 0 
0 -9.81 0 
0 -9.81 0 
0 -9.81 0 
0 -9.81 0 
0 -9.81 0 
0 -9.81 0 
0 -9.81 0 
0 -9.81 0 
0 -9.81 0 
0 -9.81 0 
0 -9.81 0 
0 -9.81 0 
0 -9.81 0 
0 -9.81 0 
0 -9.81 0 
0 -9.81 0 
0 -9.81 0 
0 -9.81 0 
0 -9.81 0 
0 -9.81 0 
0 -9.81 0 
0 -9.81 0 
0 -9.81 0 
0 -9.81 0 
0 -9.81 0 
0 -9.81 0 
0 -9.81 0 
0 -9.81 0 
0 -9.81 0 
0 -9.81 0 
0 -9.81 0 
0 -9.81 0 
0 -9.81 0 
0 -9.81 0 
0 -9.81 0 
0 -9.81 0 
0 -9.81 0 
0 -9.81 0 
0 -9.81 0 
0 -9.81 0 
0 -9.81 0 
0 -9.81 0 
0 -9.81 0 
0 -9.81 0 
0 -9.81 0 
0 -9.81 0 
0 -9.81 0 
0 -9.81 0 
0 -9.81 0 
0 -9.81 0 
0 -9.81 0 
0 -9.81 0 
TENSORS cauchy_stress double
130.239 700.881 0
700.881 68.1328 0
0 0 0

-721.697 -740.72 0
-740.72 144.855 0
0 0 0

-3516.28 246.71 0
246.71 -565.423 0
0 0 0

1504.62 -1535.35 0
-1535.35 -3937.83 0
0 0 0

-94.7658 930.176 0
930.176 771.326 0
0 0 0

2029.1 -569.812 0
-569.812 -2768.62 0
0 0 0

2480.51 1375.16 0
1375.16 5491.81 0
0 0 0

-1082.3 963.198 0
963.198 -5126.65 0
0 0 0

553.223 -2376.32 0
-2376.32 3295.19 0
0 0 0

-75.328 2372.66 0
2372.66 -1110.46 0
0 0 0

499.505 -3843.81 0
-3843.81 5233.34 0
0 0 0

-1416.04 933.706 0
933.706 -516.168 0
0 0 0

2174.23 -1612.8 0
-1612.8 2781.85 0
0 0 0

-1707.02 278.247 0
278.247 -1813.31 0
0 0 0

3250.93 -1448.25 0
-1448.25 1736.36 0
0 0 0

2096.91 -160.466 0
-160.466 3171.6 0
0 0 0

2875.25 498.383 0
498.383 1020.63 0
0 0 0

-4427.68 -2634.41 0
-2634.41 -3184.21 0
0 0 0

-727.936 -1433 0
-1433 -216.067 0
0 0 0

1971.37 -1035.54 0
-1035.54 -790.599 0
0 0 0

3668.62 -371.352 0
-371.352 2478.97 0
0 0 0

2226.1 1558.79 0
1558.79 424.433 0
0 0 0

2178.7 1644.67 0
1644.67 112.916 0
0 0 0

-2770.16 -320.997 0
-320.997 945.319 0
0 0 0

-3278.62 543.869 0
543.869 240.481 0
0 0 0

-2596.24 -1221.15 0
-1221.15 -1873.32 0
0 0 0

-3024.24 -1968.85 0
-1968.85 -3041.12 0
0 0 0

1268.23 1245.1 0
1245.1 1323.86 0
0 0 0

-537.276 -506.037 0
-506.037 -1910.53 0
0 0 0

-1785.94 -645.438 0
-645.438 539.08 0
0 0 0

169.327 -2436.11 0
-2436.11 1817.66 0
0 0 0

1203.05 408.36 0
408.36 -3054.17 0
0 0 0

-191.876 64.4869 0
64.4869 -27.1865 0
0 0 0

2162.2 -296.613 0
-296.613 1954.62 0
0 0 0

529.898 -305.975 0
-305.975 752.942 0
0 0 0

174.143 -732.264 0
-732.264 -1040.21 0
0 0 0

-3843.68 2000.28 0
2000.28 -1493.27 0
0 0 0

5314.05 -2404.44 0
-2404.44 527.193 0
0 0 0

1170.81 1064 0
1064 460.924 0
0 0 0

-1667 -160.085 0
-160.085 -1540.44 0
0 0 0

1171.69 3319.3 0
3319.3 1827.13 0
0 0 0

282.299 -781.613 0
-781.613 -6038.82 0
0 0 0

2308.27 50.8763 0
50.8763 2886.45 0
0 0 0

-1642.87 1114.19 0
1114.19 -2435.22 0
0 0 0

-1595.47 -85.2146 0
-85.2146 1030.44 0
0 0 0

-507.47 -410.224 0
-410.224 5494.15 0
0 0 0

-235.833 -1324.25 0
-1324.25 6417.21 0
0 0 0

359.114 123.187 0
123.187 -6840.09 0
0 0 0

192.991 540.731 0
540.731 -120.426 0
0 0 0

-2641.56 569.248 0
569.248 764.871 0
0 0 0

-62.074 382.676 0
382.676 -201.887 0
0 0 0

203.137 119.507 0
119.507 -1093.81 0
0 0 0

2936.11 1191.09 0
1191.09 1054.59 0
0 0 0

-1768.14 311.073 0
311.073 -1344.14 0
0 0 0

-860.608 -64.5978 0
-64.5978 903.508 0
0 0 0

360.021 465.435 0
465.435 208.385 0
0 0 0

765.707 178.979 0
178.979 368.531 0
0 0 0

-516.608 2781.78 0
2781.78 -1811.8 0
0 0 0

1037.63 -875.814 0
-875.814 -164.423 0
0 0 0

-1032.44 431.177 0
431.177 302.255 0
0 0 0

-271.891 100.23 0
100.23 926.811 0
0 0 0

272.164 -562.63 0
-562.63 3830.08 0
0 0 0

1050.62 -883.801 0
-883.801 1530.22 0
0 0 0

1.83383 370.922 0
370.922 -1053.01 0
0 0 0

TENSORS velocity_gradient double
-0.149181 -4.16063 0
4.23983 -0.0774757 0
0 0 0

0.103162 -2.94073 0
5.03134 -0.655249 0
0 0 0

-0.410379 -3.76095 0
3.21718 0.294267 0
0 0 0

-0.131544 -2.83181 0
3.30469 -0.292716 0
0 0 0

0.0933418 -2.94036 0
5.51127 -0.673359 0
0 0 0

-0.00477173 -5.72647 0
4.96316 -0.106763 0
0 0 0

0.102272 -2.83562 0
3.59671 -0.297479 0
0 0 0

0.111144 -5.90633 0
3.91997 -0.705648 0
0 0 0

-0.170416 -5.73767 0
3.58706 -0.199802 0
0 0 0

-0.236619 -5.6756 0
3.99072 0.227374 0
0 0 0

-0.0805421 -5.91355 0
4.27373 -0.692326 0
0 0 0

-0.00499122 -5.54324 0
3.74935 0.674266 0
0 0 0

-0.216344 -5.67686 0
5.84304 0.112694 0
0 0 0

0.368121 -4.1488 0
6.44072 -0.0391685 0
0 0 0

0.253189 -5.54949 0
2.64722 0.700934 0
0 0 0

0.556732 -3.51207 0
2.15555 -0.266289 0
0 0 0

-0.413735 -3.42662 0
3.21838 0.174152 0
0 0 0

-0.127082 -2.58964 0
3.31026 0.00973756 0
0 0 0

-0.0217738 -3.20601 0
3.91952 0.000766431 0
0 0 0

-0.0912344 -2.60905 0
3.79531 0.112219 0
0 0 0

0.101344 -2.59692 0
3.59555 0.000645378 0
0 0 0

0.109441 -6.10307 0
3.92311 -0.342563 0
0 0 0

-0.328091 -2.60959 0
3.7414 0.112096 0
0 0 0

-0.160301 -5.9555 0
3.7484 -0.147672 0
0 0 0

-0.0763132 -6.10077 0
4.26593 -0.346804 0
0 0 0

-0.0162815 -5.27886 0
3.79755 -0.454315 0
0 0 0

0.344079 -5.95026 0
3.80559 -0.147078 0
0 0 0

0.535749 -5.14804 0
4.0315 -0.887314 0
0 0 0

0.246417 -5.27537 0
2.67613 -0.469241 0
0 0 0

0.538164 -3.19412 0
2.1576 -0.301384 0
0 0 0

0.513744 -5.14818 0
4.39553 -0.884946 0
0 0 0

-0.4181 -3.72562 0
4.71872 -0.181698 0
0 0 0

-0.0218401 -3.08015 0
3.91963 -0.211182 0
0 0 0

-0.0965171 -2.84844 0
3.79411 0.0577295 0
0 0 0

0.316572 -3.18914 0
4.35733 -0.110695 0
0 0 0

0.065285 -3.08411 0
4.41126 -0.0397322 0
0 0 0

-0.333884 -2.84808 0
3.74008 0.0578105 0
0 0 0

-0.14485 -5.45492 0
3.75015 -0.0909065 0
0 0 0

-0.160479 -3.08018 0
4.28424 -0.0375212 0
0 0 0

-0.155518 -5.12682 0
4.36736 0.0541005 0
0 0 0

0.339315 -5.47023 0
3.80505 -0.0926431 0
0 0 0

0.53598 -5.16946 0
4.02768 -0.533022 0
0 0 0

0.00793607 -5.13306 0
4.59129 0.0455432 0
0 0 0

0.037355 -5.20809 0
4.95959 -0.11759 0
0 0 0

0.514541 -5.16909 0
4.38235 -0.538986 0
0 0 0

-0.414003 -5.28122 0
4.7179 0.127429 0
0 0 0

-0.0210526 -5.20611 0
5.45191 -0.134288 0
0 0 0

-0.437686 -6.52592 0
5.50428 0.25596 0
0 0 0

0.311321 -3.4624 0
4.36343 0.206698 0
0 0 0

0.0634892 -3.30726 0
4.41025 -0.165278 0
0 0 0

-0.244728 -3.61014 0
4.05241 0.00644422 0
0 0 0

-0.154275 -3.31262 0
4.34091 0.181688 0
0 0 0

-0.168722 -3.31237 0
4.2796 -0.168155 0
0 0 0

-0.148755 -4.96499 0
4.37663 0.275788 0
0 0 0

0.019706 -3.30649 0
5.05392 0.206817 0
0 0 0

-0.087393 -5.00748 0
5.26774 0.370613 0
0 0 0

0.0130949 -4.96867 0
4.59835 0.270751 0
0 0 0

0.0359899 -5.2628 0
4.9711 0.343582 0
0 0 0

-0.317367 -5.00886 0
5.2442 0.370471 0
0 0 0

-0.315605 -5.23478 0
5.36214 0.689793 0
0 0 0

-0.0219143 -5.26165 0
5.45917 0.333878 0
0 0 0

-0.468702 -7.12671 0
5.49501 0.0762646 0
0 0 0

-0.201445 -5.23602 0
5.54812 0.687766 0
0 0 0

0.26361 -7.25793 0
4.94949 -0.445788 0
0 0 0

SCALARS active double 1
LOOKUP_TABLE default
1
1
1
1
1
1
1
1
1
1
1
1
1
1
1
1
1
1
1
1
1
1
1
1
1
1
1
1
1
1
1
1
1
1
1
1
1
1
1
1
1
1
1
1
1
1
1
1
1
1
1
1
1
1
1
1
1
1
1
1
1
1
1
1
SCALARS extent double 1
LOOKUP_TABLE default
0.0125
0.0125
0.0125
0.0125
0.0125
0.0125
0.0125
0.0125
0.0125
0.0125
0.0125
0.0125
0.0125
0.0125
0.0125
0.0125
0.0125
0.0125
0.0125
0.0125
0.0125
0.0125
0.0125
0.0125
0.0125
0.0125
0.0125
0.0125
0.0125
0.0125
0.0125
0.0125
0.0125
0.0125
0.0125
0.0125
0.0125
0.0125
0.0125
0.0125
0.0125
0.0125
0.0125
0.0125
0.0125
0.0125
0.0125
0.0125
0.0125
0.0125
0.0125
0.0125
0.0125
0.0125
0.0125
0.0125
0.0125
0.0125
0.0125
0.0125
0.0125
0.0125
0.0125
0.0125
SCALARS pressure double 1
LOOKUP_TABLE default
-99.186
288.421
2040.85
1216.61
-338.28
369.76
-3986.16
3104.47
-1924.21
592.896
-2866.42
966.106
-2478.04
1760.16
-2493.65
-2634.25
-1947.94
3805.94
472.001
-590.386
-3073.8
-1325.27
-1145.81
912.418
1519.07
2234.78
3032.68
-1296.05
1223.9
623.428
-993.494
925.561
109.531
-2058.41
-641.42
433.035
2668.47
-2920.62
-815.867
1603.72
-1499.41
2878.26
-2597.36
2039.05
282.517
-2493.34
-3090.69
3240.49
-36.2829
938.344
131.98
445.335
-1995.35
1556.14
-21.4501
-284.203
-567.119
1164.2
-436.605
365.092
-327.46
-2051.12
-1290.42
525.588
SCALARS density double 1
LOOKUP_TABLE default
998.969
1003
1021.45
1012.73
996.488
1003.85
959.392
1032.81
980.187
1006.19
970.629
1010.1
974.558
1018.47
974.399
972.976
979.945
1040.38
1004.92
993.879
968.538
986.312
988.154
1009.53
1015.92
1023.51
1032.04
986.612
1012.81
1006.5
989.721
1009.67
1001.14
978.82
993.351
1004.51
1028.14
970.082
991.551
1016.82
984.527
1030.39
973.349
1021.43
1002.94
974.403
968.368
1034.28
999.623
1009.81
1001.37
1004.64
979.462
1016.32
999.777
997.049
994.119
1012.18
995.47
1003.8
996.6
978.894
986.669
1005.48
