# vtk DataFile Version 3.0
Frame: 42, Time: 0.714
ASCII
DATASET UNSTRUCTURED_GRID
POINTS 64 double
0.62192 0.197416 0 
0.610217 0.175663 0 
0.596666 0.20992 0 
0.585773 0.18738 0 
0.597368 0.15245 0 
0.587798 0.129131 0 
0.574027 0.164165 0 
0.56333 0.141398 0 
0.572771 0.106407 0 
0.559256 0.0823306 0 
0.550089 0.119219 0 
0.537523 0.0967304 0 
0.54615 0.0607352 0 
0.527174 0.0388617 0 
0.524703 0.0747625 0 
0.510455 0.0528456 0 
0.570954 0.220254 0 
0.561025 0.196838 0 
0.551632 0.234898 0 
0.53953 0.211841 0 
0.551833 0.174723 0 
0.540677 0.152414 0 
0.52985 0.187705 0 
0.518091 0.164118 0 
0.526264 0.130723 0 
0.515916 0.109006 0 
0.504282 0.143893 0 
0.493006 0.120899 0 
0.504145 0.0870506 0 
0.490143 0.0648153 0 
0.481423 0.0975589 0 
0.4694 0.0758884 0 
0.528775 0.246311 0 
0.516919 0.22248 0 
0.505018 0.259435 0 
0.493859 0.233974 0 
0.506589 0.199927 0 
0.495051 0.176226 0 
0.483989 0.210107 0 
0.471673 0.186615 0 
0.481822 0.153455 0 
0.469992 0.1304 0 
0.460252 0.16368 0 
0.44801 0.141066 0 
0.457931 0.107287 0 
0.445709 0.084568 0 
0.435624 0.118627 0 
0.423366 0.0961238 0 
0.482942 0.270413 0 
0.471811 0.244831 0 
0.458254 0.280286 0 
0.448171 0.254732 0 
0.461355 0.221743 0 
0.449194 0.199318 0 
0.438026 0.232675 0 
0.427076 0.209914 0 
0.437411 0.176871 0 
0.425892 0.153837 0 
0.414767 0.187608 0 
0.402489 0.165453 0 
0.413669 0.131718 0 
0.401671 0.10719 0 
0.39031 0.14179 0 
0.379139 0.118799 0 
CELLS 64 128
1 0
1 1
1 2
1 3
1 4
1 5
1 6
1 7
1 8
1 9
1 10
1 11
1 12
1 13
1 14
1 15
1 16
1 17
1 18
1 19
1 20
1 21
1 22
1 23
1 24
1 25
1 26
1 27
1 28
1 29
1 30
1 31
1 32
1 33
1 34
1 35
1 36
1 37
1 38
1 39
1 40
1 41
1 42
1 43
1 44
1 45
1 46
1 47
1 48
1 49
1 50
1 51
1 52
1 53
1 54
1 55
1 56
1 57
1 58
1 59
1 60
1 61
1 62
1 63
CELL_TYPES 64
1
1
1
1
1
1
1
1
1
1
1
1
1
1
1
1
1
1
1
1
1
1
1
1
1
1
1
1
1
1
1
1
1
1
1
1
1
1
1
1
1
1
1
1
1
1
1
1
1
1
1
1
1
1
1
1
1
1
1
1
1
1
1
1
POINT_DATA 64
VECTORS displacement double
0.00942029 -0.115084 0 
-0.00228331 -0.161837 0 
-0.0408341 -0.10258 0 
-0.051727 -0.15012 0 
-0.0151324 -0.21005 0 
-0.0247016 -0.258369 0 
-0.0634727 -0.198335 0 
-0.0741702 -0.246102 0 
-0.0397294 -0.306093 0 
-0.0532438 -0.355169 0 
-0.087411 -0.293281 0 
-0.0999768 -0.34077 0 
-0.0663495 -0.401765 0 
-0.0853261 -0.448638 0 
-0.112797 -0.387737 0 
-0.127045 -0.434654 0 
-0.0915463 -0.0922458 0 
-0.101475 -0.140662 0 
-0.135868 -0.0776019 0 
-0.14797 -0.125659 0 
-0.110667 -0.187777 0 
-0.121823 -0.235086 0 
-0.15765 -0.174795 0 
-0.169409 -0.223382 0 
-0.136236 -0.281777 0 
-0.146584 -0.328494 0 
-0.183218 -0.268607 0 
-0.194494 -0.316601 0 
-0.158355 -0.375449 0 
-0.172357 -0.422685 0 
-0.206077 -0.364941 0 
-0.2181 -0.411612 0 
-0.183725 -0.0661887 0 
-0.195581 -0.11502 0 
-0.232482 -0.0530649 0 
-0.243641 -0.103526 0 
-0.205911 -0.162573 0 
-0.217449 -0.211274 0 
-0.253511 -0.152393 0 
-0.265827 -0.200885 0 
-0.230678 -0.259045 0 
-0.242508 -0.3071 0 
-0.277248 -0.24882 0 
-0.28949 -0.296434 0 
-0.254569 -0.355213 0 
-0.266791 -0.402932 0 
-0.301876 -0.343873 0 
-0.314134 -0.391376 0 
-0.279558 -0.0420868 0 
-0.290689 -0.0926693 0 
-0.329246 -0.032214 0 
-0.339329 -0.0827682 0 
-0.301145 -0.140757 0 
-0.313306 -0.188182 0 
-0.349474 -0.129825 0 
-0.360424 -0.177586 0 
-0.325089 -0.235629 0 
-0.336608 -0.283663 0 
-0.372733 -0.224892 0 
-0.385011 -0.272047 0 
-0.348831 -0.330782 0 
-0.360829 -0.38031 0 
-0.39719 -0.32071 0 
-0.408361 -0.368701 0 
VECTORS velocity double
-1.64844 0.314948 0 
-0.972709 0.689729 0 
-1.60477 0.639482 0 
-1.31107 0.260476 0 
-0.894993 0.37307 0 
-0.592942 0.5564 0 
-1.40508 -0.273259 0 
-1.37617 -0.212672 0 
-1.25811 -0.0514579 0 
-0.516724 0.107543 0 
-0.872592 -0.0914802 0 
-0.648578 -0.0674207 0 
-0.774108 0.162744 0 
-0.429058 -0.137766 0 
-0.922004 0.135355 0 
-0.639831 -0.161445 0 
-1.83957 -0.149348 0 
-1.24406 -0.248689 0 
-1.69048 0.751489 0 
-1.45842 0.373847 0 
-0.800757 -0.00131787 0 
-0.800344 -0.0209351 0 
-1.13239 -0.0054783 0 
-1.14332 -0.113986 0 
-1.00754 0.29385 0 
-0.712114 -0.0209365 0 
-1.49347 0.275044 0 
-1.32853 -0.107362 0 
-0.702017 -0.137462 0 
-0.459215 -0.389203 0 
-1.19464 -0.289616 0 
-0.540263 -0.544642 0 
-1.53822 -0.449625 0 
-1.11701 0.214187 0 
-2.16184 -0.0975708 0 
-1.35534 -0.619813 0 
-1.36619 -0.345308 0 
-0.951531 -0.952072 0 
-1.67911 -0.115199 0 
-1.45478 -0.619225 0 
-1.07829 -0.491474 0 
-0.904421 -0.806471 0 
-1.35383 -0.612016 0 
-1.21985 -0.619878 0 
-1.04061 -0.501148 0 
-0.277408 -0.827274 0 
-1.37884 -0.368051 0 
-1.12475 -0.820533 0 
-1.71385 -0.156641 0 
-1.28198 -0.56829 0 
-1.9202 -0.620996 0 
-2.05381 -1.13375 0 
-0.747959 0.0456407 0 
-0.876126 -0.384107 0 
-1.75469 -0.571595 0 
-1.66978 -1.02064 0 
-1.56714 -0.575637 0 
-1.16461 -0.176489 0 
-1.47148 -0.791233 0 
-1.31223 -1.20064 0 
-0.432437 -0.0434002 0 
-0.759698 -1.03509 0 
-1.33854 -1.14734 0 
-1.00585 -0.978975 0 
SCALARS mass double 1
LOOKUP_TABLE default
0.625
0.625
0.625
0.625
0.625
0.625
0.625
0.625
0.625
0.625
0.625
0.625
0.625
0.625
0.625
0.625
0.625
0.625
0.625
0.625
0.625
0.625
0.625
0.625
0.625
0.625
0.625
0.625
0.625
0.625
0.625
0.625
0.625
0.625
0.625
0.625
0.625
0.625
0.625
0.625
0.625
0.625
0.625
0.625
0.625
0.625
0.625
0.625
0.625
0.625
0.625
0.625
0.625
0.625
0.625
0.625
0.625
0.625
0.625
0.625
0.625
0.625
0.625
0.625
SCALARS volume double 1
LOOKUP_TABLE default
0.000629794
0.000624862
0.000632639
0.000636978
0.000635381
0.00063942
0.000606964
0.000622646
0.00064033
0.000607978
0.000643975
0.000627541
0.000656629
0.00050525
0.000632279
0.000608592
0.000612351
0.000658777
0.000620603
0.000622838
0.000555448
0.000613772
0.000666237
0.000631707
0.000619495
0.000626191
0.000607511
0.000639692
0.000595055
0.000579641
0.000606405
0.000615832
0.000605758
0.000606259
0.000627198
0.000644101
0.000653642
0.000617753
0.000614007
0.000628895
0.000627911
0.000612146
0.000630796
0.000621184
0.000606336
0.000618284
0.000621206
0.000618847
0.000613857
0.000624083
0.000642188
0.000626214
0.0006384
0.00062721
0.000624391
0.000620037
0.000620456
0.000618726
0.00064392
0.000616528
0.000627443
0.00061993
0.000620213
0.000638856
VECTORS momentum double
-1.03028 0.196843 0 
-0.607943 0.43108 0 
-1.00298 0.399676 0 
-0.819416 0.162797 0 
-0.559371 0.233169 0 
-0.370589 0.34775 0 
-0.878172 -0.170787 0 
-0.860107 -0.13292 0 
-0.786318 -0.0321612 0 
-0.322953 0.0672143 0 
-0.54537 -0.0571752 0 
-0.405362 -0.042138 0 
-0.483818 0.101715 0 
-0.268161 -0.0861036 0 
-0.576253 0.0845968 0 
-0.399894 -0.100903 0 
-1.14973 -0.0933425 0 
-0.777535 -0.15543 0 
-1.05655 0.46968 0 
-0.91151 0.233654 0 
-0.500473 -0.000823667 0 
-0.500215 -0.0130844 0 
-0.707744 -0.00342394 0 
-0.714574 -0.0712413 0 
-0.629715 0.183656 0 
-0.445071 -0.0130853 0 
-0.933422 0.171902 0 
-0.83033 -0.0671015 0 
-0.438761 -0.0859135 0 
-0.287009 -0.243252 0 
-0.746648 -0.18101 0 
-0.337664 -0.340401 0 
-0.96139 -0.281016 0 
-0.698132 0.133867 0 
-1.35115 -0.0609817 0 
-0.84709 -0.387383 0 
-0.853868 -0.215818 0 
-0.594707 -0.595045 0 
-1.04945 -0.0719996 0 
-0.909238 -0.387015 0 
-0.673932 -0.307171 0 
-0.565263 -0.504044 0 
-0.846146 -0.38251 0 
-0.762409 -0.387424 0 
-0.650381 -0.313218 0 
-0.17338 -0.517046 0 
-0.861778 -0.230032 0 
-0.702968 -0.512833 0 
-1.07115 -0.0979006 0 
-0.801236 -0.355181 0 
-1.20012 -0.388122 0 
-1.28363 -0.708596 0 
-0.467474 0.0285254 0 
-0.547579 -0.240067 0 
-1.09668 -0.357247 0 
-1.04362 -0.637901 0 
-0.97946 -0.359773 0 
-0.727883 -0.110305 0 
-0.919676 -0.49452 0 
-0.820147 -0.750401 0 
-0.270273 -0.0271251 0 
-0.474811 -0.646929 0 
-0.836587 -0.717091 0 
-0.628654 -0.611859 0 
VECTORS body_force double
0 -9.81 0 
0 -9.81 0 
0 -9.81 0 
0 -9.81 0 
0 -9.81 0 
0 -9.81 0 
0 -9.81 0 
0 -9.81 0 
0 -9.81 0 
0 -9.81 0 
0 -9.81 0 
0 -9.81 0 
0 -9.81 0 
0 -9.81 0 
0 -9.81 0 
0 -9.81 0 
0 -9.81 0 
0 -9.81 0 
0 -9.81 0 
0 -9.81 0 
0 -9.81 0 
0 -9.81 0 
0 -9.81 0 
0 -9.81 0 
0 -9.81 0 
0 -9.81 0 
0 -9.81 0 
0 -9.81 0 
0 -9.81 0 
0 -9.81 0 
0 -9.81 0 
0 -9.81 0 
0 -9.81 0 
0 -9.81 0 
0 -9.81 0 
0 -9.81 0 
0 -9.81 0 
0 -9.81 0 
0 -9.81 0 
0 -9.81 0 
0 -9.81 0 
0 -9.81 0 
0 -9.81 0 
0 -9.81 0 
0 -9.81 0 
0 -9.81 0 
0 -9.81 0 
0 -9.81 0 
0 -9.81 0 
0 -9.81 0 
0 -9.81 0 
0 -9.81 0 
0 -9.81 0 
0 -9.81 0 
0 -9.81 0 
0 -9.81 0 
0 -9.81 0 
0 -9.81 0 
0 -9.81 0 
0 -9.81 0 
0 -9.81 0 
0 -9.81 0 
0 -9.81 0 
0 -9.81 0 
TENSORS cauchy_stress double
-1042.37 -2073.04 0
-2073.04 2511.75 0
0 0 0

-1886.73 1514.75 0
1514.75 1844.18 0
0 0 0

1554.78 -1470.89 0
-1470.89 781.534 0
0 0 0

1383.69 -2996.29 0
-2996.29 2266.99 0
0 0 0

820.929 2491.37 0
2491.37 2346.85 0
0 0 0

3715.27 2042.76 0
2042.76 671.314 0
0 0 0

-1357.11 34.665 0
34.665 -4274.08 0
0 0 0

2140.25 16.1913 0
16.1913 -2865.8 0
0 0 0

136.29 3917.34 0
3917.34 4523.78 0
0 0 0

-3600.85 618.374 0
618.374 -1709.34 0
0 0 0

7508.47 -606.754 0
-606.754 -1756.99 0
0 0 0

-1878.18 -685.732 0
-685.732 2658.41 0
0 0 0

3456.05 1623.64 0
1623.64 6037.84 0
0 0 0

-17548.9 19319.1 0
19319.1 -23354.6 0
0 0 0

3170.93 653.278 0
653.278 -944.104 0
0 0 0

3129.38 1328.63 0
1328.63 -8245.6 0
0 0 0

1871.93 2511.1 0
2511.1 -5803.74 0
0 0 0

3984.17 2132.79 0
2132.79 6137.56 0
0 0 0

-2304.17 -545.767 0
-545.767 946.513 0
0 0 0

-2579.02 -3586.84 0
-3586.84 1912.56 0
0 0 0

-8646.86 -3103.94 0
-3103.94 -14041.1 0
0 0 0

602.261 1363.72 0
1363.72 -4088.54 0
0 0 0

2721.19 -2102.4 0
-2102.4 9566.11 0
0 0 0

3311.84 -1909.2 0
-1909.2 -1259.14 0
0 0 0

2730.7 -570.549 0
-570.549 -4432.09 0
0 0 0

-360.563 -3128.06 0
-3128.06 726.573 0
0 0 0

-2879.69 -818.58 0
-818.58 -2578.18 0
0 0 0

2377.75 2806.57 0
2806.57 2090.54 0
0 0 0

-2884.77 527.222 0
527.222 -6557.12 0
0 0 0

-6119.77 4522.67 0
4522.67 -8369.09 0
0 0 0

-2039.47 1476.12 0
1476.12 -3768.81 0
0 0 0

-1442 2922.39 0
2922.39 -1399.74 0
0 0 0

-1050.31 5302.36 0
5302.36 -4963.4 0
0 0 0

-1826.58 510.335 0
510.335 -4028.22 0
0 0 0

-527.241 -1348.2 0
-1348.2 1202.21 0
0 0 0

-195.393 -796.437 0
-796.437 5984.46 0
0 0 0

5071.73 -88.4287 0
-88.4287 3545.23 0
0 0 0

3511.9 2284.34 0
2284.34 -5754.91 0
0 0 0

-2164.16 67.8719 0
67.8719 -1248.43 0
0 0 0

-505.129 -843.465 0
-843.465 1699.79 0
0 0 0

482.047 2811.19 0
2811.19 411.635 0
0 0 0

4565.76 6587.34 0
6587.34 -8562.13 0
0 0 0

772.999 -1218.08 0
-1218.08 1002.27 0
0 0 0

-3019.3 -991.295 0
-991.295 1841.5 0
0 0 0

-224.405 3681.23 0
3681.23 -5605.87 0
0 0 0

-1795.39 2893.07 0
2893.07 -282.396 0
0 0 0

-1725.71 -1319 0
-1319 554.654 0
0 0 0

-2657.01 -440.345 0
-440.345 754.373 0
0 0 0

-1001.61 -959.135 0
-959.135 -2457.84 0
0 0 0

-3670.01 -101.2 0
-101.2 3387.75 0
0 0 0

3015.85 2121.38 0
2121.38 2201.2 0
0 0 0

791.453 -58.1466 0
-58.1466 -418.238 0
0 0 0

5857.41 -960.555 0
-960.555 -1777.96 0
0 0 0

-115.811 786.609 0
786.609 794.691 0
0 0 0

2957.3 -1059.34 0
-1059.34 -3144.86 0
0 0 0

-510.233 -346.758 0
-346.758 -1023.08 0
0 0 0

623.528 3326.72 0
3326.72 -2026.85 0
0 0 0

2829.38 278.288 0
278.288 -4769.59 0
0 0 0

4006.94 -344.221 0
-344.221 1728.31 0
0 0 0

-472.4 2638.02 0
2638.02 -2152.24 0
0 0 0

2076.51 2364.7 0
2364.7 -1326.16 0
0 0 0

-2249.81 2946.47 0
2946.47 683.479 0
0 0 0

-1346.78 1162.43 0
1162.43 -131.899 0
0 0 0

3410.63 -596.514 0
-596.514 806.144 0
0 0 0

TENSORS velocity_gradient double
0.155573 -6.70101 0
2.86585 -0.943547 0
0 0 0

0.273518 -8.01647 0
3.9235 -0.29334 0
0 0 0

-1.65556 -4.7929 0
3.43303 0.377792 0
0 0 0

-2.46401 -7.03802 0
4.76581 0.672574 0
0 0 0

0.0360675 -6.35866 0
5.38157 1.05852 0
0 0 0

-0.625701 -3.59972 0
4.38789 2.0692 0
0 0 0

-1.00115 -6.28423 0
5.53488 1.06886 0
0 0 0

-0.325316 -4.19292 0
5.33628 0.196312 0
0 0 0

-1.17532 -3.967 0
2.65261 0.909601 0
0 0 0

0.949069 -4.22312 0
0.971468 0.463536 0
0 0 0

0.309966 -4.50504 0
3.97534 -0.647687 0
0 0 0

1.31428 -3.875 0
4.31642 -0.348069 0
0 0 0

0.424836 -3.39904 0
3.27762 -0.079327 0
0 0 0

-0.985898 -12.9511 0
3.56798 -1.27901 0
0 0 0

0.133581 -4.31864 0
4.43038 -0.0606804 0
0 0 0

-0.965204 -7.0646 0
4.40618 -0.711258 0
0 0 0

-2.77811 -5.59783 0
3.98247 0.952833 0
0 0 0

-2.93822 -5.5617 0
4.47085 1.4094 0
0 0 0

-1.81341 -6.04933 0
4.90926 1.23865 0
0 0 0

-0.165328 -6.2194 0
8.07084 1.18129 0
0 0 0

-0.938842 -4.89496 0
5.45959 1.64964 0
0 0 0

2.26205 -4.37551 0
4.96146 0.671391 0
0 0 0

0.433205 -3.63665 0
7.0819 0.714918 0
0 0 0

1.74546 -2.97652 0
5.60244 -0.0293294 0
0 0 0

2.16295 -4.9914 0
4.53881 -1.09853 0
0 0 0

1.73314 -5.19817 0
4.35244 -1.18819 0
0 0 0

2.27513 -5.33082 0
4.69403 -1.24612 0
0 0 0

0.00836604 -5.63569 0
6.46721 -0.960567 0
0 0 0

0.644142 -5.46722 0
4.72951 0.0736161 0
0 0 0

-2.01285 -6.17651 0
8.39197 0.25411 0
0 0 0

-0.561077 -6.32807 0
7.74196 0.181872 0
0 0 0

-1.49514 -7.13014 0
8.20016 0.607428 0
0 0 0

-0.0343539 -6.66213 0
8.63315 0.57465 0
0 0 0

-0.0889698 -6.37861 0
8.27211 0.761623 0
0 0 0

-0.668371 -6.17661 0
8.36286 0.0324754 0
0 0 0

0.631154 -6.43947 0
6.26085 0.2061 0
0 0 0

-0.0565582 -4.45465 0
7.71945 -0.0710339 0
0 0 0

0.864852 -2.03701 0
4.97225 -1.13492 0
0 0 0

1.00068 -6.33864 0
4.93001 -0.196369 0
0 0 0

0.952371 -2.2551 0
4.55931 -1.09433 0
0 0 0

0.512082 -2.85142 0
4.80829 -0.982602 0
0 0 0

0.132817 -6.03652 0
5.92661 0.423461 0
0 0 0

0.652682 -2.4051 0
4.68411 -1.03187 0
0 0 0

-0.498588 -6.1744 0
5.46895 1.46984 0
0 0 0

-0.268695 -6.24941 0
7.32358 1.16417 0
0 0 0

2.6347 -7.1177 0
4.38987 0.448951 0
0 0 0

0.0266287 -5.71634 0
5.18815 1.4445 0
0 0 0

1.78414 -3.83991 0
4.38447 -0.891117 0
0 0 0

0.421996 -5.55353 0
6.65326 0.276522 0
0 0 0

0.602585 -6.11228 0
6.36416 -0.582607 0
0 0 0

0.363253 -5.40938 0
6.68264 0.204413 0
0 0 0

0.237347 -5.45227 0
5.54969 -0.277971 0
0 0 0

0.864672 -6.07798 0
5.42482 -1.14472 0
0 0 0

1.64399 -4.24588 0
5.15875 -1.20499 0
0 0 0

0.834422 -5.30883 0
4.55596 -1.25781 0
0 0 0

2.18651 -4.6517 0
5.48246 -0.80753 0
0 0 0

0.845209 -3.54414 0
5.85401 -0.999472 0
0 0 0

-1.0409 -4.65461 0
5.77792 -0.703549 0
0 0 0

1.79657 -5.51707 0
5.88302 -1.05963 0
0 0 0

0.14516 -6.49966 0
5.1313 -0.879484 0
0 0 0

-0.651728 -4.59045 0
5.4423 1.02268 0
0 0 0

0.469421 -4.10461 0
4.51406 0.751174 0
0 0 0

0.968881 -4.0393 0
4.79243 0.391665 0
0 0 0

0.417168 -4.31009 0
3.8652 -0.0634418 0
0 0 0

SCALARS active double 1
LOOKUP_TABLE default
1
1
1
1
1
1
1
1
1
1
1
1
1
1
1
1
1
1
1
1
1
1
1
1
1
1
1
1
1
1
1
1
1
1
1
1
1
1
1
1
1
1
1
1
1
1
1
1
1
1
1
1
1
1
1
1
1
1
1
1
1
1
1
1
SCALARS extent double 1
LOOKUP_TABLE default
0.0125
0.0125
0.0125
0.0125
0.0125
0.0125
0.0125
0.0125
0.0125
0.0125
0.0125
0.0125
0.0125
0.0125
0.0125
0.0125
0.0125
0.0125
0.0125
0.0125
0.0125
0.0125
0.0125
0.0125
0.0125
0.0125
0.0125
0.0125
0.0125
0.0125
0.0125
0.0125
0.0125
0.0125
0.0125
0.0125
0.0125
0.0125
0.0125
0.0125
0.0125
0.0125
0.0125
0.0125
0.0125
0.0125
0.0125
0.0125
0.0125
0.0125
0.0125
0.0125
0.0125
0.0125
0.0125
0.0125
0.0125
0.0125
0.0125
0.0125
0.0125
0.0125
0.0125
0.0125
SCALARS pressure double 1
LOOKUP_TABLE default
-734.686
21.2749
-1168.16
-1825.34
-1583.89
-2193.29
2815.6
362.775
-2330.04
2655.09
-2875.74
-390.115
-4746.95
20451.7
-1113.41
2558.11
1965.91
-5060.87
678.83
333.233
11344
1743.14
-6143.65
-1026.35
850.696
-183.005
2728.93
-2234.14
4720.95
7244.43
2904.14
1420.87
3006.86
2927.4
-337.485
-2894.53
-4308.48
1121.51
1706.29
-597.332
-446.841
1998.18
-887.636
588.902
2915.14
1038.89
585.528
951.319
1729.72
141.13
-2608.53
-186.608
-2039.72
-339.44
93.7815
766.657
701.662
970.109
-2867.63
1312.32
-375.174
783.167
739.337
-2108.39
SCALARS density double 1
LOOKUP_TABLE default
992.388
1000.22
987.925
981.196
983.662
977.448
1029.72
1003.78
976.059
1028
970.535
995.951
951.831
1237.01
988.487
1026.96
1020.66
948.728
1007.08
1003.47
1125.22
1018.29
938.104
989.383
1008.89
998.099
1028.79
977.033
1050.32
1078.25
1030.66
1014.89
1031.77
1030.91
996.496
970.345
956.181
1011.73
1017.9
993.807
995.364
1021
990.811
1006.14
1030.78
1010.86
1006.11
1009.94
1018.15
1001.47
973.236
998.061
979.01
996.476
1000.98
1008.01
1007.32
1010.14
970.617
1013.74
996.106
1008.18
1007.72
978.311
