# vtk DataFile Version 3.0
Frame: 28, Time: 0.476
ASCII
DATASET UNSTRUCTURED_GRID
POINTS 64 double
0.155699 0.459169 0 
0.147836 0.436334 0 
0.132522 0.467443 0 
0.124874 0.444054 0 
0.13956 0.412193 0 
0.132376 0.387263 0 
0.116018 0.420359 0 
0.10854 0.39621 0 
0.121708 0.364098 0 
0.11223 0.33986 0 
0.0986527 0.372621 0 
0.089006 0.349027 0 
0.103574 0.316624 0 
0.0913361 0.292657 0 
0.0799383 0.326784 0 
0.0695429 0.301963 0 
0.109843 0.476417 0 
0.0999921 0.452613 0 
0.0858815 0.484733 0 
0.0772632 0.461157 0 
0.0915163 0.429046 0 
0.0833706 0.405098 0 
0.0679312 0.437559 0 
0.0601847 0.413823 0 
0.0753422 0.382218 0 
0.0658969 0.358774 0 
0.0506519 0.390223 0 
0.0416085 0.367349 0 
0.0557736 0.335913 0 
0.0461031 0.31186 0 
0.0316807 0.343552 0 
0.0239113 0.320155 0 
0.061841 0.493698 0 
0.0535128 0.469727 0 
0.0381755 0.501966 0 
0.0292449 0.478129 0 
0.044487 0.446336 0 
0.0361686 0.422528 0 
0.0208746 0.455326 0 
0.0122614 0.431424 0 
0.0276034 0.399332 0 
0.018216 0.376281 0 
0.00389986 0.407792 0 
0.994781 0.384797 0 
0.00942307 0.352573 0 
0.00121569 0.328665 0 
0.986225 0.35993 0 
0.977871 0.336558 0 
0.0145413 0.511183 0 
0.00626596 0.487125 0 
0.99161 0.520415 0 
0.982111 0.495864 0 
0.99687 0.464068 0 
0.988801 0.439841 0 
0.972317 0.472899 0 
0.965151 0.448114 0 
0.980298 0.416672 0 
0.972023 0.393725 0 
0.956032 0.425238 0 
0.947117 0.401834 0 
0.963193 0.369607 0 
0.955302 0.345026 0 
0.938465 0.379155 0 
0.931345 0.355031 0 
CELLS 64 128
1 0
1 1
1 2
1 3
1 4
1 5
1 6
1 7
1 8
1 9
1 10
1 11
1 12
1 13
1 14
1 15
1 16
1 17
1 18
1 19
1 20
1 21
1 22
1 23
1 24
1 25
1 26
1 27
1 28
1 29
1 30
1 31
1 32
1 33
1 34
1 35
1 36
1 37
1 38
1 39
1 40
1 41
1 42
1 43
1 44
1 45
1 46
1 47
1 48
1 49
1 50
1 51
1 52
1 53
1 54
1 55
1 56
1 57
1 58
1 59
1 60
1 61
1 62
1 63
CELL_TYPES 64
1
1
1
1
1
1
1
1
1
1
1
1
1
1
1
1
1
1
1
1
1
1
1
1
1
1
1
1
1
1
1
1
1
1
1
1
1
1
1
1
1
1
1
1
1
1
1
1
1
1
1
1
1
1
1
1
1
1
1
1
1
1
1
1
POINT_DATA 64
VECTORS displacement double
-0.0568014 0.246669 0 
-0.0646635 0.198834 0 
-0.104978 0.254943 0 
-0.112626 0.206554 0 
-0.0729399 0.149693 0 
-0.0801243 0.0997627 0 
-0.121482 0.157859 0 
-0.12896 0.10871 0 
-0.0907924 0.0515984 0 
-0.10027 0.00235985 0 
-0.138847 0.0601207 0 
-0.148494 0.0115273 0 
-0.108926 -0.0458764 0 
-0.121164 -0.0948434 0 
-0.157562 -0.0357157 0 
-0.167957 -0.0855374 0 
-0.152657 0.263917 0 
-0.162508 0.215113 0 
-0.201618 0.272233 0 
-0.210237 0.223657 0 
-0.170984 0.166546 0 
-0.179129 0.117598 0 
-0.219569 0.175059 0 
-0.227315 0.126323 0 
-0.187158 0.0697179 0 
-0.196603 0.0212744 0 
-0.236848 0.0777231 0 
-0.245892 0.0298487 0 
-0.206726 -0.0265867 0 
-0.216397 -0.0756402 0 
-0.255819 -0.0189482 0 
-0.263589 -0.0673455 0 
-0.250659 0.281198 0 
-0.258987 0.232227 0 
-0.299324 0.289466 0 
-0.308255 0.240629 0 
-0.268013 0.183836 0 
-0.276331 0.135028 0 
-0.316625 0.192826 0 
-0.325239 0.143924 0 
-0.284897 0.0868319 0 
-0.294284 0.0387806 0 
-0.3336 0.0952919 0 
-0.342719 0.0472969 0 
-0.303077 -0.00992733 0 
-0.311284 -0.0588351 0 
-0.351275 -0.00257003 0 
-0.359629 -0.0509417 0 
-0.347959 0.298683 0 
-0.356234 0.249625 0 
-0.39589 0.307915 0 
-0.405389 0.258364 0 
-0.36563 0.201568 0 
-0.373699 0.152341 0 
-0.415183 0.210399 0 
-0.422349 0.160614 0 
-0.382202 0.104172 0 
-0.390477 0.0562249 0 
-0.431468 0.112738 0 
-0.440383 0.0643343 0 
-0.399307 0.00710725 0 
-0.407198 -0.0424736 0 
-0.449035 0.016655 0 
-0.456155 -0.0324695 0 
VECTORS velocity double
0.173255 1.47794 0 
0.300489 1.18723 0 
-0.307538 1.32761 0 
0.0342865 0.959053 0 
0.58546 1.63958 0 
0.333215 0.940573 0 
0.625522 0.754985 0 
0.460814 0.707986 0 
0.451806 1.26882 0 
1.07581 0.81419 0 
0.368983 0.773619 0 
0.560702 0.586065 0 
0.635874 0.930549 0 
0.726858 0.773132 0 
0.583664 0.770324 0 
0.806981 0.940479 0 
0.0329318 1.12424 0 
0.439693 0.876105 0 
-0.378445 0.897082 0 
0.309881 0.619022 0 
0.276968 0.878598 0 
0.648726 0.665143 0 
0.107277 0.942711 0 
0.422102 0.769676 0 
0.750904 0.806948 0 
0.668131 0.299013 0 
0.739342 0.961357 0 
0.386651 0.74239 0 
0.786065 0.838004 0 
0.974528 0.878881 0 
0.461106 1.24054 0 
0.858902 0.440695 0 
-0.196189 1.01537 0 
0.386534 0.359639 0 
-0.332851 0.547669 0 
0.0788654 0.111336 0 
0.423324 0.709443 0 
0.413074 0.487865 0 
0.0997231 0.519524 0 
0.377456 0.593779 0 
0.37775 0.396927 0 
0.220595 0.175958 0 
0.409918 0.432281 0 
0.174259 0.184347 0 
0.693191 0.747558 0 
0.989052 0.219245 0 
0.450981 0.615606 0 
0.700771 0.399393 0 
-0.258539 0.709629 0 
0.0882295 0.0756201 0 
-0.166378 0.156477 0 
0.119936 0.295638 0 
-0.0531281 0.0965953 0 
0.532989 0.153831 0 
-0.00629163 -0.0530775 0 
0.129157 0.0258426 0 
0.764925 0.480265 0 
0.470509 0.360323 0 
0.192167 0.364329 0 
0.109732 -0.301422 0 
0.512362 0.605635 0 
0.750501 -0.184328 0 
0.281736 -0.0471482 0 
0.519771 -0.10703 0 
SCALARS mass double 1
LOOKUP_TABLE default
0.625
0.625
0.625
0.625
0.625
0.625
0.625
0.625
0.625
0.625
0.625
0.625
0.625
0.625
0.625
0.625
0.625
0.625
0.625
0.625
0.625
0.625
0.625
0.625
0.625
0.625
0.625
0.625
0.625
0.625
0.625
0.625
0.625
0.625
0.625
0.625
0.625
0.625
0.625
0.625
0.625
0.625
0.625
0.625
0.625
0.625
0.625
0.625
0.625
0.625
0.625
0.625
0.625
0.625
0.625
0.625
0.625
0.625
0.625
0.625
0.625
0.625
0.625
0.625
SCALARS volume double 1
LOOKUP_TABLE default
0.000627374
0.000604124
0.000617966
0.000617103
0.000624809
0.000609742
0.000649953
0.000614773
0.000646414
0.000637096
0.00063981
0.000601174
0.000618881
0.000593465
0.000656609
0.000629719
0.000648667
0.000611241
0.000621754
0.000625945
0.000639044
0.000640444
0.000621283
0.000621921
0.000627416
0.00061268
0.000626851
0.00064045
0.000627559
0.00058078
0.000628303
0.000647894
0.000627259
0.000628352
0.000626244
0.000622793
0.000600045
0.000644872
0.000629405
0.00061669
0.000632154
0.000596604
0.000640009
0.000617177
0.00061209
0.000658524
0.000648975
0.000572059
0.000621772
0.000621392
0.000630532
0.000622686
0.000632551
0.000607505
0.000629086
0.000636026
0.000626851
0.000619725
0.000636582
0.00062985
0.000625413
0.000648197
0.000625042
0.000621075
VECTORS momentum double
0.108284 0.923714 0 
0.187805 0.74202 0 
-0.192211 0.829759 0 
0.0214291 0.599408 0 
0.365913 1.02474 0 
0.208259 0.587858 0 
0.390951 0.471866 0 
0.288009 0.442491 0 
0.282379 0.793014 0 
0.67238 0.508868 0 
0.230614 0.483512 0 
0.350439 0.366291 0 
0.397422 0.581593 0 
0.454286 0.483208 0 
0.36479 0.481452 0 
0.504363 0.5878 0 
0.0205824 0.702653 0 
0.274808 0.547566 0 
-0.236528 0.560676 0 
0.193675 0.386888 0 
0.173105 0.549124 0 
0.405454 0.415714 0 
0.0670484 0.589195 0 
0.263814 0.481047 0 
0.469315 0.504343 0 
0.417582 0.186883 0 
0.462089 0.600848 0 
0.241657 0.463994 0 
0.491291 0.523753 0 
0.60908 0.5493 0 
0.288191 0.775338 0 
0.536814 0.275435 0 
-0.122618 0.634604 0 
0.241584 0.224775 0 
-0.208032 0.342293 0 
0.0492909 0.0695852 0 
0.264577 0.443402 0 
0.258171 0.304916 0 
0.0623269 0.324702 0 
0.23591 0.371112 0 
0.236094 0.248079 0 
0.137872 0.109974 0 
0.256199 0.270176 0 
0.108912 0.115217 0 
0.433244 0.467224 0 
0.618157 0.137028 0 
0.281863 0.384753 0 
0.437982 0.24962 0 
-0.161587 0.443518 0 
0.0551434 0.0472626 0 
-0.103987 0.0977984 0 
0.07496 0.184774 0 
-0.0332051 0.060372 0 
0.333118 0.0961444 0 
-0.00393227 -0.0331734 0 
0.0807234 0.0161516 0 
0.478078 0.300166 0 
0.294068 0.225202 0 
0.120104 0.227706 0 
0.0685825 -0.188389 0 
0.320226 0.378522 0 
0.469063 -0.115205 0 
0.176085 -0.0294676 0 
0.324857 -0.0668939 0 
VECTORS body_force double
0 -9.81 0 
0 -9.81 0 
0 -9.81 0 
0 -9.81 0 
0 -9.81 0 
0 -9.81 0 
0 -9.81 0 
0 -9.81 0 
0 -9.81 0 
0 -9.81 0 
0 -9.81 0 
0 -9.81 0 
0 -9.81 0 
0 -9.81 0 
0 -9.81 0 
0 -9.81 0 
0 -9.81 0 
0 -9.81 0 
0 -9.81 0 
0 -9.81 0 
0 -9.81 0 
0 -9.81 0 
0 -9.81 0 
0 -9.81 0 
0 -9.81 0 
0 -9.81 0 
0 -9.81 0 
0 -9.81 0 
0 -9.81 0 
0 -9.81 0 
0 -9.81 0 
0 -9.81 0 
0 -9.81 0 
0 -9.81 0 
0 -9.81 0 
0 -9.81 0 
0 -9.81 0 
0 -9.81 0 
0 -9.81 0 
0 -9.81 0 
0 -9.81 0 
0 -9.81 0 
0 -9.81 0 
0 -9.81 0 
0 -9.81 0 
0 -9.81 0 
0 -9.81 0 
0 -9.81 0 
0 -9.81 0 
0 -9.81 0 
0 -9.81 0 
0 -9.81 0 
0 -9.81 0 
0 -9.81 0 
0 -9.81 0 
0 -9.81 0 
0 -9.81 0 
0 -9.81 0 
0 -9.81 0 
0 -9.81 0 
0 -9.81 0 
0 -9.81 0 
0 -9.81 0 
0 -9.81 0 
TENSORS cauchy_stress double
1905.14 -591.773 0
-591.773 -1175.97 0
0 0 0

-2760.38 566.012 0
566.012 -3772.63 0
0 0 0

-1466.02 2257.78 0
2257.78 -710.686 0
0 0 0

1325.26 -1327 0
-1327 -3770.43 0
0 0 0

28.8887 820.135 0
820.135 -87.6138 0
0 0 0

-1330.96 -919.645 0
-919.645 -3421.96 0
0 0 0

4554.07 2760.21 0
2760.21 2974.43 0
0 0 0

-84.0813 -2203.87 0
-2203.87 -3088.59 0
0 0 0

1742.37 2846.89 0
2846.89 4736.3 0
0 0 0

3795 1554.21 0
1554.21 -108.64 0
0 0 0

-1148.52 195.492 0
195.492 5652.18 0
0 0 0

-942.663 1018.75 0
1018.75 -6531.76 0
0 0 0

-4435.85 -1634.75 0
-1634.75 2543.72 0
0 0 0

-9591.01 -1376.83 0
-1376.83 -365.43 0
0 0 0

6387.52 -332.344 0
-332.344 3100.44 0
0 0 0

1630.6 2724.15 0
2724.15 -184.122 0
0 0 0

5240.06 1410.64 0
1410.64 1907.64 0
0 0 0

-4159.1 497.245 0
497.245 -121.789 0
0 0 0

-233.903 -13.5246 0
-13.5246 -767.581 0
0 0 0

50.9652 -619.529 0
-619.529 239.478 0
0 0 0

2452.23 -542.564 0
-542.564 1821.06 0
0 0 0

4366.49 -1975.51 0
-1975.51 327.827 0
0 0 0

234.806 95.2952 0
95.2952 -1381.98 0
0 0 0

-1674.46 37.2587 0
37.2587 724.769 0
0 0 0

1886.23 1123.23 0
1123.23 -1144.32 0
0 0 0

-531.328 993.51 0
993.51 -3297.3 0
0 0 0

1037.88 -1956.62 0
-1956.62 -469.144 0
0 0 0

4450.55 1317.61 0
1317.61 245.53 0
0 0 0

1285.12 841.971 0
841.971 -499.395 0
0 0 0

-7449.12 3923.61 0
3923.61 -6662.29 0
0 0 0

-1265 -25.1382 0
-25.1382 2278.78 0
0 0 0

5532.8 379.187 0
379.187 1385.66 0
0 0 0

1399.18 801.39 0
801.39 -705.41 0
0 0 0

583.568 -91.7781 0
-91.7781 445 0
0 0 0

95.7691 71.2356 0
71.2356 286.744 0
0 0 0

174.061 -1994.7 0
-1994.7 -854.419 0
0 0 0

-3713.06 1489.76 0
1489.76 -4122.76 0
0 0 0

3513.05 -2664.29 0
-2664.29 2506.13 0
0 0 0

1983.4 -425.737 0
-425.737 -632.883 0
0 0 0

-1439.25 -333.374 0
-333.374 -1134.87 0
0 0 0

3427.65 3842.94 0
3842.94 -1238.77 0
0 0 0

-2746.13 -1384.85 0
-1384.85 -6195.75 0
0 0 0

1646.19 -220.241 0
-220.241 2917.52 0
0 0 0

-1637.83 -244.428 0
-244.428 -784.42 0
0 0 0

-3444.76 2985.47 0
2985.47 -569.145 0
0 0 0

4034.94 4859.26 0
4859.26 6012.96 0
0 0 0

-1053.44 -126.53 0
-126.53 8292.39 0
0 0 0

-4275.59 -1405.91 0
-1405.91 -12745.6 0
0 0 0

34.6807 875.91 0
875.91 -1030.49 0
0 0 0

-1040.37 621.666 0
621.666 -72.9483 0
0 0 0

-580.37 352.388 0
352.388 2274.91 0
0 0 0

-710.606 -1036.12 0
-1036.12 -2.82463 0
0 0 0

2213.83 -1251.26 0
-1251.26 95.5191 0
0 0 0

-3047.15 -667.403 0
-667.403 -2412.82 0
0 0 0

-959.211 -761.646 0
-761.646 2212.43 0
0 0 0

2002.35 -182.016 0
-182.016 1360.68 0
0 0 0

523.651 -351.759 0
-351.759 45.0701 0
0 0 0

1450.02 1661.07 0
1661.07 -3079.94 0
0 0 0

1792.67 -976.281 0
-976.281 1738.27 0
0 0 0

1958.78 1064.94 0
1064.94 -472.126 0
0 0 0

-491.747 -1079.88 0
-1079.88 618.762 0
0 0 0

1621.06 1632.6 0
1632.6 5387.26 0
0 0 0

639.71 -1478.85 0
-1478.85 -626.652 0
0 0 0

-1471.87 2138.27 0
2138.27 260.223 0
0 0 0

TENSORS velocity_gradient double
-1.04648 -6.45895 0
4.80995 1.45134 0
0 0 0

-0.574221 -6.02326 0
4.89952 2.35953 0
0 0 0

-1.32488 -7.08656 0
6.72819 0.990948 0
0 0 0

-1.23431 -5.39418 0
6.71386 1.77911 0
0 0 0

-0.770795 -5.60525 0
6.43405 1.90652 0
0 0 0

-1.05243 -2.0049 0
5.54723 2.65082 0
0 0 0

-0.891441 -5.26352 0
6.50688 1.70023 0
0 0 0

-0.797139 -3.07233 0
6.02988 1.32589 0
0 0 0

-1.79512 -2.35063 0
4.22256 2.03417 0
0 0 0

-0.0593668 -4.30967 0
3.36338 -0.889737 0
0 0 0

-0.424092 -2.92246 0
3.20306 0.837584 0
0 0 0

0.183351 -2.65747 0
1.82424 -0.573975 0
0 0 0

3.00079 -2.99795 0
2.63927 -0.982041 0
0 0 0

-0.216889 0.268415 0
0.673383 1.18929 0
0 0 0

-0.615918 -2.88538 0
1.43906 -1.33512 0
0 0 0

-1.07353 -0.257701 0
0.968542 -0.77777 0
0 0 0

-1.31848 -7.10246 0
6.70175 1.05663 0
0 0 0

-0.996119 -6.36017 0
6.45599 1.15437 0
0 0 0

-0.638309 -7.15804 0
6.84187 0.843543 0
0 0 0

-0.719389 -7.18838 0
6.43976 0.693083 0
0 0 0

-0.476512 -4.92327 0
4.89701 1.0101 0
0 0 0

-0.173985 -4.51449 0
3.43586 0.474269 0
0 0 0

-0.586878 -4.62209 0
5.4377 -0.46539 0
0 0 0

-0.283665 -4.52162 0
3.95224 -0.957608 0
0 0 0

0.064082 -2.78741 0
2.64866 0.164322 0
0 0 0

0.29144 -2.69511 0
2.04014 -0.082714 0
0 0 0

0.635824 -2.62324 0
4.08378 -0.541729 0
0 0 0

0.974978 -2.68038 0
4.28436 -0.904115 0
0 0 0

-0.235923 -3.88874 0
1.83874 -1.68874 0
0 0 0

-1.6523 -4.39606 0
5.0629 -1.50147 0
0 0 0

0.280564 -5.27459 0
3.88213 -0.777115 0
0 0 0

-1.18552 -5.77022 0
5.15925 -0.345367 0
0 0 0

-0.606824 -7.24082 0
6.99802 0.433037 0
0 0 0

-0.527931 -7.20357 0
6.57769 0.309127 0
0 0 0

-1.32794 -5.59963 0
6.57277 0.109402 0
0 0 0

-0.353174 -6.38428 0
6.55668 0.188205 0
0 0 0

0.804882 -4.75701 0
6.41878 -1.33379 0
0 0 0

1.19416 -4.21667 0
6.14278 -1.7508 0
0 0 0

0.606619 -5.80366 0
6.50432 -0.0558001 0
0 0 0

1.07922 -3.91423 0
6.25884 -2.05618 0
0 0 0

1.38506 -3.37855 0
5.71684 -1.6825 0
0 0 0

1.11021 -3.02918 0
4.7128 -2.00916 0
0 0 0

1.42982 -3.78349 0
5.66818 -2.10124 0
0 0 0

1.40924 -3.448 0
5.90147 -2.43204 0
0 0 0

0.654726 -4.34829 0
3.80573 -1.45909 0
0 0 0

0.31211 -6.88803 0
6.08597 0.664327 0
0 0 0

0.756185 -3.67431 0
7.61371 -1.88336 0
0 0 0

1.08792 -6.25431 0
7.91791 0.360571 0
0 0 0

-1.64149 -4.14889 0
6.53508 0.192765 0
0 0 0

-0.747353 -5.39586 0
6.57146 0.14262 0
0 0 0

-0.815763 -3.85518 0
3.86873 0.355321 0
0 0 0

-0.996944 -4.50189 0
3.95133 -0.0717648 0
0 0 0

-0.0041416 -5.04714 0
4.18241 0.0550743 0
0 0 0

0.646923 -3.41947 0
3.57256 -1.82854 0
0 0 0

-0.350567 -4.28835 0
3.59894 -0.325864 0
0 0 0

0.395895 -3.16743 0
3.39862 -0.843038 0
0 0 0

1.34108 -3.16273 0
4.34275 -1.54368 0
0 0 0

1.65867 -4.04808 0
5.32805 -0.936756 0
0 0 0

0.976704 -2.43582 0
4.06313 -0.733264 0
0 0 0

-0.121764 -2.93263 0
5.26534 -0.12757 0
0 0 0

1.0183 -4.28527 0
6.94988 -0.336025 0
0 0 0

0.854301 -5.31019 0
7.45822 -0.232147 0
0 0 0

0.465697 -3.97541 0
4.85571 0.0407352 0
0 0 0

1.68524 -3.90138 0
3.83504 -0.494679 0
0 0 0

SCALARS active double 1
LOOKUP_TABLE default
1
1
1
1
1
1
1
1
1
1
1
1
1
1
1
1
1
1
1
1
1
1
1
1
1
1
1
1
1
1
1
1
1
1
1
1
1
1
1
1
1
1
1
1
1
1
1
1
1
1
1
1
1
1
1
1
1
1
1
1
1
1
1
1
SCALARS extent double 1
LOOKUP_TABLE default
0.0125
0.0125
0.0125
0.0125
0.0125
0.0125
0.0125
0.0125
0.0125
0.0125
0.0125
0.0125
0.0125
0.0125
0.0125
0.0125
0.0125
0.0125
0.0125
0.0125
0.0125
0.0125
0.0125
0.0125
0.0125
0.0125
0.0125
0.0125
0.0125
0.0125
0.0125
0.0125
0.0125
0.0125
0.0125
0.0125
0.0125
0.0125
0.0125
0.0125
0.0125
0.0125
0.0125
0.0125
0.0125
0.0125
0.0125
0.0125
0.0125
0.0125
0.0125
0.0125
0.0125
0.0125
0.0125
0.0125
0.0125
0.0125
0.0125
0.0125
0.0125
0.0125
0.0125
0.0125
SCALARS pressure double 1
LOOKUP_TABLE default
-364.583
3266.51
1088.36
1222.59
29.3626
2376.46
-3764.25
1586.34
-3239.33
-1843.18
-2251.83
3737.21
946.065
4978.22
-4743.98
-723.237
-3573.85
2140.44
500.742
-145.222
-2136.65
-2347.16
573.588
474.848
-370.954
1914.31
-284.368
-2348.04
-392.86
7055.7
-506.887
-3459.23
-346.884
-514.284
-191.257
340.179
3917.91
-3009.59
-675.258
1287.06
-1094.44
4470.94
-2281.86
1211.13
2006.95
-5023.95
-3619.47
8510.6
497.906
556.659
-847.268
356.715
-1154.68
2729.99
-626.61
-1681.51
-284.361
814.961
-1765.47
-743.328
-63.5074
-3504.16
-6.52894
605.821
SCALARS density double 1
LOOKUP_TABLE default
996.216
1034.56
1011.38
1012.8
1000.31
1025.02
961.608
1016.63
966.872
981.013
976.853
1039.63
1009.89
1053.14
951.86
992.507
963.514
1022.51
1005.22
998.491
978.024
975.885
1005.98
1004.95
996.15
1020.11
997.047
975.876
995.923
1076.14
994.742
964.663
996.399
994.666
998.013
1003.54
1041.59
969.185
993.002
1013.48
988.682
1047.6
976.548
1012.68
1021.09
949.092
963.057
1092.55
1005.19
1005.81
991.227
1003.72
988.063
1028.8
993.504
982.664
997.047
1008.51
981.807
992.299
999.34
964.213
999.932
1006.32
