# vtk DataFile Version 3.0
Frame: 36, Time: 0.612
ASCII
DATASET UNSTRUCTURED_GRID
POINTS 64 double
0.700109 0.0855775 0 
0.67437 0.0835736 0 
0.69619 0.114128 0 
0.672611 0.112592 0 
0.646991 0.0850128 0 
0.623177 0.079232 0 
0.647176 0.112118 0 
0.62154 0.107488 0 
0.598523 0.0761718 0 
0.572745 0.0713972 0 
0.595374 0.103139 0 
0.570168 0.0979315 0 
0.548984 0.0670822 0 
0.523555 0.0618532 0 
0.545774 0.0928438 0 
0.52029 0.0863085 0 
0.693643 0.142245 0 
0.668703 0.13851 0 
0.691751 0.16616 0 
0.665726 0.162376 0 
0.643798 0.135396 0 
0.617065 0.131316 0 
0.640163 0.157724 0 
0.612768 0.153518 0 
0.589559 0.127403 0 
0.565938 0.121511 0 
0.586096 0.15153 0 
0.560899 0.146254 0 
0.541485 0.115853 0 
0.515289 0.109943 0 
0.535677 0.139178 0 
0.510337 0.13393 0 
0.684554 0.192568 0 
0.659438 0.186897 0 
0.679327 0.219073 0 
0.653101 0.212539 0 
0.635289 0.181771 0 
0.608454 0.177216 0 
0.62844 0.205299 0 
0.602088 0.20103 0 
0.580806 0.175041 0 
0.55504 0.170594 0 
0.576161 0.197709 0 
0.549871 0.193141 0 
0.529332 0.163493 0 
0.503949 0.158539 0 
0.523745 0.187533 0 
0.498474 0.183125 0 
0.672985 0.242181 0 
0.646046 0.23593 0 
0.666152 0.2672 0 
0.639802 0.260823 0 
0.621779 0.23036 0 
0.597048 0.226359 0 
0.615792 0.255703 0 
0.591131 0.25003 0 
0.572083 0.22231 0 
0.545523 0.216819 0 
0.566004 0.245887 0 
0.541091 0.241551 0 
0.519144 0.212322 0 
0.49332 0.207569 0 
0.5151 0.237135 0 
0.489967 0.233205 0 
CELLS 64 128
1 0
1 1
1 2
1 3
1 4
1 5
1 6
1 7
1 8
1 9
1 10
1 11
1 12
1 13
1 14
1 15
1 16
1 17
1 18
1 19
1 20
1 21
1 22
1 23
1 24
1 25
1 26
1 27
1 28
1 29
1 30
1 31
1 32
1 33
1 34
1 35
1 36
1 37
1 38
1 39
1 40
1 41
1 42
1 43
1 44
1 45
1 46
1 47
1 48
1 49
1 50
1 51
1 52
1 53
1 54
1 55
1 56
1 57
1 58
1 59
1 60
1 61
1 62
1 63
CELL_TYPES 64
1
1
1
1
1
1
1
1
1
1
1
1
1
1
1
1
1
1
1
1
1
1
1
1
1
1
1
1
1
1
1
1
1
1
1
1
1
1
1
1
1
1
1
1
1
1
1
1
1
1
1
1
1
1
1
1
1
1
1
1
1
1
1
1
POINT_DATA 64
VECTORS displacement double
0.0876087 -0.226922 0 
0.0618698 -0.253926 0 
0.0586897 -0.198372 0 
0.0351114 -0.224908 0 
0.0344913 -0.277487 0 
0.0106767 -0.308268 0 
0.00967573 -0.250382 0 
-0.0159596 -0.280012 0 
-0.0139774 -0.336328 0 
-0.0397549 -0.366103 0 
-0.0421257 -0.309361 0 
-0.0673322 -0.339568 0 
-0.0635156 -0.395418 0 
-0.0889445 -0.425647 0 
-0.091726 -0.369656 0 
-0.11721 -0.401192 0 
0.0311425 -0.170255 0 
0.0062028 -0.19899 0 
0.00425067 -0.14634 0 
-0.0217736 -0.175124 0 
-0.0187019 -0.227104 0 
-0.0454353 -0.256184 0 
-0.0473365 -0.204776 0 
-0.0747325 -0.233982 0 
-0.0729415 -0.285097 0 
-0.0965619 -0.315989 0 
-0.101404 -0.26097 0 
-0.126601 -0.291246 0 
-0.121015 -0.346647 0 
-0.147211 -0.377557 0 
-0.151823 -0.323322 0 
-0.177163 -0.35357 0 
-0.0279463 -0.119932 0 
-0.0530619 -0.150603 0 
-0.0581727 -0.0934269 0 
-0.084399 -0.124961 0 
-0.0772108 -0.180729 0 
-0.104046 -0.210284 0 
-0.10906 -0.157201 0 
-0.135412 -0.18647 0 
-0.131694 -0.237459 0 
-0.15746 -0.266906 0 
-0.161339 -0.214791 0 
-0.187629 -0.244359 0 
-0.183168 -0.299007 0 
-0.208551 -0.328961 0 
-0.213755 -0.274967 0 
-0.239026 -0.304375 0 
-0.0895149 -0.0703186 0 
-0.116454 -0.10157 0 
-0.121348 -0.0453003 0 
-0.147698 -0.0766773 0 
-0.140721 -0.13214 0 
-0.165452 -0.161141 0 
-0.171708 -0.106797 0 
-0.196369 -0.13747 0 
-0.190417 -0.19019 0 
-0.216977 -0.220681 0 
-0.221496 -0.166613 0 
-0.246409 -0.195949 0 
-0.243356 -0.250178 0 
-0.26918 -0.279931 0 
-0.2724 -0.225365 0 
-0.297533 -0.254295 0 
VECTORS velocity double
-0.552274 1.65271 0 
0.278673 0.795977 0 
0.338832 2.83303 0 
-0.2171 1.86526 0 
0.161804 0.860006 0 
0.647506 0.429474 0 
-0.484898 1.60419 0 
-0.566929 1.19953 0 
0.801353 0.0375581 0 
0.593224 0.210714 0 
-0.502131 0.258647 0 
-0.487802 -0.102397 0 
0.646125 -0.284601 0 
0.618659 -0.978976 0 
-0.173441 -0.136665 0 
-0.0560754 -1.14079 0 
-0.336929 1.52011 0 
-0.979237 1.09903 0 
-1.28891 2.00207 0 
-1.29635 0.396002 0 
-0.688709 1.32808 0 
-0.66752 1.1199 0 
-0.725787 0.326993 0 
-0.771888 0.573546 0 
-0.88306 0.408358 0 
-0.619497 -0.0468224 0 
-1.07414 0.316481 0 
-0.965251 -0.156509 0 
-0.0642459 -0.241898 0 
-0.140801 -1.32516 0 
-0.30814 -0.205147 0 
-0.687858 -1.30474 0 
-1.47497 1.51063 0 
-1.0677 0.557314 0 
-1.00121 1.72945 0 
-1.2833 0.640633 0 
-0.915922 0.335504 0 
-0.579832 0.390377 0 
-1.66889 1.02917 0 
-1.38825 0.934442 0 
-0.812998 0.195338 0 
-0.936241 -0.356629 0 
-1.19875 0.172003 0 
-1.40807 -0.349631 0 
-0.725887 -0.150843 0 
-0.761229 -1.44699 0 
-1.59773 -0.0138035 0 
-1.24742 -1.34667 0 
-1.12559 1.18295 0 
-1.39447 0.658758 0 
-2.53496 1.34634 0 
-2.03025 0.441858 0 
-1.07411 0.894013 0 
-0.994392 0.647006 0 
-1.92212 0.657411 0 
-2.01263 0.163604 0 
-1.3756 -0.339767 0 
-1.45415 -0.325575 0 
-1.98719 -0.0817775 0 
-2.00662 -0.422972 0 
-1.25965 -0.0313818 0 
-1.28544 -1.59088 0 
-1.78047 -0.510911 0 
-1.79558 -1.08107 0 
SCALARS mass double 1
LOOKUP_TABLE default
0.625
0.625
0.625
0.625
0.625
0.625
0.625
0.625
0.625
0.625
0.625
0.625
0.625
0.625
0.625
0.625
0.625
0.625
0.625
0.625
0.625
0.625
0.625
0.625
0.625
0.625
0.625
0.625
0.625
0.625
0.625
0.625
0.625
0.625
0.625
0.625
0.625
0.625
0.625
0.625
0.625
0.625
0.625
0.625
0.625
0.625
0.625
0.625
0.625
0.625
0.625
0.625
0.625
0.625
0.625
0.625
0.625
0.625
0.625
0.625
0.625
0.625
0.625
0.625
SCALARS volume double 1
LOOKUP_TABLE default
0.000631867
0.00066062
0.000648608
0.000663356
0.000658188
0.000601473
0.000626296
0.000656176
0.000633924
0.00059178
0.000655751
0.000621138
0.000647226
0.000600543
0.000635278
0.000624305
0.000609876
0.00060771
0.000647003
0.000623943
0.000540369
0.000615565
0.000621384
0.0006168
0.000607876
0.000599336
0.000633534
0.000633668
0.00058944
0.000604475
0.000624198
0.00064443
0.000609392
0.000619995
0.000626704
0.000649442
0.00062891
0.00063595
0.000618134
0.000633343
0.000639474
0.000611571
0.000621583
0.000610408
0.000619147
0.000623857
0.000632794
0.000625543
0.000605267
0.000622337
0.000632366
0.000625064
0.000644231
0.000623078
0.000622127
0.000619083
0.000615293
0.000644927
0.000634879
0.000615391
0.000626696
0.000642507
0.000606478
0.000632576
VECTORS momentum double
-0.345171 1.03294 0 
0.174171 0.497486 0 
0.21177 1.77065 0 
-0.135687 1.16579 0 
0.101127 0.537504 0 
0.404691 0.268421 0 
-0.303061 1.00262 0 
-0.354331 0.749706 0 
0.500845 0.0234738 0 
0.370765 0.131696 0 
-0.313832 0.161654 0 
-0.304876 -0.0639982 0 
0.403828 -0.177876 0 
0.386662 -0.61186 0 
-0.108401 -0.0854155 0 
-0.0350471 -0.712991 0 
-0.21058 0.950068 0 
-0.612023 0.686893 0 
-0.805569 1.25129 0 
-0.81022 0.247502 0 
-0.430443 0.83005 0 
-0.4172 0.699938 0 
-0.453617 0.204371 0 
-0.48243 0.358466 0 
-0.551913 0.255223 0 
-0.387186 -0.029264 0 
-0.671337 0.1978 0 
-0.603282 -0.0978182 0 
-0.0401537 -0.151186 0 
-0.0880008 -0.828228 0 
-0.192588 -0.128217 0 
-0.429911 -0.815465 0 
-0.921856 0.944143 0 
-0.667314 0.348321 0 
-0.625754 1.08091 0 
-0.802061 0.400396 0 
-0.572451 0.20969 0 
-0.362395 0.243985 0 
-1.04305 0.643234 0 
-0.867654 0.584026 0 
-0.508124 0.122087 0 
-0.58515 -0.222893 0 
-0.749217 0.107502 0 
-0.880044 -0.218519 0 
-0.453679 -0.0942766 0 
-0.475768 -0.904367 0 
-0.998582 -0.00862718 0 
-0.779635 -0.841667 0 
-0.703495 0.739343 0 
-0.871542 0.411723 0 
-1.58435 0.841466 0 
-1.2689 0.276161 0 
-0.671318 0.558758 0 
-0.621495 0.404379 0 
-1.20133 0.410882 0 
-1.25789 0.102253 0 
-0.85975 -0.212354 0 
-0.908844 -0.203484 0 
-1.24199 -0.051111 0 
-1.25414 -0.264358 0 
-0.787282 -0.0196136 0 
-0.803402 -0.9943 0 
-1.1128 -0.31932 0 
-1.12224 -0.675668 0 
VECTORS body_force double
0 -9.81 0 
0 -9.81 0 
0 -9.81 0 
0 -9.81 0 
0 -9.81 0 
0 -9.81 0 
0 -9.81 0 
0 -9.81 0 
0 -9.81 0 
0 -9.81 0 
0 -9.81 0 
0 -9.81 0 
0 -9.81 0 
0 -9.81 0 
0 -9.81 0 
0 -9.81 0 
0 -9.81 0 
0 -9.81 0 
0 -9.81 0 
0 -9.81 0 
0 -9.81 0 
0 -9.81 0 
0 -9.81 0 
0 -9.81 0 
0 -9.81 0 
0 -9.81 0 
0 -9.81 0 
0 -9.81 0 
0 -9.81 0 
0 -9.81 0 
0 -9.81 0 
0 -9.81 0 
0 -9.81 0 
0 -9.81 0 
0 -9.81 0 
0 -9.81 0 
0 -9.81 0 
0 -9.81 0 
0 -9.81 0 
0 -9.81 0 
0 -9.81 0 
0 -9.81 0 
0 -9.81 0 
0 -9.81 0 
0 -9.81 0 
0 -9.81 0 
0 -9.81 0 
0 -9.81 0 
0 -9.81 0 
0 -9.81 0 
0 -9.81 0 
0 -9.81 0 
0 -9.81 0 
0 -9.81 0 
0 -9.81 0 
0 -9.81 0 
0 -9.81 0 
0 -9.81 0 
0 -9.81 0 
0 -9.81 0 
0 -9.81 0 
0 -9.81 0 
0 -9.81 0 
0 -9.81 0 
TENSORS cauchy_stress double
3672.21 2487.32 0
2487.32 -1570.92 0
0 0 0

8918.27 -5485.74 0
-5485.74 1740.75 0
0 0 0

-5811.58 7842.97 0
7842.97 12941.9 0
0 0 0

-1794.23 2778.76 0
2778.76 13248.2 0
0 0 0

6532.71 3003.45 0
3003.45 3417.08 0
0 0 0

-7411.16 4513.32 0
4513.32 32.2472 0
0 0 0

-785.47 -684.538 0
-684.538 1183.95 0
0 0 0

3244.04 1331.72 0
1331.72 6116.91 0
0 0 0

-329.244 1493.32 0
1493.32 3055.62 0
0 0 0

-6604.92 887.753 0
887.753 -3898.39 0
0 0 0

4983.33 -1194.15 0
-1194.15 4253.05 0
0 0 0

-3272.18 3429.86 0
3429.86 2080.14 0
0 0 0

2805.41 1300.99 0
1300.99 3914.47 0
0 0 0

-2227.96 1288.8 0
1288.8 -5448.37 0
0 0 0

1073.16 1408.86 0
1408.86 2063.68 0
0 0 0

-540.664 -1821.07 0
-1821.07 326.731 0
0 0 0

378.376 -5914.9 0
-5914.9 -5089.18 0
0 0 0

5572 -4632.96 0
-4632.96 -10966.9 0
0 0 0

2290.26 -2518.34 0
-2518.34 4363.52 0
0 0 0

214.746 -1786.29 0
-1786.29 -540.336 0
0 0 0

-10002.9 -2358.36 0
-2358.36 -17977.7 0
0 0 0

5292.89 1695.36 0
1695.36 -8217.97 0
0 0 0

4396.6 -269.05 0
-269.05 -5512.56 0
0 0 0

3852.71 -507.364 0
-507.364 -6392.4 0
0 0 0

-529.34 -2042.92 0
-2042.92 -4813.17 0
0 0 0

-4834.51 936.242 0
936.242 -3228.93 0
0 0 0

3937 1841.18 0
1841.18 -1329.07 0
0 0 0

1475.08 -132.525 0
-132.525 1173.56 0
0 0 0

-2728.83 749.719 0
749.719 -8536.15 0
0 0 0

-791.595 466.216 0
466.216 -5629.7 0
0 0 0

1002.2 3539.62 0
3539.62 -1249.1 0
0 0 0

4410.12 1089.82 0
1089.82 1477.23 0
0 0 0

-2036.87 -5206.36 0
-5206.36 -2826.55 0
0 0 0

-2292.56 -2505.64 0
-2505.64 746.406 0
0 0 0

1262.19 -385.319 0
-385.319 -738.724 0
0 0 0

3940.33 900.733 0
900.733 3436.99 0
0 0 0

2400.01 -1084.47 0
-1084.47 -1200.76 0
0 0 0

7544.06 -5425.27 0
-5425.27 -4204 0
0 0 0

-55.9477 -2302.36 0
-2302.36 -2068.3 0
0 0 0

3293.31 -2320.4 0
-2320.4 -743.167 0
0 0 0

6165.33 -1851.32 0
-1851.32 -1762.45 0
0 0 0

2443.53 -2480.07 0
-2480.07 -6620.58 0
0 0 0

1630.71 -1110.09 0
-1110.09 -2685.08 0
0 0 0

1590.89 4706.87 0
4706.87 -6134.1 0
0 0 0

1380.38 -873.652 0
-873.652 -3189.87 0
0 0 0

2642.55 321.935 0
321.935 -2994.42 0
0 0 0

2658.92 490.55 0
490.55 -275.606 0
0 0 0

-647.81 -274.011 0
-274.011 814.864 0
0 0 0

-1231.75 -1878.08 0
-1878.08 -4937.89 0
0 0 0

1752.32 347.635 0
347.635 -2573.52 0
0 0 0

2844.7 -1950.44 0
-1950.44 -591.378 0
0 0 0

-1246.31 1714.23 0
1714.23 1265.88 0
0 0 0

316.514 -6880.9 0
-6880.9 5511.46 0
0 0 0

775.709 -2236.41 0
-2236.41 -1368.07 0
0 0 0

-1849.3 -68.5905 0
-68.5905 963.411 0
0 0 0

-1399.74 397.217 0
397.217 -429.544 0
0 0 0

4368.01 -3595.69 0
-3595.69 -7378.2 0
0 0 0

8324.63 -1113.5 0
-1113.5 -2288.89 0
0 0 0

1983.4 -1071.05 0
-1071.05 1032.41 0
0 0 0

-33.2268 673.355 0
673.355 -2946.5 0
0 0 0

1332.76 -1447.27 0
-1447.27 -811.755 0
0 0 0

4825.37 -592.853 0
-592.853 487.427 0
0 0 0

-2051.09 2991.02 0
2991.02 -3734.05 0
0 0 0

-892.163 37.896 0
37.896 3209.24 0
0 0 0

TENSORS velocity_gradient double
-5.24452 5.24149 0
2.85575 13.1904 0
0 0 0

-4.666 -4.45109 0
14.3661 12.0722 0
0 0 0

2.12288 -13.8883 0
9.95081 -7.70142 0
0 0 0

2.16956 -13.664 0
15.2439 -7.18913 0
0 0 0

-1.53456 -14.2368 0
13.3729 9.95618 0
0 0 0

-1.17991 -16.8607 0
12.2465 6.81255 0
0 0 0

0.954463 -12.6655 0
14.1808 -6.0916 0
0 0 0

0.533006 -11.9927 0
14.2798 -2.93357 0
0 0 0

0.135883 -18.2257 0
12.9284 3.69743 0
0 0 0

1.54722 -15.697 0
13.2165 1.67728 0
0 0 0

-1.22854 -13.3715 0
14.9018 0.943528 0
0 0 0

-1.26611 -14.1894 0
14.9139 1.34093 0
0 0 0

1.21707 -13.1652 0
13.0674 0.103204 0
0 0 0

0.96739 -11.5911 0
13.003 -0.816723 0
0 0 0

-0.78918 -12.9183 0
14.1264 -0.0473159 0
0 0 0

-0.404602 -11.4242 0
13.792 -0.912713 0
0 0 0

1.66721 -14.405 0
13.4546 -7.70928 0
0 0 0

1.06286 -13.5139 0
14.5881 -7.10019 0
0 0 0

0.635276 -7.27905 0
13.6886 -2.61096 0
0 0 0

0.609505 -7.47449 0
13.8239 -1.58455 0
0 0 0

-0.0836585 -12.562 0
10.8752 -5.85165 0
0 0 0

-0.0639241 -11.8883 0
11.148 -2.3857 0
0 0 0

-0.644417 -7.47204 0
8.30485 -0.519795 0
0 0 0

-0.570137 -8.31803 0
8.62645 0.0530483 0
0 0 0

-1.52423 -11.536 0
14.3188 0.27976 0
0 0 0

-1.57365 -11.7474 0
14.5176 1.12978 0
0 0 0

-0.992075 -9.48352 0
13.6247 0.895602 0
0 0 0

-1.24345 -11.5137 0
13.6888 1.23369 0
0 0 0

-0.929162 -11.9938 0
14.4791 1.58115 0
0 0 0

-0.997109 -12.3173 0
14.3874 1.1444 0
0 0 0

-0.641636 -12.0619 0
14.8674 1.48926 0
0 0 0

-0.701489 -12.3746 0
14.7866 1.06699 0
0 0 0

0.834712 -7.33159 0
12.6412 -2.33506 0
0 0 0

0.794471 -7.52028 0
12.8525 -1.34407 0
0 0 0

1.17399 -7.31643 0
11.8737 -0.249851 0
0 0 0

0.787657 -7.73217 0
11.2667 0.30849 0
0 0 0

-0.987977 -7.40504 0
7.20463 -0.305222 0
0 0 0

-0.925843 -7.02157 0
7.40361 0.922808 0
0 0 0

-1.08186 -8.25961 0
6.62739 -0.402195 0
0 0 0

-0.128547 -8.20442 0
8.35547 -0.348083 0
0 0 0

0.992389 -8.5802 0
13.7414 1.17748 0
0 0 0

0.598156 -10.974 0
13.7144 0.92954 0
0 0 0

2.90973 -9.0087 0
13.9106 0.359351 0
0 0 0

1.69609 -11.2451 0
13.8701 0.976074 0
0 0 0

-0.273184 -11.884 0
14.637 1.43369 0
0 0 0

0.17705 -12.1428 0
14.1127 2.11023 0
0 0 0

0.140955 -11.9751 0
13.9455 1.58588 0
0 0 0

-0.728851 -11.5922 0
12.0357 2.06528 0
0 0 0

1.52906 -7.41082 0
11.3238 -0.103662 0
0 0 0

0.302452 -7.88901 0
9.02697 0.231015 0
0 0 0

-1.12904 -15.8199 0
11.7396 -0.110789 0
0 0 0

-0.417373 -12.1393 0
8.61597 -0.779051 0
0 0 0

-0.355887 -8.59844 0
7.71477 -0.761345 0
0 0 0

1.71405 -9.18721 0
11.2592 -1.65647 0
0 0 0

-0.140686 -10.3672 0
8.60631 -0.721334 0
0 0 0

2.49177 -8.92366 0
12.923 -0.943197 0
0 0 0

3.08238 -8.99968 0
13.5837 -1.35528 0
0 0 0

0.720881 -8.61922 0
12.7704 -0.644774 0
0 0 0

2.71164 -8.42891 0
13.0953 -0.742933 0
0 0 0

-0.820808 -8.52837 0
10.7784 -0.440398 0
0 0 0

-0.0139262 -7.91 0
12.7325 1.05717 0
0 0 0

-3.93966 -7.91439 0
11.029 2.49112 0
0 0 0

-0.705754 -7.80272 0
11.057 1.31699 0
0 0 0

-1.77021 -8.16294 0
10.5212 2.55917 0
0 0 0

SCALARS active double 1
LOOKUP_TABLE default
1
1
1
1
1
1
1
1
1
1
1
1
1
1
1
1
1
1
1
1
1
1
1
1
1
1
1
1
1
1
1
1
1
1
1
1
1
1
1
1
1
1
1
1
1
1
1
1
1
1
1
1
1
1
1
1
1
1
1
1
1
1
1
1
SCALARS extent double 1
LOOKUP_TABLE default
0.0125
0.0125
0.0125
0.0125
0.0125
0.0125
0.0125
0.0125
0.0125
0.0125
0.0125
0.0125
0.0125
0.0125
0.0125
0.0125
0.0125
0.0125
0.0125
0.0125
0.0125
0.0125
0.0125
0.0125
0.0125
0.0125
0.0125
0.0125
0.0125
0.0125
0.0125
0.0125
0.0125
0.0125
0.0125
0.0125
0.0125
0.0125
0.0125
0.0125
0.0125
0.0125
0.0125
0.0125
0.0125
0.0125
0.0125
0.0125
0.0125
0.0125
0.0125
0.0125
0.0125
0.0125
0.0125
0.0125
0.0125
0.0125
0.0125
0.0125
0.0125
0.0125
0.0125
0.0125
SCALARS pressure double 1
LOOKUP_TABLE default
-1050.65
-5329.51
-3565.14
-5727.01
-4974.9
3689.46
-199.24
-4680.47
-1363.19
5251.66
-4618.19
596.019
-3359.94
3838.17
-1568.42
106.967
2355.4
2697.45
-3326.89
162.795
13990.3
1462.54
557.983
1269.85
2671.26
4031.72
-1303.97
-1324.32
5632.49
3210.65
123.454
-2943.68
2431.71
773.077
-261.732
-3688.66
-599.625
-1670.03
1062.12
-1275.07
-2201.44
2088.53
527.185
2271.6
904.745
175.936
-1191.66
-83.5273
3084.82
410.597
-1126.66
-9.78381
-2913.99
296.182
442.943
914.641
1505.1
-3017.87
-1507.91
1489.87
-260.505
-2656.4
2892.57
-1158.54
SCALARS density double 1
LOOKUP_TABLE default
989.133
946.081
963.602
942.178
949.577
1039.12
997.93
952.489
985.923
1056.14
953.106
1006.22
965.66
1040.72
983.821
1001.11
1024.8
1028.45
965.992
1001.69
1156.62
1015.33
1005.82
1013.29
1028.17
1042.82
986.53
986.321
1060.33
1033.95
1001.28
969.85
1025.61
1008.07
997.282
962.364
993.783
982.782
1011.11
986.827
977.365
1021.96
1005.5
1023.91
1009.45
1001.83
987.683
999.132
1032.6
1004.28
988.351
999.898
970.149
1003.09
1004.62
1009.56
1015.78
969.102
984.44
1015.62
997.294
972.752
1030.54
988.024
