# vtk DataFile Version 3.0
Frame: 32, Time: 0.544
ASCII
DATASET UNSTRUCTURED_GRID
POINTS 64 double
0.16027 0.509399 0 
0.160517 0.484646 0 
0.135649 0.510226 0 
0.136301 0.485638 0 
0.159703 0.458802 0 
0.158429 0.432761 0 
0.135129 0.460236 0 
0.133357 0.434795 0 
0.154638 0.408363 0 
0.153646 0.382928 0 
0.130106 0.4092 0 
0.129128 0.383137 0 
0.153397 0.35832 0 
0.15136 0.331708 0 
0.127885 0.358932 0 
0.1277 0.332181 0 
0.111033 0.511848 0 
0.10993 0.486591 0 
0.0856311 0.512605 0 
0.08534 0.487617 0 
0.109448 0.461727 0 
0.107495 0.436061 0 
0.0840573 0.462361 0 
0.0833903 0.437195 0 
0.105461 0.411354 0 
0.104218 0.385592 0 
0.0807162 0.411598 0 
0.0790161 0.386745 0 
0.101914 0.360534 0 
0.100678 0.334674 0 
0.0767541 0.36077 0 
0.0765132 0.336604 0 
0.0602223 0.513976 0 
0.059869 0.488427 0 
0.035248 0.514709 0 
0.0344104 0.489163 0 
0.0585973 0.46319 0 
0.0578983 0.437899 0 
0.0335133 0.464671 0 
0.0323919 0.439207 0 
0.0564772 0.413274 0 
0.0541878 0.388569 0 
0.0311897 0.414203 0 
0.0290345 0.389726 0 
0.052521 0.363359 0 
0.0525351 0.338251 0 
0.0277672 0.363637 0 
0.0272508 0.338419 0 
0.00972048 0.516131 0 
0.0100792 0.490899 0 
0.984645 0.517014 0 
0.984314 0.49127 0 
0.00812445 0.465824 0 
0.00750378 0.440231 0 
0.982062 0.466629 0 
0.98254 0.441229 0 
0.00597817 0.415555 0 
0.0047085 0.391255 0 
0.980311 0.416966 0 
0.978641 0.392282 0 
0.00313633 0.365499 0 
0.00284218 0.339419 0 
0.976983 0.367519 0 
0.976643 0.342161 0 
CELLS 64 128
1 0
1 1
1 2
1 3
1 4
1 5
1 6
1 7
1 8
1 9
1 10
1 11
1 12
1 13
1 14
1 15
1 16
1 17
1 18
1 19
1 20
1 21
1 22
1 23
1 24
1 25
1 26
1 27
1 28
1 29
1 30
1 31
1 32
1 33
1 34
1 35
1 36
1 37
1 38
1 39
1 40
1 41
1 42
1 43
1 44
1 45
1 46
1 47
1 48
1 49
1 50
1 51
1 52
1 53
1 54
1 55
1 56
1 57
1 58
1 59
1 60
1 61
1 62
1 63
CELL_TYPES 64
1
1
1
1
1
1
1
1
1
1
1
1
1
1
1
1
1
1
1
1
1
1
1
1
1
1
1
1
1
1
1
1
1
1
1
1
1
1
1
1
1
1
1
1
1
1
1
1
1
1
1
1
1
1
1
1
1
1
1
1
1
1
1
1
POINT_DATA 64
VECTORS displacement double
-0.05223 0.296899 0 
-0.0519828 0.247146 0 
-0.101851 0.297726 0 
-0.101199 0.248138 0 
-0.0527971 0.196302 0 
-0.0540711 0.145261 0 
-0.102371 0.197736 0 
-0.104143 0.147295 0 
-0.0578621 0.0958626 0 
-0.0588542 0.0454285 0 
-0.107394 0.0967 0 
-0.108372 0.045637 0 
-0.0591033 -0.00417999 0 
-0.0611403 -0.0557923 0 
-0.109615 -0.00356785 0 
-0.1098 -0.0553188 0 
-0.151467 0.299348 0 
-0.15257 0.249091 0 
-0.201869 0.300105 0 
-0.20216 0.250117 0 
-0.153052 0.199227 0 
-0.155005 0.148561 0 
-0.203443 0.199861 0 
-0.20411 0.149695 0 
-0.157039 0.0988543 0 
-0.158282 0.0480917 0 
-0.206784 0.0990981 0 
-0.208484 0.0492447 0 
-0.160586 -0.00196586 0 
-0.161822 -0.0528258 0 
-0.210746 -0.00173036 0 
-0.210987 -0.0508962 0 
-0.252278 0.301476 0 
-0.252631 0.250927 0 
-0.302252 0.302209 0 
-0.30309 0.251663 0 
-0.253903 0.20069 0 
-0.254602 0.150399 0 
-0.303987 0.202171 0 
-0.305108 0.151707 0 
-0.256023 0.100774 0 
-0.258312 0.0510689 0 
-0.30631 0.101703 0 
-0.308465 0.0522259 0 
-0.259979 0.000858889 0 
-0.259965 -0.0492486 0 
-0.309733 0.00113675 0 
-0.310249 -0.0490809 0 
-0.35278 0.303631 0 
-0.352421 0.253399 0 
-0.402855 0.304514 0 
-0.403186 0.25377 0 
-0.354376 0.203324 0 
-0.354996 0.152731 0 
-0.405438 0.204129 0 
-0.40496 0.153729 0 
-0.356522 0.103055 0 
-0.357792 0.0537553 0 
-0.407189 0.104466 0 
-0.408859 0.0547822 0 
-0.359364 0.00299923 0 
-0.359658 -0.0480809 0 
-0.410517 0.00501896 0 
-0.410857 -0.0453392 0 
VECTORS velocity double
-0.0874648 0.58548 0 
0.0684199 0.422997 0 
-0.185747 0.107744 0 
0.00894858 0.0561825 0 
0.266975 0.789083 0 
0.714616 0.0967576 0 
0.327832 -0.0123723 0 
0.290588 0.10872 0 
0.5723 0.669541 0 
0.648655 0.213149 0 
0.257276 0.274546 0 
0.325661 0.099248 0 
0.553417 0.444128 0 
0.728991 0.660973 0 
0.447803 0.214468 0 
1.09443 -0.252735 0 
-0.136337 0.0800729 0 
0.440247 0.136848 0 
-0.478532 0.0313709 0 
0.210767 -0.0474517 0 
0.211225 0.203738 0 
0.38412 0.0322444 0 
0.0170368 0.0887221 0 
0.343943 0.034917 0 
0.502278 0.128246 0 
0.545953 -0.341979 0 
0.792571 0.481523 0 
0.537182 0.0890016 0 
0.687874 0.254269 0 
0.841924 0.139895 0 
0.596748 0.209846 0 
0.770194 0.126568 0 
-0.171349 0.107333 0 
0.297661 -0.115398 0 
-0.227988 -0.427115 0 
0.122869 -0.235066 0 
0.25163 -0.175173 0 
0.406928 -0.27981 0 
-0.0483797 -0.0840279 0 
0.266891 -0.0606139 0 
0.577088 0.0754266 0 
0.409203 -0.259306 0 
0.495613 -0.143984 0 
0.268486 -0.479397 0 
0.715206 -0.169205 0 
1.11286 -0.287113 0 
0.359469 -0.151083 0 
0.869873 -0.134486 0 
-0.187298 -0.0540118 0 
0.331133 -0.293317 0 
-0.251016 -0.589737 0 
0.149603 -0.34865 0 
-0.0901056 -0.379763 0 
0.395209 -0.378512 0 
0.0378809 -0.71668 0 
0.342459 -0.571586 0 
0.768983 -0.239049 0 
0.531897 -0.415075 0 
0.488139 -0.243828 0 
0.455555 -0.799701 0 
0.547094 -0.0957633 0 
1.07519 -0.461685 0 
0.641775 -0.742955 0 
0.912621 -0.689858 0 
SCALARS mass double 1
LOOKUP_TABLE default
0.625
0.625
0.625
0.625
0.625
0.625
0.625
0.625
0.625
0.625
0.625
0.625
0.625
0.625
0.625
0.625
0.625
0.625
0.625
0.625
0.625
0.625
0.625
0.625
0.625
0.625
0.625
0.625
0.625
0.625
0.625
0.625
0.625
0.625
0.625
0.625
0.625
0.625
0.625
0.625
0.625
0.625
0.625
0.625
0.625
0.625
0.625
0.625
0.625
0.625
0.625
0.625
0.625
0.625
0.625
0.625
0.625
0.625
0.625
0.625
0.625
0.625
0.625
0.625
SCALARS volume double 1
LOOKUP_TABLE default
0.0006289
0.000625718
0.000615123
0.000619824
0.000628525
0.000618633
0.000647095
0.000605173
0.000637587
0.000615521
0.000646672
0.000611112
0.000635995
0.000607493
0.000635752
0.000645575
0.000642703
0.000603723
0.000621542
0.000627152
0.000641523
0.000629005
0.000632942
0.000618819
0.0006134
0.00061511
0.000602152
0.000637111
0.000623732
0.000617772
0.00063629
0.000619553
0.000625302
0.000634938
0.000629508
0.000620091
0.000606552
0.000643621
0.000629138
0.000614788
0.000631
0.000606648
0.00064092
0.000613093
0.000624344
0.000645426
0.000645692
0.000606284
0.000620747
0.000616072
0.000626742
0.000617705
0.000636103
0.00061361
0.000619196
0.000624893
0.000626013
0.000616661
0.000627308
0.000622768
0.000625326
0.000640151
0.000630851
0.000620713
VECTORS momentum double
-0.0546655 0.365925 0 
0.0427625 0.264373 0 
-0.116092 0.0673402 0 
0.00559286 0.0351141 0 
0.16686 0.493177 0 
0.446635 0.0604735 0 
0.204895 -0.00773269 0 
0.181617 0.0679502 0 
0.357688 0.418463 0 
0.405409 0.133218 0 
0.160798 0.171591 0 
0.203538 0.06203 0 
0.345886 0.27758 0 
0.455619 0.413108 0 
0.279877 0.134042 0 
0.684021 -0.157959 0 
-0.0852109 0.0500456 0 
0.275155 0.0855298 0 
-0.299082 0.0196068 0 
0.131729 -0.0296573 0 
0.132016 0.127336 0 
0.240075 0.0201528 0 
0.010648 0.0554513 0 
0.214964 0.0218231 0 
0.313924 0.0801539 0 
0.341221 -0.213737 0 
0.495357 0.300952 0 
0.335739 0.055626 0 
0.429921 0.158918 0 
0.526202 0.0874344 0 
0.372968 0.131154 0 
0.481371 0.0791047 0 
-0.107093 0.0670831 0 
0.186038 -0.0721236 0 
-0.142493 -0.266947 0 
0.076793 -0.146916 0 
0.157269 -0.109483 0 
0.25433 -0.174881 0 
-0.0302373 -0.0525174 0 
0.166807 -0.0378837 0 
0.36068 0.0471416 0 
0.255752 -0.162066 0 
0.309758 -0.0899899 0 
0.167804 -0.299623 0 
0.447003 -0.105753 0 
0.695537 -0.179446 0 
0.224668 -0.0944267 0 
0.543671 -0.0840536 0 
-0.117062 -0.0337574 0 
0.206958 -0.183323 0 
-0.156885 -0.368585 0 
0.0935019 -0.217906 0 
-0.056316 -0.237352 0 
0.247005 -0.23657 0 
0.0236756 -0.447925 0 
0.214037 -0.357241 0 
0.480614 -0.149406 0 
0.332436 -0.259422 0 
0.305087 -0.152392 0 
0.284722 -0.499813 0 
0.341934 -0.059852 0 
0.671991 -0.288553 0 
0.401109 -0.464347 0 
0.570388 -0.431162 0 
VECTORS body_force double
0 -9.81 0 
0 -9.81 0 
0 -9.81 0 
0 -9.81 0 
0 -9.81 0 
0 -9.81 0 
0 -9.81 0 
0 -9.81 0 
0 -9.81 0 
0 -9.81 0 
0 -9.81 0 
0 -9.81 0 
0 -9.81 0 
0 -9.81 0 
0 -9.81 0 
0 -9.81 0 
0 -9.81 0 
0 -9.81 0 
0 -9.81 0 
0 -9.81 0 
0 -9.81 0 
0 -9.81 0 
0 -9.81 0 
0 -9.81 0 
0 -9.81 0 
0 -9.81 0 
0 -9.81 0 
0 -9.81 0 
0 -9.81 0 
0 -9.81 0 
0 -9.81 0 
0 -9.81 0 
0 -9.81 0 
0 -9.81 0 
0 -9.81 0 
0 -9.81 0 
0 -9.81 0 
0 -9.81 0 
0 -9.81 0 
0 -9.81 0 
0 -9.81 0 
0 -9.81 0 
0 -9.81 0 
0 -9.81 0 
0 -9.81 0 
0 -9.81 0 
0 -9.81 0 
0 -9.81 0 
0 -9.81 0 
0 -9.81 0 
0 -9.81 0 
0 -9.81 0 
0 -9.81 0 
0 -9.81 0 
0 -9.81 0 
0 -9.81 0 
0 -9.81 0 
0 -9.81 0 
0 -9.81 0 
0 -9.81 0 
0 -9.81 0 
0 -9.81 0 
0 -9.81 0 
0 -9.81 0 
TENSORS cauchy_stress double
867.196 384.472 0
384.472 328.968 0
0 0 0

-607.306 -1443.92 0
-1443.92 828.248 0
0 0 0

-2408.57 957.045 0
957.045 -654.654 0
0 0 0

1799.29 -1570.68 0
-1570.68 -3398.45 0
0 0 0

-4.23603 23.4592 0
23.4592 1085.67 0
0 0 0

1512.5 -159.639 0
-159.639 -3481.68 0
0 0 0

1668.81 1871.58 0
1871.58 5012.24 0
0 0 0

-1603.74 2021.49 0
2021.49 -4595.86 0
0 0 0

396.115 271.954 0
271.954 3438.41 0
0 0 0

-210.826 3721.26 0
3721.26 -2728.12 0
0 0 0

-137.552 -2282.73 0
-2282.73 6692.79 0
0 0 0

-1994.79 1805.08 0
1805.08 -2326.74 0
0 0 0

1473.77 -1782.61 0
-1782.61 1879.92 0
0 0 0

-3768.74 -1298.83 0
-1298.83 -1694.77 0
0 0 0

2852.36 59.7513 0
59.7513 427.742 0
0 0 0

2843.91 611.824 0
611.824 3385 0
0 0 0

4119.41 878.934 0
878.934 1251.8 0
0 0 0

-4191.82 -2709.75 0
-2709.75 -2469 0
0 0 0

-1029.26 -908.933 0
-908.933 -37.6247 0
0 0 0

1452.2 -1425.52 0
-1425.52 -791.212 0
0 0 0

2686.47 -554.612 0
-554.612 2331.58 0
0 0 0

1396.54 2956.56 0
2956.56 -168.202 0
0 0 0

2417.19 1154.85 0
1154.85 11.0206 0
0 0 0

-2714.43 1430.31 0
1430.31 803.09 0
0 0 0

-3621.37 2128.11 0
2128.11 18.5372 0
0 0 0

-2370.08 -200.462 0
-200.462 -697.452 0
0 0 0

-3972.82 -501.199 0
-501.199 -3189.09 0
0 0 0

1336.65 2074.69 0
2074.69 2354.18 0
0 0 0

234.96 1088.44 0
1088.44 -625.635 0
0 0 0

-1794.29 282.897 0
282.897 -442.804 0
0 0 0

-65.81 -1652.12 0
-1652.12 3508.61 0
0 0 0

1754.28 61.7457 0
61.7457 -3437.65 0
0 0 0

-173.011 299.994 0
299.994 266 0
0 0 0

1568.7 -420.443 0
-420.443 1465.19 0
0 0 0

570.647 -1067.09 0
-1067.09 811.524 0
0 0 0

-113 -1858 0
-1858 -1403.36 0
0 0 0

-3704.01 1889.08 0
1889.08 -2057.88 0
0 0 0

4926.32 -1504.24 0
-1504.24 719.503 0
0 0 0

1342.85 -101.32 0
-101.32 -73.7975 0
0 0 0

-1460.32 -11.3402 0
-11.3402 -1707.66 0
0 0 0

1034.06 4573 0
4573 803.374 0
0 0 0

-321.335 -373.82 0
-373.82 -5409.9 0
0 0 0

2272.81 157.248 0
157.248 2564.36 0
0 0 0

-1425.44 849.185 0
849.185 -2273.68 0
0 0 0

-1806.23 768.72 0
768.72 1604.29 0
0 0 0

292.272 627.814 0
627.814 5892.1 0
0 0 0

-625.148 -1000.46 0
-1000.46 6888.65 0
0 0 0

660.577 -491.372 0
-491.372 -6507.23 0
0 0 0

-87.3596 -346.111 0
-346.111 -1225.67 0
0 0 0

-2786.6 -181.044 0
-181.044 19.8528 0
0 0 0

720.954 -585.359 0
-585.359 -185.711 0
0 0 0

133.617 -743.451 0
-743.451 -2391.51 0
0 0 0

3058.29 2.85507 0
2.85507 327.885 0
0 0 0

-1629.8 393.107 0
393.107 -1907 0
0 0 0

-1263.3 -1078.35 0
-1078.35 -530.978 0
0 0 0

537.381 323.185 0
323.185 -570.431 0
0 0 0

592.344 111.066 0
111.066 -280.873 0
0 0 0

-196.556 2370.64 0
2370.64 -2386.45 0
0 0 0

1276.56 -1169.75 0
-1169.75 -567.565 0
0 0 0

-554.196 -57.0807 0
-57.0807 -133.825 0
0 0 0

-631.844 -188.757 0
-188.757 732.192 0
0 0 0

541.271 240.693 0
240.693 4065.01 0
0 0 0

699.927 -1595.48 0
-1595.48 1092.1 0
0 0 0

-437.661 516.026 0
516.026 -885.859 0
0 0 0

TENSORS velocity_gradient double
0.05901 -4.87715 0
5.42657 -0.0956373 0
0 0 0

-0.0406502 -6.2535 0
5.7198 0.285735 0
0 0 0

-0.0630321 -5.30235 0
4.57491 0.0397743 0
0 0 0

0.12203 -5.87035 0
4.28203 0.128098 0
0 0 0

-0.0704266 -6.25462 0
5.92572 0.293514 0
0 0 0

0.157264 -3.6332 0
3.18022 0.400076 0
0 0 0

0.848567 -5.8326 0
3.83978 0.105119 0
0 0 0

0.81782 -3.87493 0
3.96907 -0.551916 0
0 0 0

0.451107 -3.6165 0
0.14703 -0.0328075 0
0 0 0

0.642379 -2.70426 0
1.53894 0.0519888 0
0 0 0

0.290852 -3.94389 0
4.47339 -0.48592 0
0 0 0

-0.361036 -3.14262 0
4.18011 0.222082 0
0 0 0

0.818467 -2.70504 0
4.16673 0.0718775 0
0 0 0

1.82437 -3.74202 0
5.82596 -1.20369 0
0 0 0

-1.02267 -3.17872 0
3.51353 0.185714 0
0 0 0

-1.59389 -3.57824 0
4.29951 0.205233 0
0 0 0

-0.0227721 -5.87355 0
4.58165 -0.0558742 0
0 0 0

0.0915223 -5.11609 0
4.3006 -0.331024 0
0 0 0

0.0460468 -5.81423 0
3.70909 -0.13976 0
0 0 0

0.29373 -4.87116 0
3.76392 -0.39413 0
0 0 0

0.803056 -5.09867 0
3.86748 -0.34163 0
0 0 0

0.846011 -4.40686 0
3.94209 -0.0428539 0
0 0 0

0.231689 -4.87461 0
3.94892 -0.383836 0
0 0 0

0.170028 -4.59542 0
3.92666 -0.0509429 0
0 0 0

0.314462 -4.43967 0
4.35602 -0.0183841 0
0 0 0

-0.250127 -3.80376 0
4.17119 -0.404503 0
0 0 0

0.107493 -4.60224 0
3.70177 -0.0754761 0
0 0 0

-0.0788955 -4.18057 0
3.84463 -0.167302 0
0 0 0

-0.74303 -3.85091 0
3.86792 -0.415423 0
0 0 0

-1.09897 -4.04926 0
4.03631 1.44358 0
0 0 0

-0.388455 -4.20884 0
4.3239 -0.123535 0
0 0 0

-0.644671 -4.30759 0
4.00313 0.800517 0
0 0 0

0.0136971 -5.25356 0
3.71326 -0.212204 0
0 0 0

0.295956 -4.93369 0
3.75728 -0.207668 0
0 0 0

-0.0429407 -4.80893 0
4.07247 0.00157107 0
0 0 0

0.203751 -4.91967 0
4.45502 0.064377 0
0 0 0

0.23397 -4.93712 0
3.94212 -0.197445 0
0 0 0

0.171994 -4.6577 0
3.93373 -0.274917 0
0 0 0

0.263263 -4.9172 0
4.7683 0.0773927 0
0 0 0

0.216754 -4.8161 0
5.10081 -0.100681 0
0 0 0

0.110133 -4.66202 0
3.74682 -0.286047 0
0 0 0

-0.0690056 -4.46401 0
4.17526 0.258434 0
0 0 0

0.0216174 -4.82642 0
5.43669 -0.082911 0
0 0 0

-0.115088 -4.5716 0
5.56707 0.222467 0
0 0 0

-0.293934 -4.47676 0
4.67014 0.269257 0
0 0 0

-0.549347 -4.55342 0
4.56235 -0.0197577 0
0 0 0

-0.1779 -4.57494 0
5.40295 0.213739 0
0 0 0

-0.404159 -4.9538 0
5.43459 0.0482454 0
0 0 0

-0.0655421 -4.43061 0
4.04725 0.42365 0
0 0 0

0.199271 -4.86057 0
4.43144 0.375501 0
0 0 0

0.0711945 -4.11608 0
4.48164 -0.223038 0
0 0 0

0.216684 -4.92611 0
3.63869 0.650414 0
0 0 0

0.260168 -4.85552 0
4.75201 0.402062 0
0 0 0

0.22574 -5.01028 0
5.08534 0.233557 0
0 0 0

0.0760301 -4.93967 0
3.86816 0.672533 0
0 0 0

-0.0659433 -5.16141 0
4.15865 0.61067 0
0 0 0

0.0200091 -5.02229 0
5.36916 0.256536 0
0 0 0

-0.141518 -4.62826 0
5.48444 0.101239 0
0 0 0

-0.195511 -5.174 0
4.54134 0.647849 0
0 0 0

-0.292774 -4.65255 0
4.99169 0.573913 0
0 0 0

-0.213845 -4.63078 0
5.48444 0.116409 0
0 0 0

-0.311051 -5.30209 0
5.64664 0.294931 0
0 0 0

-0.306699 -4.65355 0
5.59108 0.616887 0
0 0 0

-0.208234 -5.04505 0
6.0718 0.470533 0
0 0 0

SCALARS active double 1
LOOKUP_TABLE default
1
1
1
1
1
1
1
1
1
1
1
1
1
1
1
1
1
1
1
1
1
1
1
1
1
1
1
1
1
1
1
1
1
1
1
1
1
1
1
1
1
1
1
1
1
1
1
1
1
1
1
1
1
1
1
1
1
1
1
1
1
1
1
1
SCALARS extent double 1
LOOKUP_TABLE default
0.0125
0.0125
0.0125
0.0125
0.0125
0.0125
0.0125
0.0125
0.0125
0.0125
0.0125
0.0125
0.0125
0.0125
0.0125
0.0125
0.0125
0.0125
0.0125
0.0125
0.0125
0.0125
0.0125
0.0125
0.0125
0.0125
0.0125
0.0125
0.0125
0.0125
0.0125
0.0125
0.0125
0.0125
0.0125
0.0125
0.0125
0.0125
0.0125
0.0125
0.0125
0.0125
0.0125
0.0125
0.0125
0.0125
0.0125
0.0125
0.0125
0.0125
0.0125
0.0125
0.0125
0.0125
0.0125
0.0125
0.0125
0.0125
0.0125
0.0125
0.0125
0.0125
0.0125
0.0125
SCALARS pressure double 1
LOOKUP_TABLE default
-598.082
-110.471
1531.61
799.578
-540.716
984.59
-3340.53
3099.8
-1917.26
1469.47
-3277.62
2160.77
-1676.84
2731.75
-1640.05
-3114.46
-2685.61
3330.41
533.444
-330.496
-2509.03
-614.168
-1214.11
955.671
1801.41
1533.77
3580.95
-1845.41
195.337
1118.54
-1721.4
841.684
-46.4944
-1516.95
-691.085
758.181
2880.95
-2822.91
-634.525
1583.99
-918.716
2865.62
-2418.58
1849.56
100.97
-3092.19
-3131.75
2923.33
656.514
1383.37
-267.622
1128.95
-1693.09
1768.4
897.139
16.5249
-155.735
1291.5
-354.498
344.011
-50.1739
-2303.14
-896.015
661.76
SCALARS density double 1
LOOKUP_TABLE default
993.799
998.852
1016.06
1008.35
994.392
1010.29
965.855
1032.76
980.258
1015.4
966.487
1022.73
982.712
1028.82
983.088
968.129
972.456
1035.24
1005.56
996.569
974.244
993.633
987.453
1009.99
1018.91
1016.08
1037.94
980.991
1002.03
1011.7
982.257
1008.79
999.517
984.348
992.838
1007.92
1030.42
971.068
993.423
1016.61
990.491
1030.25
975.16
1019.42
1001.05
968.353
967.954
1030.87
1006.85
1014.49
997.221
1011.81
982.546
1018.56
1009.37
1000.17
998.382
1013.52
996.32
1003.58
999.478
976.332
990.725
1006.91
