# vtk DataFile Version 3.0
Frame: 14, Time: 0.238
ASCII
DATASET UNSTRUCTURED_GRID
POINTS 64 double
0.293574 0.106121 0 
0.26858 0.110073 0 
0.298815 0.129589 0 
0.273692 0.132598 0 
0.242329 0.114476 0 
0.218256 0.115587 0 
0.247127 0.137973 0 
0.221462 0.141519 0 
0.192086 0.119174 0 
0.167249 0.123742 0 
0.196556 0.144061 0 
0.171505 0.148263 0 
0.143772 0.125849 0 
0.118446 0.131251 0 
0.147329 0.1519 0 
0.122134 0.154914 0 
0.302469 0.152942 0 
0.277358 0.157441 0 
0.306198 0.177519 0 
0.281414 0.181414 0 
0.252668 0.161514 0 
0.226354 0.167065 0 
0.256339 0.186046 0 
0.230759 0.189872 0 
0.201387 0.16914 0 
0.176116 0.172689 0 
0.205083 0.193705 0 
0.180266 0.197079 0 
0.151277 0.176889 0 
0.126304 0.180362 0 
0.155263 0.200942 0 
0.12979 0.204593 0 
0.311408 0.201566 0 
0.285901 0.205309 0 
0.316039 0.225315 0 
0.290273 0.229268 0 
0.260555 0.209508 0 
0.234927 0.213539 0 
0.265339 0.233128 0 
0.239525 0.23734 0 
0.210156 0.217273 0 
0.184286 0.221415 0 
0.213783 0.240958 0 
0.188381 0.24491 0 
0.158633 0.224764 0 
0.133818 0.228004 0 
0.162881 0.248798 0 
0.13807 0.251827 0 
0.319952 0.249692 0 
0.294327 0.252737 0 
0.323586 0.274355 0 
0.297705 0.277444 0 
0.269169 0.256629 0 
0.242931 0.260745 0 
0.272385 0.282142 0 
0.246588 0.284684 0 
0.21808 0.263948 0 
0.192693 0.267143 0 
0.221128 0.288823 0 
0.195805 0.29178 0 
0.166281 0.272278 0 
0.140914 0.275735 0 
0.171313 0.296553 0 
0.146024 0.300786 0 
CELLS 64 128
1 0
1 1
1 2
1 3
1 4
1 5
1 6
1 7
1 8
1 9
1 10
1 11
1 12
1 13
1 14
1 15
1 16
1 17
1 18
1 19
1 20
1 21
1 22
1 23
1 24
1 25
1 26
1 27
1 28
1 29
1 30
1 31
1 32
1 33
1 34
1 35
1 36
1 37
1 38
1 39
1 40
1 41
1 42
1 43
1 44
1 45
1 46
1 47
1 48
1 49
1 50
1 51
1 52
1 53
1 54
1 55
1 56
1 57
1 58
1 59
1 60
1 61
1 62
1 63
CELL_TYPES 64
1
1
1
1
1
1
1
1
1
1
1
1
1
1
1
1
1
1
1
1
1
1
1
1
1
1
1
1
1
1
1
1
1
1
1
1
1
1
1
1
1
1
1
1
1
1
1
1
1
1
1
1
1
1
1
1
1
1
1
1
1
1
1
1
POINT_DATA 64
VECTORS displacement double
0.0810742 -0.106379 0 
0.05608 -0.127427 0 
0.0613152 -0.0829109 0 
0.0361916 -0.104902 0 
0.0298291 -0.148024 0 
0.00575604 -0.171913 0 
0.00962664 -0.124527 0 
-0.0160377 -0.145981 0 
-0.0204138 -0.193326 0 
-0.0452513 -0.213758 0 
-0.040944 -0.168439 0 
-0.0659946 -0.189237 0 
-0.0687277 -0.236651 0 
-0.0940544 -0.256249 0 
-0.0901709 -0.2106 0 
-0.115366 -0.232586 0 
0.0399689 -0.0595583 0 
0.0148577 -0.0800589 0 
0.0186976 -0.0349812 0 
-0.0060865 -0.0560861 0 
-0.00983183 -0.100986 0 
-0.0361462 -0.120435 0 
-0.0311609 -0.0764541 0 
-0.056741 -0.0976281 0 
-0.0611134 -0.14336 0 
-0.086384 -0.164811 0 
-0.082417 -0.118795 0 
-0.107234 -0.140421 0 
-0.111223 -0.185611 0 
-0.136196 -0.207138 0 
-0.132237 -0.161558 0 
-0.15771 -0.182907 0 
-0.00109182 -0.0109341 0 
-0.0265994 -0.0321912 0 
-0.0214612 0.0128152 0 
-0.0472273 -0.00823237 0 
-0.0519453 -0.0529922 0 
-0.0775726 -0.0739615 0 
-0.0721613 -0.0293715 0 
-0.0979746 -0.0501604 0 
-0.102344 -0.0952269 0 
-0.128214 -0.116085 0 
-0.123717 -0.0715423 0 
-0.149119 -0.0925897 0 
-0.153867 -0.137736 0 
-0.178682 -0.159496 0 
-0.174619 -0.113702 0 
-0.19943 -0.135673 0 
-0.0425475 0.0371921 0 
-0.0681726 0.0152366 0 
-0.0639136 0.0618545 0 
-0.0897946 0.0399439 0 
-0.0933305 -0.00587089 0 
-0.119569 -0.026755 0 
-0.115115 0.0196418 0 
-0.140912 -0.00281561 0 
-0.14442 -0.0485522 0 
-0.169807 -0.0703571 0 
-0.166372 -0.0236766 0 
-0.191695 -0.0457202 0 
-0.196219 -0.0902217 0 
-0.221586 -0.111765 0 
-0.216187 -0.0659473 0 
-0.241476 -0.0867144 0 
VECTORS velocity double
-0.588552 1.99352 0 
-1.0259 1.67537 0 
-1.42085 2.09452 0 
-1.23612 1.8233 0 
-0.620978 1.53339 0 
-0.514312 1.11189 0 
-0.819922 1.87282 0 
-1.09828 2.19243 0 
-0.581367 1.21486 0 
-0.347985 0.818878 0 
-1.02077 1.36958 0 
-0.884181 0.735096 0 
-0.253933 0.510012 0 
-0.667207 0.527496 0 
-1.16966 0.708836 0 
-1.48779 0.329982 0 
-1.32145 2.03861 0 
-1.2371 1.41944 0 
-1.33891 2.57543 0 
-1.42712 2.16587 0 
-1.12348 1.88804 0 
-1.72557 2.43881 0 
-1.31417 2.38204 0 
-1.67126 2.42853 0 
-1.62878 1.88019 0 
-1.58154 0.890689 0 
-1.54477 2.12787 0 
-1.88384 1.29137 0 
-1.76898 0.81089 0 
-1.58951 0.445425 0 
-1.97393 0.91345 0 
-1.62439 0.749114 0 
-0.911372 2.09678 0 
-1.43721 2.06935 0 
-1.3937 1.9015 0 
-1.41105 1.72949 0 
-0.944314 1.93514 0 
-1.03929 1.36388 0 
-1.12687 1.92985 0 
-1.2711 1.66996 0 
-1.24857 1.06246 0 
-1.63805 0.871677 0 
-1.50626 1.11336 0 
-1.71219 0.943665 0 
-1.66071 0.725555 0 
-2.02566 0.694937 0 
-1.41289 1.35464 0 
-1.76733 1.17205 0 
-1.34679 2.70971 0 
-1.25149 1.88277 0 
-1.57068 2.24237 0 
-1.94966 2.09708 0 
-1.35577 2.08147 0 
-1.61724 2.10504 0 
-2.0818 2.24973 0 
-2.46661 2.05025 0 
-1.65513 1.54038 0 
-1.89259 0.840691 0 
-2.36595 1.92967 0 
-2.16477 0.990669 0 
-1.8107 1.51563 0 
-2.03101 0.971487 0 
-1.71313 1.22572 0 
-1.82158 1.09258 0 
SCALARS mass double 1
LOOKUP_TABLE default
0.625
0.625
0.625
0.625
0.625
0.625
0.625
0.625
0.625
0.625
0.625
0.625
0.625
0.625
0.625
0.625
0.625
0.625
0.625
0.625
0.625
0.625
0.625
0.625
0.625
0.625
0.625
0.625
0.625
0.625
0.625
0.625
0.625
0.625
0.625
0.625
0.625
0.625
0.625
0.625
0.625
0.625
0.625
0.625
0.625
0.625
0.625
0.625
0.625
0.625
0.625
0.625
0.625
0.625
0.625
0.625
0.625
0.625
0.625
0.625
0.625
0.625
0.625
0.625
SCALARS volume double 1
LOOKUP_TABLE default
0.000607527
0.000641123
0.000610222
0.000605226
0.00060942
0.000655351
0.00063938
0.000610837
0.000657658
0.000588392
0.000646421
0.000617845
0.000625609
0.000636541
0.000640691
0.00062547
0.000631299
0.0006102
0.000610937
0.000607349
0.000652799
0.000651309
0.000621372
0.000609229
0.000626453
0.000602087
0.000605875
0.000632176
0.000611514
0.000622801
0.000622241
0.000619649
0.000610355
0.000626315
0.000620128
0.000612474
0.000598924
0.000620051
0.000608493
0.000617895
0.000629802
0.00063244
0.000597887
0.000579345
0.000603399
0.000624016
0.000602743
0.000609426
0.000637809
0.000610507
0.000626894
0.000636492
0.000625004
0.000603985
0.000646105
0.000664497
0.000623235
0.000633517
0.000645004
0.000635071
0.000619714
0.000624894
0.000630174
0.000619546
VECTORS momentum double
-0.367845 1.24595 0 
-0.64119 1.0471 0 
-0.888031 1.30908 0 
-0.772576 1.13956 0 
-0.388111 0.958367 0 
-0.321445 0.694932 0 
-0.512451 1.17051 0 
-0.686425 1.37027 0 
-0.363354 0.75929 0 
-0.21749 0.511799 0 
-0.637978 0.855988 0 
-0.552613 0.459435 0 
-0.158708 0.318757 0 
-0.417004 0.329685 0 
-0.731036 0.443023 0 
-0.929869 0.206239 0 
-0.825907 1.27413 0 
-0.773186 0.887148 0 
-0.836818 1.60965 0 
-0.891951 1.35367 0 
-0.702175 1.18002 0 
-1.07848 1.52426 0 
-0.821358 1.48877 0 
-1.04454 1.51783 0 
-1.01799 1.17512 0 
-0.988462 0.55668 0 
-0.965483 1.32992 0 
-1.1774 0.807107 0 
-1.10561 0.506806 0 
-0.993442 0.278391 0 
-1.23371 0.570906 0 
-1.01524 0.468196 0 
-0.569607 1.31049 0 
-0.898257 1.29334 0 
-0.871061 1.18844 0 
-0.881907 1.08093 0 
-0.590196 1.20946 0 
-0.649556 0.852428 0 
-0.704293 1.20615 0 
-0.794437 1.04373 0 
-0.780354 0.664035 0 
-1.02378 0.544798 0 
-0.941414 0.695848 0 
-1.07012 0.589791 0 
-1.03794 0.453472 0 
-1.26604 0.434335 0 
-0.883055 0.846648 0 
-1.10458 0.732531 0 
-0.841743 1.69357 0 
-0.782178 1.17673 0 
-0.981673 1.40148 0 
-1.21854 1.31068 0 
-0.847356 1.30092 0 
-1.01078 1.31565 0 
-1.30112 1.40608 0 
-1.54163 1.28141 0 
-1.03446 0.962739 0 
-1.18287 0.525432 0 
-1.47872 1.20605 0 
-1.35298 0.619168 0 
-1.13169 0.947271 0 
-1.26938 0.60718 0 
-1.0707 0.766076 0 
-1.13849 0.682864 0 
VECTORS body_force double
0 -9.81 0 
0 -9.81 0 
0 -9.81 0 
0 -9.81 0 
0 -9.81 0 
0 -9.81 0 
0 -9.81 0 
0 -9.81 0 
0 -9.81 0 
0 -9.81 0 
0 -9.81 0 
0 -9.81 0 
0 -9.81 0 
0 -9.81 0 
0 -9.81 0 
0 -9.81 0 
0 -9.81 0 
0 -9.81 0 
0 -9.81 0 
0 -9.81 0 
0 -9.81 0 
0 -9.81 0 
0 -9.81 0 
0 -9.81 0 
0 -9.81 0 
0 -9.81 0 
0 -9.81 0 
0 -9.81 0 
0 -9.81 0 
0 -9.81 0 
0 -9.81 0 
0 -9.81 0 
0 -9.81 0 
0 -9.81 0 
0 -9.81 0 
0 -9.81 0 
0 -9.81 0 
0 -9.81 0 
0 -9.81 0 
0 -9.81 0 
0 -9.81 0 
0 -9.81 0 
0 -9.81 0 
0 -9.81 0 
0 -9.81 0 
0 -9.81 0 
0 -9.81 0 
0 -9.81 0 
0 -9.81 0 
0 -9.81 0 
0 -9.81 0 
0 -9.81 0 
0 -9.81 0 
0 -9.81 0 
0 -9.81 0 
0 -9.81 0 
0 -9.81 0 
0 -9.81 0 
0 -9.81 0 
0 -9.81 0 
0 -9.81 0 
0 -9.81 0 
0 -9.81 0 
0 -9.81 0 
TENSORS cauchy_stress double
-6300.31 1482.16 0
1482.16 847.565 0
0 0 0

8915.78 1493.27 0
1493.27 -4017.72 0
0 0 0

1207.39 -3874.16 0
-3874.16 -5809.09 0
0 0 0

-2411.89 1676.56 0
1676.56 -3770.66 0
0 0 0

-7082.47 91.8038 0
91.8038 2227.76 0
0 0 0

6140.63 -1394.2 0
-1394.2 2978.51 0
0 0 0

9805.05 -6117.51 0
-6117.51 -5430.5 0
0 0 0

-5863.66 8269.56 0
8269.56 1455.82 0
0 0 0

5035.73 1794.15 0
1794.15 4759.24 0
0 0 0

-5734.24 -529.627 0
-529.627 -5873.2 0
0 0 0

5957.67 8.17326 0
8.17326 522.841 0
0 0 0

-3242.88 -2203.95 0
-2203.95 1028.65 0
0 0 0

-2488.76 4306.86 0
4306.86 2676.15 0
0 0 0

3124.12 -3402.07 0
-3402.07 394.595 0
0 0 0

842.129 3676.71 0
3676.71 3926.17 0
0 0 0

578.895 -3724.76 0
-3724.76 -434.224 0
0 0 0

-566.355 -2101.73 0
-2101.73 2494.71 0
0 0 0

-100.515 957.69 0
957.69 -4507.97 0
0 0 0

924.511 1658.33 0
1658.33 -5300.98 0
0 0 0

-2443.89 712.915 0
712.915 -3065.25 0
0 0 0

3486.27 -2271.65 0
-2271.65 4882.5 0
0 0 0

7729.66 1677.52 0
1677.52 199.749 0
0 0 0

626.708 -1838.99 0
-1838.99 -1746.29 0
0 0 0

2092.08 -296.113 0
-296.113 -7007.04 0
0 0 0

-429.378 1603.84 0
1603.84 875.902 0
0 0 0

-1304.33 1377.1 0
1377.1 -5878.43 0
0 0 0

-1383.5 1630.66 0
1630.66 -4593.07 0
0 0 0

638.26 -1324.47 0
-1324.47 1557.25 0
0 0 0

-106.563 1691.07 0
1691.07 -4088.3 0
0 0 0

-1114.35 -795.285 0
-795.285 436.607 0
0 0 0

1219.89 -244.466 0
-244.466 -2070.72 0
0 0 0

1546.28 -2290.78 0
-2290.78 -3199.94 0
0 0 0

-1229.01 529.828 0
529.828 -3330.76 0
0 0 0

3825.3 1865.2 0
1865.2 -3421.26 0
0 0 0

1522.64 -1997.14 0
-1997.14 -3027.64 0
0 0 0

771.141 2490.56 0
2490.56 -4664.52 0
0 0 0

-1030.84 -1103.89 0
-1103.89 -7164.71 0
0 0 0

942.882 3041.99 0
3041.99 -2471.56 0
0 0 0

-450.943 -1689.22 0
-1689.22 -4696.44 0
0 0 0

2719.52 10.315 0
10.315 -4918.21 0
0 0 0

2519.98 -1253.21 0
-1253.21 -1048.19 0
0 0 0

3175.54 716.345 0
716.345 -899.744 0
0 0 0

1735.49 -312.214 0
-312.214 -10264.2 0
0 0 0

-2671.49 -276.761 0
-276.761 -11915.6 0
0 0 0

4.91883 462.829 0
462.829 -6768.93 0
0 0 0

193.686 161.948 0
161.948 -496.607 0
0 0 0

-1572.79 1206.79 0
1206.79 -5400.43 0
0 0 0

1188.4 492.586 0
492.586 -6041.23 0
0 0 0

2205.21 -2317.84 0
-2317.84 1696.09 0
0 0 0

-113.287 800.279 0
800.279 -4398.62 0
0 0 0

988.525 644.891 0
644.891 -406.71 0
0 0 0

3326.47 35.0799 0
35.0799 177.287 0
0 0 0

1671.6 -381.38 0
-381.38 -1670.24 0
0 0 0

-374.477 -2182.01 0
-2182.01 -6203.02 0
0 0 0

3011.75 542.675 0
542.675 3374.73 0
0 0 0

7037.46 -1791.95 0
-1791.95 4747.02 0
0 0 0

281.307 897.594 0
897.594 -825.19 0
0 0 0

4497.32 -3205.36 0
-3205.36 -1894.48 0
0 0 0

4357.66 -459.297 0
-459.297 1700.82 0
0 0 0

3785.55 276.759 0
276.759 -711.417 0
0 0 0

2204.06 -3457.35 0
-3457.35 -3837.45 0
0 0 0

146.966 -939.523 0
-939.523 -179.594 0
0 0 0

2115.06 -939.007 0
-939.007 -529.62 0
0 0 0

238.538 1152.66 0
1152.66 -1924.16 0
0 0 0

TENSORS velocity_gradient double
-3.33082 -7.14285 0
4.9221 1.5005 0
0 0 0

-3.49505 -6.93908 0
4.56471 5.06967 0
0 0 0

-3.08088 -5.41331 0
5.67621 2.72779 0
0 0 0

-2.64153 -6.73782 0
2.8621 4.6682 0
0 0 0

-2.88798 -8.11323 0
7.47158 6.2767 0
0 0 0

-2.8066 -9.6424 0
7.5237 5.29717 0
0 0 0

-1.77459 -7.85281 0
6.29364 6.2201 0
0 0 0

-1.17377 -9.42322 0
8.56963 5.43757 0
0 0 0

-3.06262 -11.3843 0
13.1357 3.81476 0
0 0 0

-2.69713 -13.2425 0
13.621 1.34713 0
0 0 0

-1.14648 -11.0507 0
13.4496 4.17337 0
0 0 0

-0.848899 -12.3331 0
15.7468 1.5417 0
0 0 0

3.27778 -13.8507 0
3.98351 -0.786517 0
0 0 0

3.00781 -10.8761 0
3.66821 -2.45288 0
0 0 0

0.259214 -13.0148 0
8.92664 1.20992 0
0 0 0

0.442884 -11.1758 0
4.86941 1.82346 0
0 0 0

-0.597513 -2.04393 0
5.35708 1.24509 0
0 0 0

-1.68397 -1.07168 0
1.66417 0.303475 0
0 0 0

0.513286 0.301249 0
3.90919 0.170304 0
0 0 0

-0.713004 -0.529299 0
2.59543 0.191653 0
0 0 0

-1.09003 -1.80605 0
3.15392 -0.935289 0
0 0 0

1.49124 -4.81081 0
8.982 -1.14343 0
0 0 0

-0.522304 -1.54689 0
2.78731 -0.832203 0
0 0 0

4.4985 -4.21778 0
8.98365 -1.1431 0
0 0 0

1.536 -8.01896 0
10.7084 -1.01433 0
0 0 0

1.22649 -10.427 0
14.7434 0.505311 0
0 0 0

5.03512 -7.58631 0
8.98395 -1.14495 0
0 0 0

3.22946 -8.58759 0
12.8247 -0.0393657 0
0 0 0

0.885994 -12.3316 0
11.7293 2.1923 0
0 0 0

-1.22215 -11.4265 0
4.9072 2.54186 0
0 0 0

3.33851 -6.36153 0
12.2509 2.95432 0
0 0 0

-2.03146 -3.69168 0
4.61824 5.56167 0
0 0 0

0.796623 -1.45989 0
2.11593 0.585389 0
0 0 0

0.266246 -3.02001 0
3.41131 0.372849 0
0 0 0

0.298077 -3.77863 0
3.7244 2.12769 0
0 0 0

1.28787 -3.66067 0
3.64148 0.405541 0
0 0 0

0.44644 -4.93588 0
3.493 0.180511 0
0 0 0

5.27414 -4.52619 0
10.1369 -1.24575 0
0 0 0

1.45706 -4.72632 0
3.67134 0.217491 0
0 0 0

3.67764 -4.84105 0
12.4622 -0.787156 0
0 0 0

5.00558 -2.87211 0
10.5281 -3.65489 0
0 0 0

3.00768 -1.58846 0
8.58209 -1.96246 0
0 0 0

3.41232 -3.1194 0
12.8486 -3.29471 0
0 0 0

2.1749 -1.7344 0
3.83256 -2.79479 0
0 0 0

2.88176 -0.683183 0
7.86392 3.2005 0
0 0 0

-0.350642 -1.46493 0
3.43893 6.06477 0
0 0 0

1.86801 -1.27509 0
3.44735 2.03918 0
0 0 0

1.38237 -0.967062 0
2.22474 3.46916 0
0 0 0

-0.115076 -4.76737 0
5.66821 1.41419 0
0 0 0

1.98707 -6.77462 0
4.06204 0.826948 0
0 0 0

1.95681 -6.42392 0
3.92521 -1.56633 0
0 0 0

3.2038 -9.06887 0
3.54648 0.857874 0
0 0 0

2.59007 -10.2462 0
3.74326 1.30659 0
0 0 0

1.72166 -11.7325 0
13.1826 1.70681 0
0 0 0

4.25893 -10.855 0
3.45814 1.42175 0
0 0 0

0.940382 -11.8378 0
9.86878 1.68216 0
0 0 0

1.21589 -8.84159 0
13.8661 1.7297 0
0 0 0

0.0904257 -5.80561 0
3.37164 1.68402 0
0 0 0

-1.75469 -9.23384 0
13.8479 1.7273 0
0 0 0

-2.65484 -6.19644 0
6.44403 1.69945 0
0 0 0

-0.576114 -2.64603 0
2.77846 1.41906 0
0 0 0

2.35617 -0.742829 0
1.25763 1.51791 0
0 0 0

-3.25586 -2.88372 0
2.93978 1.58502 0
0 0 0

1.01001 -2.10554 0
0.987554 3.01041 0
0 0 0

SCALARS active double 1
LOOKUP_TABLE default
1
1
1
1
1
1
1
1
1
1
1
1
1
1
1
1
1
1
1
1
1
1
1
1
1
1
1
1
1
1
1
1
1
1
1
1
1
1
1
1
1
1
1
1
1
1
1
1
1
1
1
1
1
1
1
1
1
1
1
1
1
1
1
1
SCALARS extent double 1
LOOKUP_TABLE default
0.0125
0.0125
0.0125
0.0125
0.0125
0.0125
0.0125
0.0125
0.0125
0.0125
0.0125
0.0125
0.0125
0.0125
0.0125
0.0125
0.0125
0.0125
0.0125
0.0125
0.0125
0.0125
0.0125
0.0125
0.0125
0.0125
0.0125
0.0125
0.0125
0.0125
0.0125
0.0125
0.0125
0.0125
0.0125
0.0125
0.0125
0.0125
0.0125
0.0125
0.0125
0.0125
0.0125
0.0125
0.0125
0.0125
0.0125
0.0125
0.0125
0.0125
0.0125
0.0125
0.0125
0.0125
0.0125
0.0125
0.0125
0.0125
0.0125
0.0125
0.0125
0.0125
0.0125
0.0125
SCALARS pressure double 1
LOOKUP_TABLE default
2726.37
-2449.03
2300.85
3091.27
2427.36
-4559.57
-2187.27
2203.92
-4897.49
5803.72
-3240.26
1107.12
-93.6987
-1759.36
-2384.15
-72.3356
-964.178
2304.24
2188.23
2754.57
-4184.39
-3964.7
559.79
2457.48
-223.262
3591.38
2988.29
-1097.75
2097.43
338.869
425.414
826.832
2279.89
-202.021
752.503
1946.69
4097.78
764.339
2573.69
1099.35
-735.896
-1137.9
4264.36
7293.53
3382.01
151.46
3486.61
2426.42
-1950.65
2255.95
-290.907
-1751.88
-0.679137
3288.75
-3193.24
-5892.24
271.941
-1301.42
-3029.24
-1537.06
816.694
16.3143
-792.72
842.812
SCALARS density double 1
LOOKUP_TABLE default
1028.76
974.852
1024.22
1032.67
1025.57
953.687
977.509
1023.19
950.342
1062.22
966.863
1011.58
999.026
981.869
975.51
999.248
990.023
1024.25
1023.02
1029.06
957.416
959.606
1005.84
1025.89
997.681
1038.06
1031.57
988.648
1022.05
1003.53
1004.43
1008.64
1023.99
997.901
1007.86
1020.45
1043.54
1007.98
1027.13
1011.5
992.376
988.236
1045.35
1078.8
1035.8
1001.58
1036.93
1025.56
979.918
1023.74
996.979
981.945
999.993
1034.79
967.336
940.561
1002.83
986.556
968.987
984.142
1008.53
1000.17
991.79
1008.8
