# vtk DataFile Version 3.0
Frame: 52, Time: 0.884
ASCII
DATASET UNSTRUCTURED_GRID
POINTS 64 double
0.972335 0.300899 0 
0.996592 0.296828 0 
0.966363 0.276232 0 
0.991422 0.27289 0 
0.0213757 0.292232 0 
0.0474682 0.288395 0 
0.0166492 0.267408 0 
0.0427677 0.263381 0 
0.0717721 0.282058 0 
0.0977855 0.277175 0 
0.0697001 0.257612 0 
0.0953733 0.253773 0 
0.122953 0.27526 0 
0.152201 0.270777 0 
0.119314 0.249978 0 
0.147837 0.24733 0 
0.960334 0.253228 0 
0.986507 0.24815 0 
0.956684 0.228829 0 
0.982431 0.224689 0 
0.0119608 0.243598 0 
0.0378786 0.238982 0 
0.0081636 0.219535 0 
0.0336154 0.21593 0 
0.0631745 0.233738 0 
0.090273 0.230497 0 
0.0591928 0.209975 0 
0.0864513 0.206607 0 
0.114675 0.225193 0 
0.142768 0.220684 0 
0.111758 0.200724 0 
0.135805 0.197328 0 
0.952282 0.204891 0 
0.977749 0.200573 0 
0.948714 0.181619 0 
0.973777 0.17602 0 
0.00310581 0.195286 0 
0.0296182 0.192422 0 
-0.00137741 0.171969 0 
0.024997 0.168361 0 
0.0545959 0.188598 0 
0.0803727 0.183458 0 
0.050282 0.165041 0 
0.0748986 0.158364 0 
0.105071 0.177295 0 
0.128155 0.172939 0 
0.099992 0.151281 0 
0.124645 0.146196 0 
0.943525 0.157827 0 
0.968003 0.152098 0 
0.936531 0.134452 0 
0.961789 0.127041 0 
0.993368 0.146902 0 
0.0192578 0.14415 0 
0.987694 0.121181 0 
0.0131774 0.118986 0 
0.0437241 0.139582 0 
0.0675176 0.136005 0 
0.0372312 0.114416 0 
0.062 0.110438 0 
0.0927278 0.127934 0 
0.11914 0.122642 0 
0.0852629 0.105248 0 
0.110381 0.0989638 0 
CELLS 64 128
1 0
1 1
1 2
1 3
1 4
1 5
1 6
1 7
1 8
1 9
1 10
1 11
1 12
1 13
1 14
1 15
1 16
1 17
1 18
1 19
1 20
1 21
1 22
1 23
1 24
1 25
1 26
1 27
1 28
1 29
1 30
1 31
1 32
1 33
1 34
1 35
1 36
1 37
1 38
1 39
1 40
1 41
1 42
1 43
1 44
1 45
1 46
1 47
1 48
1 49
1 50
1 51
1 52
1 53
1 54
1 55
1 56
1 57
1 58
1 59
1 60
1 61
1 62
1 63
CELL_TYPES 64
1
1
1
1
1
1
1
1
1
1
1
1
1
1
1
1
1
1
1
1
1
1
1
1
1
1
1
1
1
1
1
1
1
1
1
1
1
1
1
1
1
1
1
1
1
1
1
1
1
1
1
1
1
1
1
1
1
1
1
1
1
1
1
1
POINT_DATA 64
VECTORS displacement double
-0.240165 0.0883991 0 
-0.215908 0.0593282 0 
-0.271137 0.0637316 0 
-0.246078 0.0353902 0 
-0.191124 0.0297317 0 
-0.165032 0.000895023 0 
-0.220851 0.00490752 0 
-0.194732 -0.0241188 0 
-0.140728 -0.030442 0 
-0.114714 -0.0603251 0 
-0.1678 -0.0548881 0 
-0.142127 -0.0837267 0 
-0.0895475 -0.0872404 0 
-0.0602988 -0.116723 0 
-0.118186 -0.112522 0 
-0.0896625 -0.14017 0 
-0.302166 0.0407278 0 
-0.275993 0.0106505 0 
-0.330816 0.016329 0 
-0.305069 -0.0128109 0 
-0.250539 -0.0189017 0 
-0.224621 -0.0485177 0 
-0.279336 -0.042965 0 
-0.253885 -0.0715698 0 
-0.199326 -0.078762 0 
-0.172227 -0.107003 0 
-0.228307 -0.102525 0 
-0.201049 -0.130893 0 
-0.147825 -0.137307 0 
-0.119732 -0.166816 0 
-0.175742 -0.161776 0 
-0.151695 -0.190172 0 
-0.360218 -0.00760921 0 
-0.334751 -0.0369269 0 
-0.388786 -0.0308815 0 
-0.363723 -0.0614797 0 
-0.309394 -0.0672139 0 
-0.282882 -0.0950784 0 
-0.338877 -0.0905308 0 
-0.312503 -0.119139 0 
-0.257904 -0.123902 0 
-0.232127 -0.154042 0 
-0.287218 -0.147459 0 
-0.262601 -0.179136 0 
-0.207429 -0.185205 0 
-0.184345 -0.214561 0 
-0.237508 -0.211219 0 
-0.212855 -0.241304 0 
-0.418975 -0.0546733 0 
-0.394497 -0.0854021 0 
-0.450969 -0.0780482 0 
-0.425711 -0.110459 0 
-0.369132 -0.115598 0 
-0.343242 -0.14335 0 
-0.399806 -0.141319 0 
-0.374323 -0.168514 0 
-0.318776 -0.172918 0 
-0.294982 -0.201495 0 
-0.350269 -0.198084 0 
-0.3255 -0.227062 0 
-0.269772 -0.234566 0 
-0.24336 -0.264858 0 
-0.302237 -0.257252 0 
-0.277119 -0.288536 0 
VECTORS velocity double
-1.33396 0.414123 0 
-1.25465 1.36727 0 
-1.60831 0.850809 0 
-1.45893 1.47842 0 
-1.13339 1.9691 0 
-1.3845 1.80169 0 
-1.34534 1.56359 0 
-1.47749 2.01223 0 
-1.66124 2.59922 0 
-1.46803 1.78621 0 
-0.987325 2.24611 0 
-0.916365 2.10301 0 
-2.13309 1.75788 0 
-2.15661 2.18151 0 
-1.39112 1.40429 0 
-1.2309 1.81078 0 
-1.30902 1.02623 0 
-1.21389 1.36741 0 
-1.16182 0.42792 0 
-1.63246 0.909409 0 
-1.30459 1.13422 0 
-1.44061 1.00021 0 
-1.37169 0.583499 0 
-1.49457 0.631435 0 
-1.34573 1.00512 0 
-1.12387 0.94995 0 
-1.58863 1.55347 0 
-1.4782 1.4612 0 
-1.59549 1.09415 0 
-1.51629 1.21932 0 
-2.00183 1.07129 0 
-1.64149 1.52814 0 
-1.29244 0.592401 0 
-2.06913 1.18924 0 
-1.32955 0.479405 0 
-2.16866 0.680067 0 
-1.85638 0.971152 0 
-1.93386 1.29954 0 
-2.13443 0.774672 0 
-1.83783 1.1483 0 
-2.09458 2.4039 0 
-1.54296 2.31176 0 
-1.76988 1.79468 0 
-1.36347 1.7484 0 
-1.73135 1.15356 0 
-1.80374 1.72062 0 
-1.72666 0.557987 0 
-1.74483 1.02534 0 
-1.43694 0.404168 0 
-1.44884 0.253321 0 
-1.15479 -0.0499878 0 
-1.0838 0.39181 0 
-1.21648 0.520834 0 
-0.870534 0.933798 0 
-0.369768 0.585708 0 
-0.560818 1.03976 0 
-1.05703 1.27743 0 
-1.25654 1.70559 0 
-1.10658 1.05128 0 
-1.24387 1.11568 0 
-1.66582 1.37487 0 
-1.56455 1.40477 0 
-1.71164 0.958922 0 
-0.960181 1.7951 0 
SCALARS mass double 1
LOOKUP_TABLE default
0.625
0.625
0.625
0.625
0.625
0.625
0.625
0.625
0.625
0.625
0.625
0.625
0.625
0.625
0.625
0.625
0.625
0.625
0.625
0.625
0.625
0.625
0.625
0.625
0.625
0.625
0.625
0.625
0.625
0.625
0.625
0.625
0.625
0.625
0.625
0.625
0.625
0.625
0.625
0.625
0.625
0.625
0.625
0.625
0.625
0.625
0.625
0.625
0.625
0.625
0.625
0.625
0.625
0.625
0.625
0.625
0.625
0.625
0.625
0.625
0.625
0.625
0.625
0.625
SCALARS volume double 1
LOOKUP_TABLE default
0.000626202
0.000627218
0.000626759
0.000607562
0.000649828
0.000641827
0.000618685
0.000610199
0.000662739
0.000621832
0.000650552
0.00056066
0.000650942
0.000641378
0.00066923
0.000607743
0.000648854
0.000620262
0.000620812
0.000610648
0.000632452
0.000622068
0.000638221
0.000599494
0.000657741
0.000575074
0.000611292
0.00065021
0.000616463
0.000646612
0.000613869
0.000649035
0.000612536
0.000611758
0.000600661
0.000630893
0.000614994
0.000603795
0.00063211
0.000640296
0.000580462
0.000621521
0.000658526
0.00064622
0.000608572
0.00063787
0.000660566
0.000651725
0.000610193
0.0006336
0.000633928
0.00061231
0.000634668
0.000625118
0.000652287
0.000604336
0.000634799
0.000593906
0.000626673
0.000616924
0.000612954
0.000626379
0.000602315
0.00061954
VECTORS momentum double
-0.833728 0.258827 0 
-0.784158 0.854545 0 
-1.0052 0.531756 0 
-0.911832 0.924013 0 
-0.70837 1.23069 0 
-0.865311 1.12605 0 
-0.840836 0.977242 0 
-0.923434 1.25764 0 
-1.03827 1.62451 0 
-0.917521 1.11638 0 
-0.617078 1.40382 0 
-0.572728 1.31438 0 
-1.33318 1.09867 0 
-1.34788 1.36344 0 
-0.869448 0.87768 0 
-0.769311 1.13174 0 
-0.81814 0.641391 0 
-0.758684 0.854633 0 
-0.726136 0.26745 0 
-1.02029 0.568381 0 
-0.815368 0.708887 0 
-0.90038 0.62513 0 
-0.857304 0.364687 0 
-0.934109 0.394647 0 
-0.84108 0.628202 0 
-0.70242 0.593719 0 
-0.992891 0.970918 0 
-0.923874 0.91325 0 
-0.997184 0.683842 0 
-0.947681 0.762077 0 
-1.25114 0.669559 0 
-1.02593 0.955085 0 
-0.807773 0.37025 0 
-1.29321 0.743275 0 
-0.830969 0.299628 0 
-1.35541 0.425042 0 
-1.16024 0.60697 0 
-1.20866 0.812213 0 
-1.33402 0.48417 0 
-1.14864 0.717688 0 
-1.30911 1.50244 0 
-0.964349 1.44485 0 
-1.10618 1.12168 0 
-0.85217 1.09275 0 
-1.08209 0.720973 0 
-1.12734 1.07539 0 
-1.07916 0.348742 0 
-1.09052 0.640835 0 
-0.89809 0.252605 0 
-0.905522 0.158325 0 
-0.721744 -0.0312424 0 
-0.677376 0.244881 0 
-0.760303 0.325521 0 
-0.544084 0.583624 0 
-0.231105 0.366067 0 
-0.350511 0.64985 0 
-0.660647 0.798397 0 
-0.785338 1.06599 0 
-0.691615 0.657051 0 
-0.777416 0.697297 0 
-1.04113 0.859293 0 
-0.977843 0.877979 0 
-1.06978 0.599326 0 
-0.600113 1.12193 0 
VECTORS body_force double
0 -9.81 0 
0 -9.81 0 
0 -9.81 0 
0 -9.81 0 
0 -9.81 0 
0 -9.81 0 
0 -9.81 0 
0 -9.81 0 
0 -9.81 0 
0 -9.81 0 
0 -9.81 0 
0 -9.81 0 
0 -9.81 0 
0 -9.81 0 
0 -9.81 0 
0 -9.81 0 
0 -9.81 0 
0 -9.81 0 
0 -9.81 0 
0 -9.81 0 
0 -9.81 0 
0 -9.81 0 
0 -9.81 0 
0 -9.81 0 
0 -9.81 0 
0 -9.81 0 
0 -9.81 0 
0 -9.81 0 
0 -9.81 0 
0 -9.81 0 
0 -9.81 0 
0 -9.81 0 
0 -9.81 0 
0 -9.81 0 
0 -9.81 0 
0 -9.81 0 
0 -9.81 0 
0 -9.81 0 
0 -9.81 0 
0 -9.81 0 
0 -9.81 0 
0 -9.81 0 
0 -9.81 0 
0 -9.81 0 
0 -9.81 0 
0 -9.81 0 
0 -9.81 0 
0 -9.81 0 
0 -9.81 0 
0 -9.81 0 
0 -9.81 0 
0 -9.81 0 
0 -9.81 0 
0 -9.81 0 
0 -9.81 0 
0 -9.81 0 
0 -9.81 0 
0 -9.81 0 
0 -9.81 0 
0 -9.81 0 
0 -9.81 0 
0 -9.81 0 
0 -9.81 0 
0 -9.81 0 
TENSORS cauchy_stress double
1238.79 1249.38 0
1249.38 -869.205 0
0 0 0

-1035.48 942.169 0
942.169 1716.75 0
0 0 0

2869.19 2316.55 0
2316.55 -2328.58 0
0 0 0

-2558.5 1142.33 0
1142.33 -2883.29 0
0 0 0

2422.04 -246.885 0
-246.885 5069.65 0
0 0 0

634.217 -1901.56 0
-1901.56 4474.95 0
0 0 0

2791.45 -2079.8 0
-2079.8 -4744.4 0
0 0 0

281.08 -1382.23 0
-1382.23 -4890.06 0
0 0 0

4348.28 -2541.77 0
-2541.77 6926.61 0
0 0 0

-1012.44 -3764.28 0
-3764.28 35.2878 0
0 0 0

9962.4 1277.74 0
1277.74 -2256.73 0
0 0 0

-10301 -1497.08 0
-1497.08 -10590.6 0
0 0 0

6713.05 645.921 0
645.921 1107.82 0
0 0 0

4724.4 722.588 0
722.588 250.204 0
0 0 0

9676.29 3893.77 0
3893.77 3473.04 0
0 0 0

-6304.05 -1976.26 0
-1976.26 919.392 0
0 0 0

6215.97 637.34 0
637.34 987.067 0
0 0 0

1684.22 -807.131 0
-807.131 -3147.54 0
0 0 0

3268.47 122.085 0
122.085 -4561.48 0
0 0 0

-846.279 -923.31 0
-923.31 -3621.12 0
0 0 0

4383.55 267.635 0
267.635 -2104.24 0
0 0 0

315.107 -1794.82 0
-1794.82 -1219.42 0
0 0 0

3907.98 666.886 0
666.886 117.564 0
0 0 0

-684.361 -15.5418 0
-15.5418 -7328.26 0
0 0 0

9007.32 -1983.39 0
-1983.39 811.908 0
0 0 0

-6847.28 -2129.2 0
-2129.2 -9163.01 0
0 0 0

4174.34 803.988 0
803.988 -8439.17 0
0 0 0

8664.06 716.108 0
716.108 -1059.51 0
0 0 0

2367.33 -2484.57 0
-2484.57 -5012.24 0
0 0 0

4990.6 1212.07 0
1212.07 1546.73 0
0 0 0

-2401.24 -890.328 0
-890.328 -1054.66 0
0 0 0

5159.14 4020 0
4020 2097.5 0
0 0 0

279.106 -2796.45 0
-2796.45 -4152.93 0
0 0 0

-1268.22 -1195.81 0
-1195.81 -2849.89 0
0 0 0

-2982.72 -4323.84 0
-4323.84 -4655.84 0
0 0 0

2223.23 172.491 0
172.491 -418.614 0
0 0 0

3209.36 -2317.5 0
-2317.5 -6313.1 0
0 0 0

-566.744 3107.16 0
3107.16 -6071.25 0
0 0 0

2377.04 1235.99 0
1235.99 -201.55 0
0 0 0

4595.3 2720.46 0
2720.46 54.4471 0
0 0 0

-3037.31 -7146.82 0
-7146.82 -11179.6 0
0 0 0

1440.94 2529.31 0
2529.31 -2514.34 0
0 0 0

3633.55 1298.78 0
1298.78 6414.88 0
0 0 0

3002.78 -1497.98 0
-1497.98 3418.19 0
0 0 0

-3537.17 -2489.86 0
-2489.86 -1585.29 0
0 0 0

-2096.66 4766.86 0
4766.86 6016.33 0
0 0 0

4406.81 718.351 0
718.351 6236.43 0
0 0 0

2486.17 274.305 0
274.305 5565.94 0
0 0 0

-2536.83 -3309.45 0
-3309.45 -2074.11 0
0 0 0

3435.33 1045.62 0
1045.62 -807.096 0
0 0 0

1286.19 -641.947 0
-641.947 1441.31 0
0 0 0

-1628.95 -225.51 0
-225.51 -2315.94 0
0 0 0

1365.43 2808.66 0
2808.66 1586.71 0
0 0 0

2600.67 4180.7 0
4180.7 -2564.38 0
0 0 0

7864.44 615.813 0
615.813 353.365 0
0 0 0

-4013.04 775.72 0
775.72 -2452.53 0
0 0 0

1847.63 5179.3 0
5179.3 1144.11 0
0 0 0

-3137.32 1067.75 0
1067.75 -6676.15 0
0 0 0

61.3167 -2868.29 0
-2868.29 452.873 0
0 0 0

-5369.79 2043.8 0
2043.8 2868.66 0
0 0 0

1959.56 -2224.78 0
-2224.78 -5702.12 0
0 0 0

824.53 450.167 0
450.167 -400.637 0
0 0 0

-1734.88 -2631.72 0
-2631.72 -5374.86 0
0 0 0

-2412.72 317.469 0
317.469 725.269 0
0 0 0

TENSORS velocity_gradient double
2.16138 -1.2002 0
9.56364 -4.6822 0
0 0 0

1.3356 0.540679 0
10.6395 -0.0843121 0
0 0 0

0.212702 -1.71412 0
7.83509 -0.990269 0
0 0 0

-0.138441 0.776766 0
7.47645 1.55383 0
0 0 0

-0.207026 1.11094 0
12.3013 4.40788 0
0 0 0

-1.16512 0.434578 0
7.83738 6.60769 0
0 0 0

0.209382 1.19025 0
9.99744 3.96911 0
0 0 0

0.274411 0.73171 0
9.36446 6.39027 0
0 0 0

-1.97059 -1.89475 0
1.86044 6.94124 0
0 0 0

-4.75007 -4.72282 0
0.508047 6.82733 0
0 0 0

0.675546 -1.45532 0
1.86634 6.89726 0
0 0 0

-0.942031 -0.833608 0
1.22489 6.80203 0
0 0 0

-8.81698 -7.22862 0
-1.16104 6.03776 0
0 0 0

-7.15276 -11.0337 0
4.10003 4.59285 0
0 0 0

-6.32137 0.240865 0
-0.400884 6.67035 0
0 0 0

-3.56739 -0.892956 0
3.12798 6.62069 0
0 0 0

-2.00959 0.0200019 0
5.72356 0.692813 0
0 0 0

-2.44655 5.08226 0
5.48403 4.21543 0
0 0 0

-3.79996 4.765 0
5.48355 5.63467 0
0 0 0

-4.09085 6.53223 0
5.52442 5.38635 0
0 0 0

0.74814 7.15818 0
8.69561 4.89502 0
0 0 0

0.917097 6.24948 0
8.81697 4.24232 0
0 0 0

1.58619 7.28506 0
9.29757 4.98616 0
0 0 0

1.72023 6.39363 0
9.39385 4.34586 0
0 0 0

1.08502 6.09031 0
0.822363 4.84254 0
0 0 0

1.03743 6.48789 0
0.629845 6.45105 0
0 0 0

0.737907 6.03403 0
-0.581954 4.61484 0
0 0 0

0.653881 5.77758 0
-0.757267 5.69329 0
0 0 0

-3.61312 4.80476 0
-0.330644 6.95099 0
0 0 0

-2.6646 1.62713 0
0.0926339 6.96059 0
0 0 0

-1.34417 2.18687 0
-0.439366 3.32311 0
0 0 0

-1.18343 0.591143 0
-0.48807 2.11437 0
0 0 0

-4.25098 3.53646 0
6.6648 5.76563 0
0 0 0

-5.13196 -0.0976979 0
5.85954 4.70103 0
0 0 0

-1.19154 -2.87248 0
8.71417 5.05125 0
0 0 0

-2.86566 -5.48282 0
6.78808 4.19658 0
0 0 0

0.985541 -7.1251 0
9.74178 2.85752 0
0 0 0

1.55371 -5.92724 0
10.4598 0.676399 0
0 0 0

-1.15742 -7.73794 0
9.56987 3.03212 0
0 0 0

-0.29429 -6.29435 0
12.3631 1.0545 0
0 0 0

-0.425834 -3.97837 0
-1.25107 -0.707456 0
0 0 0

-0.848526 -1.87714 0
-1.37825 -0.293295 0
0 0 0

-1.71593 -4.32833 0
3.43478 -0.567966 0
0 0 0

-2.89546 -2.32851 0
-1.78384 -0.382732 0
0 0 0

-1.36133 -0.301373 0
-1.02552 0.187908 0
0 0 0

-1.43045 0.0677108 0
-1.14835 0.843791 0
0 0 0

-2.15754 -2.432 0
-1.33034 0.135254 0
0 0 0

-1.31348 -5.457 0
-0.98362 -2.73556 0
0 0 0

1.53059 -2.51435 0
10.17 5.09913 0
0 0 0

-0.167804 -6.99452 0
7.75887 3.03649 0
0 0 0

2.59633 -8.28425 0
8.73094 0.0869798 0
0 0 0

2.28856 -10.0319 0
8.55235 0.88578 0
0 0 0

0.19693 -11.9093 0
8.32111 0.661665 0
0 0 0

-2.74246 -10.2079 0
12.8064 2.53681 0
0 0 0

2.86748 -12.4856 0
8.73403 0.115732 0
0 0 0

-6.82512 -11.2481 0
9.44887 1.68141 0
0 0 0

-3.56281 -6.30121 0
10.8103 5.65262 0
0 0 0

-3.92639 -4.83894 0
-0.0422125 4.19274 0
0 0 0

-7.60361 -7.305 0
8.80866 4.92411 0
0 0 0

-4.69442 -5.01001 0
3.03171 4.87743 0
0 0 0

-4.00862 -4.10195 0
0.948328 1.13605 0
0 0 0

0.513237 -5.5441 0
2.08788 -2.32129 0
0 0 0

-4.2394 -3.00674 0
4.19658 2.04224 0
0 0 0

2.73433 -5.51552 0
4.79573 -4.61495 0
0 0 0

SCALARS active double 1
LOOKUP_TABLE default
1
1
1
1
1
1
1
1
1
1
1
1
1
1
1
1
1
1
1
1
1
1
1
1
1
1
1
1
1
1
1
1
1
1
1
1
1
1
1
1
1
1
1
1
1
1
1
1
1
1
1
1
1
1
1
1
1
1
1
1
1
1
1
1
SCALARS extent double 1
LOOKUP_TABLE default
0.0125
0.0125
0.0125
0.0125
0.0125
0.0125
0.0125
0.0125
0.0125
0.0125
0.0125
0.0125
0.0125
0.0125
0.0125
0.0125
0.0125
0.0125
0.0125
0.0125
0.0125
0.0125
0.0125
0.0125
0.0125
0.0125
0.0125
0.0125
0.0125
0.0125
0.0125
0.0125
0.0125
0.0125
0.0125
0.0125
0.0125
0.0125
0.0125
0.0125
0.0125
0.0125
0.0125
0.0125
0.0125
0.0125
0.0125
0.0125
0.0125
0.0125
0.0125
0.0125
0.0125
0.0125
0.0125
0.0125
0.0125
0.0125
0.0125
0.0125
0.0125
0.0125
0.0125
0.0125
SCALARS pressure double 1
LOOKUP_TABLE default
-184.791
-340.634
-270.301
2720.9
-3745.84
-2554.58
976.477
2304.49
-5637.45
488.577
-3852.84
10445.8
-3910.43
-2487.3
-6574.66
2692.33
-3601.52
731.66
646.503
2233.7
-1139.66
452.154
-2012.77
4006.31
-4909.61
8005.14
2132.41
-3802.27
1322.46
-3268.67
1727.95
-3628.32
1936.91
2059.05
3819.28
-902.309
1551.87
3319
-1087.74
-2324.87
7108.45
536.702
-5024.21
-3210.48
2561.23
-1959.84
-5321.62
-4026.05
2305.47
-1314.12
-1363.75
1972.45
-1476.07
-18.1499
-4108.9
3232.79
-1495.87
4906.73
-257.095
1250.57
1871.28
-211.946
3554.87
843.725
SCALARS density double 1
LOOKUP_TABLE default
998.08
996.464
997.193
1028.7
961.792
973.782
1010.21
1024.26
943.056
1005.09
960.723
1114.76
960.147
974.464
933.909
1028.4
963.237
1007.64
1006.75
1023.5
988.218
1004.71
979.285
1042.55
950.222
1086.82
1022.42
961.228
1013.85
966.577
1018.13
962.969
1020.35
1021.65
1040.52
990.66
1016.27
1035.12
988.751
976.111
1076.73
1005.6
949.09
967.162
1026.99
979.824
946.159
958.994
1024.27
986.426
985.917
1020.73
984.766
999.811
958.168
1034.19
984.563
1052.35
997.33
1013.09
1019.65
997.798
1037.66
1008.81
