# vtk DataFile Version 3.0
Frame: 4, Time: 0.068
ASCII
DATASET UNSTRUCTURED_GRID
POINTS 64 double
0.333026 0.179064 0 
0.331567 0.203805 0 
0.357946 0.179408 0 
0.356473 0.204448 0 
0.32923 0.228504 0 
0.325797 0.253501 0 
0.354045 0.229558 0 
0.350438 0.25492 0 
0.321775 0.278671 0 
0.317751 0.304233 0 
0.346273 0.280374 0 
0.342057 0.306092 0 
0.313929 0.32988 0 
0.311377 0.355487 0 
0.338077 0.331751 0 
0.335401 0.357583 0 
0.382898 0.179359 0 
0.381374 0.204525 0 
0.407945 0.179105 0 
0.406183 0.204272 0 
0.378842 0.229867 0 
0.375042 0.255532 0 
0.403337 0.229711 0 
0.399067 0.255621 0 
0.370778 0.281308 0 
0.366356 0.307292 0 
0.394469 0.281724 0 
0.389668 0.308098 0 
0.362078 0.333147 0 
0.359122 0.359133 0 
0.384965 0.334271 0 
0.381583 0.360351 0 
0.43347 0.1797 0 
0.431053 0.204681 0 
0.459142 0.181007 0 
0.456065 0.205713 0 
0.427483 0.229939 0 
0.422346 0.255973 0 
0.451718 0.230608 0 
0.445332 0.25665 0 
0.417044 0.282289 0 
0.412147 0.309044 0 
0.438836 0.283242 0 
0.433787 0.310422 0 
0.407436 0.33563 0 
0.403847 0.361995 0 
0.429334 0.33763 0 
0.42597 0.365075 0 
0.483995 0.183864 0 
0.480589 0.208793 0 
0.508587 0.187377 0 
0.505274 0.21328 0 
0.475906 0.23371 0 
0.468086 0.259207 0 
0.500505 0.239093 0 
0.490285 0.263771 0 
0.460187 0.285221 0 
0.454644 0.311996 0 
0.480189 0.288814 0 
0.473493 0.313692 0 
0.450172 0.339457 0 
0.446872 0.368393 0 
0.467769 0.339291 0 
0.462055 0.368022 0 
CELLS 64 128
1 0
1 1
1 2
1 3
1 4
1 5
1 6
1 7
1 8
1 9
1 10
1 11
1 12
1 13
1 14
1 15
1 16
1 17
1 18
1 19
1 20
1 21
1 22
1 23
1 24
1 25
1 26
1 27
1 28
1 29
1 30
1 31
1 32
1 33
1 34
1 35
1 36
1 37
1 38
1 39
1 40
1 41
1 42
1 43
1 44
1 45
1 46
1 47
1 48
1 49
1 50
1 51
1 52
1 53
1 54
1 55
1 56
1 57
1 58
1 59
1 60
1 61
1 62
1 63
CELL_TYPES 64
1
1
1
1
1
1
1
1
1
1
1
1
1
1
1
1
1
1
1
1
1
1
1
1
1
1
1
1
1
1
1
1
1
1
1
1
1
1
1
1
1
1
1
1
1
1
1
1
1
1
1
1
1
1
1
1
1
1
1
1
1
1
1
1
POINT_DATA 64
VECTORS displacement double
0.120526 -0.0334363 0 
0.119067 -0.0336953 0 
0.120446 -0.033092 0 
0.118973 -0.0330517 0 
0.11673 -0.0339958 0 
0.113297 -0.0339994 0 
0.116545 -0.0329424 0 
0.112938 -0.0325803 0 
0.109275 -0.0338287 0 
0.105251 -0.0332674 0 
0.108773 -0.0321262 0 
0.104557 -0.0314078 0 
0.101429 -0.0326203 0 
0.0988772 -0.0320131 0 
0.100577 -0.0307494 0 
0.0979012 -0.0299166 0 
0.120398 -0.0331412 0 
0.118874 -0.0329747 0 
0.120445 -0.0333947 0 
0.118683 -0.0332275 0 
0.116342 -0.032633 0 
0.112542 -0.0319676 0 
0.115837 -0.0327889 0 
0.111567 -0.0318785 0 
0.108278 -0.0311917 0 
0.103856 -0.0302079 0 
0.106969 -0.0307757 0 
0.102168 -0.0294018 0 
0.0995783 -0.0293527 0 
0.0966219 -0.0283673 0 
0.0974652 -0.0282289 0 
0.0940829 -0.0271494 0 
0.12097 -0.0328005 0 
0.118553 -0.0328186 0 
0.121642 -0.031493 0 
0.118565 -0.0317873 0 
0.114983 -0.0325612 0 
0.109846 -0.0315274 0 
0.114218 -0.0318917 0 
0.107832 -0.0308501 0 
0.104544 -0.0302105 0 
0.0996466 -0.0284556 0 
0.101336 -0.0292582 0 
0.0962872 -0.0270778 0 
0.0949358 -0.0268702 0 
0.0913472 -0.025505 0 
0.0918336 -0.0248702 0 
0.0884699 -0.0224249 0 
0.121495 -0.0286362 0 
0.118089 -0.0287074 0 
0.121087 -0.0251228 0 
0.117774 -0.0242197 0 
0.113406 -0.0287902 0 
0.105586 -0.0282927 0 
0.113005 -0.0234074 0 
0.102785 -0.0237292 0 
0.0976874 -0.0272787 0 
0.0921436 -0.0255042 0 
0.0926887 -0.0236861 0 
0.0859933 -0.0238081 0 
0.087672 -0.0230428 0 
0.0843722 -0.0191071 0 
0.0802695 -0.0232088 0 
0.0745551 -0.0194784 0 
VECTORS velocity double
0.641479 -1.53131 0 
0.525864 -1.64708 0 
0.65333 -1.31612 0 
0.522101 -1.33452 0 
0.36182 -1.77754 0 
0.125717 -1.87201 0 
0.281811 -1.34435 0 
-0.00415227 -1.34417 0 
-0.125183 -1.95532 0 
-0.357934 -2.04516 0 
-0.290015 -1.37868 0 
-0.512112 -1.52476 0 
-0.569894 -2.13014 0 
-0.845773 -2.29069 0 
-0.656658 -1.71678 0 
-0.854817 -1.8275 0 
0.591335 -1.19424 0 
0.458329 -1.21811 0 
0.5623 -1.10393 0 
0.442236 -1.14185 0 
0.207342 -1.1976 0 
-0.0182619 -1.15877 0 
0.198114 -1.11809 0 
-0.0205086 -1.09296 0 
-0.162283 -1.12645 0 
-0.321505 -1.24854 0 
-0.0358232 -1.02849 0 
-0.10829 -1.11732 0 
-0.450912 -1.44974 0 
-0.709754 -1.58217 0 
-0.195821 -1.31345 0 
-0.623222 -1.61104 0 
0.670795 -0.920753 0 
0.496068 -0.959917 0 
0.887743 -0.648875 0 
0.571902 -0.743858 0 
0.263559 -0.986592 0 
-0.0644521 -1.04099 0 
0.314609 -0.892464 0 
-0.0288572 -0.947367 0 
-0.21687 -1.13436 0 
-0.255562 -1.13833 0 
-0.346658 -1.20751 0 
-0.351268 -1.1875 0 
-0.24799 -1.17803 0 
-0.673152 -1.57412 0 
-0.236561 -0.968318 0 
-0.159737 -1.20139 0 
1.04085 -0.41461 0 
0.542978 -0.512936 0 
0.875652 -0.130314 0 
0.417892 0.0598171 0 
0.218375 -0.754172 0 
0.152117 -0.66808 0 
0.145327 0.060381 0 
0.00871148 0.212621 0 
0.0188808 -0.841555 0 
0.0288085 -1.04179 0 
-0.111409 0.262142 0 
0.0767113 -0.506258 0 
0.18964 -0.761811 0 
0.709646 -0.664913 0 
-0.0631435 -1.02864 0 
-0.981617 -1.29793 0 
SCALARS mass double 1
LOOKUP_TABLE default
0.625
0.625
0.625
0.625
0.625
0.625
0.625
0.625
0.625
0.625
0.625
0.625
0.625
0.625
0.625
0.625
0.625
0.625
0.625
0.625
0.625
0.625
0.625
0.625
0.625
0.625
0.625
0.625
0.625
0.625
0.625
0.625
0.625
0.625
0.625
0.625
0.625
0.625
0.625
0.625
0.625
0.625
0.625
0.625
0.625
0.625
0.625
0.625
0.625
0.625
0.625
0.625
0.625
0.625
0.625
0.625
0.625
0.625
0.625
0.625
0.625
0.625
0.625
0.625
SCALARS volume double 1
LOOKUP_TABLE default
0.000618762
0.000618428
0.000621942
0.000625783
0.000618272
0.000628134
0.000626325
0.000631429
0.000629972
0.000635469
0.000632569
0.000627196
0.000633826
0.00062413
0.000625671
0.000621865
0.000623573
0.000628073
0.000635159
0.000632881
0.000626248
0.000626414
0.000624626
0.000619827
0.000627679
0.000618748
0.000621399
0.000606063
0.000614264
0.000605099
0.000597201
0.000578729
0.00064101
0.000631566
0.000630215
0.000619811
0.000619863
0.000611154
0.000613153
0.000603507
0.000600783
0.000596578
0.000585113
0.000574543
0.00060955
0.00060662
0.000592772
0.000592134
0.000625809
0.00063093
0.000630046
0.000650092
0.000642217
0.000619995
0.000647374
0.000562857
0.000602668
0.000560993
0.000506305
0.000418133
0.000588052
0.000590947
0.000405818
0.000321324
VECTORS momentum double
0.400924 -0.957071 0 
0.328665 -1.02942 0 
0.408331 -0.822576 0 
0.326313 -0.834077 0 
0.226138 -1.11097 0 
0.0785728 -1.17001 0 
0.176132 -0.84022 0 
-0.00259517 -0.840109 0 
-0.0782392 -1.22208 0 
-0.223709 -1.27823 0 
-0.18126 -0.861676 0 
-0.32007 -0.952975 0 
-0.356184 -1.33134 0 
-0.528608 -1.43168 0 
-0.410411 -1.07299 0 
-0.534261 -1.14219 0 
0.369584 -0.746398 0 
0.286456 -0.761318 0 
0.351438 -0.689958 0 
0.276398 -0.713654 0 
0.129589 -0.748499 0 
-0.0114137 -0.724228 0 
0.123821 -0.698809 0 
-0.0128179 -0.683098 0 
-0.101427 -0.704031 0 
-0.20094 -0.780337 0 
-0.0223895 -0.642804 0 
-0.0676813 -0.698325 0 
-0.28182 -0.906084 0 
-0.443596 -0.988859 0 
-0.122388 -0.820907 0 
-0.389513 -1.0069 0 
0.419247 -0.57547 0 
0.310042 -0.599948 0 
0.554839 -0.405547 0 
0.357439 -0.464911 0 
0.164724 -0.61662 0 
-0.0402825 -0.650616 0 
0.196631 -0.55779 0 
-0.0180358 -0.592104 0 
-0.135544 -0.708977 0 
-0.159726 -0.711458 0 
-0.216661 -0.754696 0 
-0.219542 -0.74219 0 
-0.154994 -0.736272 0 
-0.42072 -0.983826 0 
-0.14785 -0.605199 0 
-0.0998358 -0.750867 0 
0.650531 -0.259131 0 
0.339361 -0.320585 0 
0.547282 -0.0814465 0 
0.261182 0.0373857 0 
0.136484 -0.471358 0 
0.0950729 -0.41755 0 
0.0908297 0.0377381 0 
0.00544467 0.132888 0 
0.0118005 -0.525972 0 
0.0180053 -0.651118 0 
-0.0696304 0.163839 0 
0.0479446 -0.316412 0 
0.118525 -0.476132 0 
0.443529 -0.415571 0 
-0.0394647 -0.642897 0 
-0.613511 -0.811209 0 
VECTORS body_force double
0 -9.81 0 
0 -9.81 0 
0 -9.81 0 
0 -9.81 0 
0 -9.81 0 
0 -9.81 0 
0 -9.81 0 
0 -9.81 0 
0 -9.81 0 
0 -9.81 0 
0 -9.81 0 
0 -9.81 0 
0 -9.81 0 
0 -9.81 0 
0 -9.81 0 
0 -9.81 0 
0 -9.81 0 
0 -9.81 0 
0 -9.81 0 
0 -9.81 0 
0 -9.81 0 
0 -9.81 0 
0 -9.81 0 
0 -9.81 0 
0 -9.81 0 
0 -9.81 0 
0 -9.81 0 
0 -9.81 0 
0 -9.81 0 
0 -9.81 0 
0 -9.81 0 
0 -9.81 0 
0 -9.81 0 
0 -9.81 0 
0 -9.81 0 
0 -9.81 0 
0 -9.81 0 
0 -9.81 0 
0 -9.81 0 
0 -9.81 0 
0 -9.81 0 
0 -9.81 0 
0 -9.81 0 
0 -9.81 0 
0 -9.81 0 
0 -9.81 0 
0 -9.81 0 
0 -9.81 0 
0 -9.81 0 
0 -9.81 0 
0 -9.81 0 
0 -9.81 0 
0 -9.81 0 
0 -9.81 0 
0 -9.81 0 
0 -9.81 0 
0 -9.81 0 
0 -9.81 0 
0 -9.81 0 
0 -9.81 0 
0 -9.81 0 
0 -9.81 0 
0 -9.81 0 
0 -9.81 0 
TENSORS cauchy_stress double
-672.101 81.4871 0
81.4871 -1257.07 0
0 0 0

-473.813 -2313.62 0
-2313.62 -1558.96 0
0 0 0

-572.162 -58.8817 0
-58.8817 -370.926 0
0 0 0

-60.9981 -2933.13 0
-2933.13 301.703 0
0 0 0

-634.277 -2038.49 0
-2038.49 -1447.26 0
0 0 0

268.779 -3820.45 0
-3820.45 693.187 0
0 0 0

-118.859 -2914.94 0
-2914.94 526.154 0
0 0 0

297.043 -4595.55 0
-4595.55 1671.14 0
0 0 0

193.514 -3564.31 0
-3564.31 1330.36 0
0 0 0

273.685 -3207.93 0
-3207.93 2921.01 0
0 0 0

-37.5766 -4157.58 0
-4157.58 2352.63 0
0 0 0

-1428.36 -3634.1 0
-3634.1 2102.79 0
0 0 0

-338.882 -2829.97 0
-2829.97 3035.71 0
0 0 0

-1957.93 18.0137 0
18.0137 1689.94 0
0 0 0

-2245.66 -3154.41 0
-3154.41 2452.01 0
0 0 0

-3487.92 -280.677 0
-280.677 2521 0
0 0 0

-335.249 -868.128 0
-868.128 -104.183 0
0 0 0

-103.287 -4103.56 0
-4103.56 1046.42 0
0 0 0

2208.95 -494.025 0
-494.025 891.717 0
0 0 0

759.832 -4291.55 0
-4291.55 1649.85 0
0 0 0

-786.113 -4489.23 0
-4489.23 1169.77 0
0 0 0

-1432.54 -6305.19 0
-6305.19 1867.2 0
0 0 0

-1565.64 -5266.08 0
-5266.08 1450.6 0
0 0 0

-3520.83 -7368.83 0
-7368.83 1922.46 0
0 0 0

-1923.58 -6044.92 0
-6044.92 2746.26 0
0 0 0

-3517.61 -5713.24 0
-5713.24 1584.29 0
0 0 0

-4461.08 -7009.44 0
-7009.44 3349.99 0
0 0 0

-7133.9 -6760.77 0
-6760.77 1217 0
0 0 0

-5028.24 -4873.99 0
-4873.99 1696.29 0
0 0 0

-7420.18 -2546.1 0
-2546.1 1197.13 0
0 0 0

-9666.56 -5538.47 0
-5538.47 916.932 0
0 0 0

-13441.7 -3190.18 0
-3190.18 -1350.18 0
0 0 0

3622.55 205.384 0
205.384 1241.48 0
0 0 0

1081.05 -4065.34 0
-4065.34 928.848 0
0 0 0

1465.87 686.932 0
686.932 132.188 0
0 0 0

-415.597 -3741.19 0
-3741.19 -1187.67 0
0 0 0

-2290.08 -5599.02 0
-5599.02 703.034 0
0 0 0

-5856.92 -7785.03 0
-7785.03 1548.64 0
0 0 0

-2840.63 -6549.81 0
-6549.81 -839.513 0
0 0 0

-7744.5 -10189.9 0
-10189.9 1015.02 0
0 0 0

-10062 -7274.89 0
-7274.89 2462.4 0
0 0 0

-10636.8 -6115.95 0
-6115.95 1686.55 0
0 0 0

-14534.3 -9650.57 0
-9650.57 1852.31 0
0 0 0

-17178.3 -6193.67 0
-6193.67 990.594 0
0 0 0

-8334.32 -4627.88 0
-4627.88 3520.74 0
0 0 0

-7936.71 -1988.06 0
-1988.06 2196.52 0
0 0 0

-14999.2 -4252.07 0
-4252.07 4818.25 0
0 0 0

-14716.4 -884.968 0
-884.968 4328.03 0
0 0 0

-651.798 2327.74 0
2327.74 900.617 0
0 0 0

353.533 167.883 0
167.883 1462.47 0
0 0 0

-1209.29 64.0877 0
64.0877 2755.65 0
0 0 0

1361 -284.192 0
-284.192 6208.78 0
0 0 0

2435.03 -1955.39 0
-1955.39 2790.86 0
0 0 0

-3511.05 -6830.17 0
-6830.17 1964.94 0
0 0 0

3190.11 -4278.51 0
-4278.51 3573.73 0
0 0 0

-12096.5 -11329.2 0
-11329.2 -8043.24 0
0 0 0

-10691.3 -7553.3 0
-7553.3 3694.07 0
0 0 0

-19720.5 -5548.72 0
-5548.72 -1057.13 0
0 0 0

-31612 -12906.8 0
-12906.8 -8890.55 0
0 0 0

-51932.2 -10515.1 0
-10515.1 -25366.4 0
0 0 0

-18828.7 -5481.63 0
-5481.63 7110.24 0
0 0 0

-18895.9 -2192.96 0
-2192.96 8121.9 0
0 0 0

-63748.3 -14503.5 0
-14503.5 -19299 0
0 0 0

-100047 -16642.7 0
-16642.7 -27895.8 0
0 0 0

TENSORS velocity_gradient double
0.186233 -3.01577 0
4.67633 -1.27532 0
0 0 0

-0.00185506 -7.43681 0
5.93764 -1.50244 0
0 0 0

-0.592999 -3.20399 0
5.55362 -0.527257 0
0 0 0

-0.987811 -8.10418 0
5.55278 -0.0991102 0
0 0 0

-0.540637 -7.74438 0
7.73426 -1.67291 0
0 0 0

-0.859286 -8.89442 0
9.25271 -1.69829 0
0 0 0

-1.15783 -8.24197 0
6.17844 -0.175761 0
0 0 0

-0.942337 -8.33281 0
7.59322 -1.23285 0
0 0 0

-0.39519 -9.08635 0
9.73514 -1.74572 0
0 0 0

0.173369 -6.85012 0
9.89493 -2.90052 0
0 0 0

-0.0620774 -8.53053 0
9.07285 -1.30557 0
0 0 0

0.22298 -6.05079 0
9.8499 -3.66713 0
0 0 0

0.978084 -6.92557 0
9.10703 -2.80651 0
0 0 0

1.81478 -3.5857 0
8.75137 -4.22204 0
0 0 0

1.02994 -6.17033 0
9.05601 -3.54952 0
0 0 0

1.88214 -2.73244 0
8.80296 -3.56851 0
0 0 0

-0.58962 -3.65271 0
5.55427 -0.614462 0
0 0 0

-1.00517 -8.38026 0
5.54487 0.132192 0
0 0 0

2.55761 -4.22011 0
7.06499 -0.713646 0
0 0 0

1.76402 -8.49071 0
6.81903 0.176513 0
0 0 0

-1.30564 -8.54745 0
5.78485 0.140312 0
0 0 0

-0.979041 -6.52254 0
6.09467 -0.769897 0
0 0 0

0.994487 -8.801 0
6.28913 0.253147 0
0 0 0

0.131356 -4.81006 0
5.9935 -0.4771 0
0 0 0

1.10744 -6.85311 0
6.58313 -0.847287 0
0 0 0

3.09578 -4.69138 0
6.97695 -3.77493 0
0 0 0

1.15304 -4.97784 0
6.46339 -0.425607 0
0 0 0

3.13925 -3.1277 0
6.9818 -3.60067 0
0 0 0

4.8439 -4.96966 0
7.17176 -3.80594 0
0 0 0

5.76622 -2.3356 0
7.03329 -3.41759 0
0 0 0

4.90876 -3.43703 0
7.17899 -3.63514 0
0 0 0

5.7554 -2.56252 0
7.00822 -3.94334 0
0 0 0

2.54357 -5.08243 0
7.06288 -0.843033 0
0 0 0

1.87197 -8.72458 0
6.86838 -0.193123 0
0 0 0

2.61108 -6.04801 0
9.69998 -0.54925 0
0 0 0

1.67891 -9.11074 0
10.5244 -0.275124 0
0 0 0

1.75529 -8.91481 0
6.45601 -0.103074 0
0 0 0

1.63482 -4.63178 0
5.84942 -1.23437 0
0 0 0

1.43816 -9.06682 0
9.6012 -0.309792 0
0 0 0

1.61382 -4.70086 0
6.65117 -2.12468 0
0 0 0

1.48487 -4.60237 0
4.74252 -1.01728 0
0 0 0

1.93058 -1.79224 0
4.66929 -2.7628 0
0 0 0

1.48004 -4.7261 0
4.70681 -1.93069 0
0 0 0

1.99867 -0.642067 0
4.74821 -1.42981 0
0 0 0

3.35172 -2.03971 0
6.31632 -3.0496 0
0 0 0

4.93875 -2.44907 0
7.5319 -4.14052 0
0 0 0

3.45105 -0.877472 0
6.43143 -1.70263 0
0 0 0

4.94061 -1.3121 0
7.75459 -3.35585 0
0 0 0

2.4922 -7.17589 0
9.81767 0.567372 0
0 0 0

1.62019 -9.5258 0
10.8324 0.524174 0
0 0 0

0.115119 -8.08171 0
4.77623 1.10686 0
0 0 0

-0.881326 -10.3005 0
6.0942 1.57211 0
0 0 0

1.19304 -9.44981 0
11.6637 0.376282 0
0 0 0

1.65781 -3.44002 0
12.7179 -1.4268 0
0 0 0

-1.18889 -10.0794 0
9.4992 1.32991 0
0 0 0

1.97878 -1.7784 0
12.9485 -0.233061 0
0 0 0

3.61858 -4.0232 0
14.1265 -1.84577 0
0 0 0

4.18669 0.0885854 0
10.2505 -2.15109 0
0 0 0

3.86692 -2.52889 0
14.3049 -0.772227 0
0 0 0

4.45073 -0.146715 0
10.5306 -7.55939 0
0 0 0

3.80973 0.00394347 0
4.50102 -1.61405 0
0 0 0

4.0248 -0.513075 0
5.68501 -2.63809 0
0 0 0

4.05666 -0.0597327 0
2.71812 -5.83496 0
0 0 0

1.01096 -1.86447 0
-0.49693 -2.59555 0
0 0 0

SCALARS active double 1
LOOKUP_TABLE default
1
1
1
1
1
1
1
1
1
1
1
1
1
1
1
1
1
1
1
1
1
1
1
1
1
1
1
1
1
1
1
1
1
1
1
1
1
1
1
1
1
1
1
1
1
1
1
1
1
1
1
1
1
1
1
1
1
1
1
1
1
1
1
1
SCALARS extent double 1
LOOKUP_TABLE default
0.0125
0.0125
0.0125
0.0125
0.0125
0.0125
0.0125
0.0125
0.0125
0.0125
0.0125
0.0125
0.0125
0.0125
0.0125
0.0125
0.0125
0.0125
0.0125
0.0125
0.0125
0.0125
0.0125
0.0125
0.0125
0.0125
0.0125
0.0125
0.0125
0.0125
0.0125
0.0125
0.0125
0.0125
0.0125
0.0125
0.0125
0.0125
0.0125
0.0125
0.0125
0.0125
0.0125
0.0125
0.0125
0.0125
0.0125
0.0125
0.0125
0.0125
0.0125
0.0125
0.0125
0.0125
0.0125
0.0125
0.0125
0.0125
0.0125
0.0125
0.0125
0.0125
0.0125
0.0125
SCALARS pressure double 1
LOOKUP_TABLE default
964.586
1016.38
471.544
-120.353
1040.77
-480.983
-203.647
-984.091
-761.935
-1597.35
-1157.53
-337.217
-1348.41
133.998
-103.174
483.462
219.716
-471.568
-1550.33
-1204.84
-191.828
-217.331
57.521
799.186
-411.34
966.663
555.543
2958.45
1665.97
3111.52
4374.81
7395.97
-2432.02
-1004.95
-799.029
801.635
793.522
2154.14
1840.07
3364.74
3799.79
4475.13
6340.98
8093.85
2406.79
2870.1
5090.49
5194.18
-124.41
-908.003
-773.182
-3784.89
-2612.94
773.052
-3381.92
10069.9
3498.64
10388.8
20251.3
38649.3
5859.25
5387.01
41523.7
63971.3
SCALARS density double 1
LOOKUP_TABLE default
1010.08
1010.63
1004.92
998.749
1010.88
995.01
997.884
989.818
992.107
983.525
988.034
996.499
986.074
1001.39
998.928
1005.04
1002.29
995.108
984.006
987.548
998.007
997.742
1000.6
1008.35
995.731
1010.1
1005.79
1031.25
1017.48
1032.89
1046.55
1079.95
975.024
989.603
991.725
1008.37
1008.29
1022.66
1019.32
1035.61
1040.31
1047.64
1068.17
1087.82
1025.35
1030.3
1054.37
1055.51
998.707
990.601
991.991
961.402
973.191
1008.07
965.439
1110.41
1037.06
1114.1
1234.43
1494.74
1062.83
1057.62
1540.1
1945.08
