# vtk DataFile Version 3.0
Frame: 16, Time: 0.272
ASCII
DATASET UNSTRUCTURED_GRID
POINTS 64 double
0.894789 0.141588 0 
0.870794 0.137055 0 
0.890347 0.166925 0 
0.866516 0.161454 0 
0.844706 0.133193 0 
0.821591 0.127028 0 
0.839925 0.157903 0 
0.815508 0.151494 0 
0.796068 0.120772 0 
0.770154 0.117142 0 
0.790682 0.145345 0 
0.765393 0.14202 0 
0.746092 0.111526 0 
0.720588 0.107418 0 
0.740378 0.136319 0 
0.715259 0.131918 0 
0.885095 0.192193 0 
0.860937 0.185942 0 
0.881082 0.215509 0 
0.856658 0.210332 0 
0.836062 0.182157 0 
0.810806 0.175852 0 
0.831077 0.206044 0 
0.805773 0.200215 0 
0.785129 0.169933 0 
0.761108 0.166339 0 
0.781275 0.195501 0 
0.756149 0.191319 0 
0.73658 0.16076 0 
0.71146 0.15721 0 
0.731821 0.186041 0 
0.707353 0.182261 0 
0.875822 0.240274 0 
0.851031 0.234328 0 
0.871572 0.264966 0 
0.847042 0.259241 0 
0.826028 0.230245 0 
0.801442 0.225272 0 
0.822317 0.25513 0 
0.797259 0.250468 0 
0.776885 0.2208 0 
0.752469 0.216362 0 
0.772996 0.245705 0 
0.74856 0.241489 0 
0.727983 0.211635 0 
0.702762 0.207382 0 
0.724047 0.236731 0 
0.699245 0.231948 0 
0.866988 0.28946 0 
0.842385 0.284044 0 
0.862334 0.313889 0 
0.837541 0.309109 0 
0.817847 0.279617 0 
0.79282 0.275521 0 
0.812884 0.304519 0 
0.787683 0.300381 0 
0.768434 0.270815 0 
0.743588 0.266502 0 
0.762943 0.295732 0 
0.738439 0.29154 0 
0.718814 0.261624 0 
0.694221 0.256314 0 
0.713221 0.286526 0 
0.688652 0.281034 0 
CELLS 64 128
1 0
1 1
1 2
1 3
1 4
1 5
1 6
1 7
1 8
1 9
1 10
1 11
1 12
1 13
1 14
1 15
1 16
1 17
1 18
1 19
1 20
1 21
1 22
1 23
1 24
1 25
1 26
1 27
1 28
1 29
1 30
1 31
1 32
1 33
1 34
1 35
1 36
1 37
1 38
1 39
1 40
1 41
1 42
1 43
1 44
1 45
1 46
1 47
1 48
1 49
1 50
1 51
1 52
1 53
1 54
1 55
1 56
1 57
1 58
1 59
1 60
1 61
1 62
1 63
CELL_TYPES 64
1
1
1
1
1
1
1
1
1
1
1
1
1
1
1
1
1
1
1
1
1
1
1
1
1
1
1
1
1
1
1
1
1
1
1
1
1
1
1
1
1
1
1
1
1
1
1
1
1
1
1
1
1
1
1
1
1
1
1
1
1
1
1
1
POINT_DATA 64
VECTORS displacement double
0.282289 -0.170912 0 
0.258294 -0.200445 0 
0.252847 -0.145575 0 
0.229016 -0.176046 0 
0.232206 -0.229307 0 
0.209091 -0.260472 0 
0.202425 -0.204597 0 
0.178008 -0.236006 0 
0.183568 -0.291728 0 
0.157654 -0.320358 0 
0.153182 -0.267155 0 
0.127893 -0.29548 0 
0.133592 -0.350974 0 
0.108088 -0.380082 0 
0.102878 -0.326181 0 
0.0777589 -0.355582 0 
0.222595 -0.120307 0 
0.198437 -0.151558 0 
0.193582 -0.0969909 0 
0.169158 -0.127168 0 
0.173562 -0.180343 0 
0.148306 -0.211648 0 
0.143577 -0.156456 0 
0.118273 -0.187285 0 
0.122629 -0.242567 0 
0.0986082 -0.271161 0 
0.0937751 -0.216999 0 
0.0686489 -0.246181 0 
0.0740799 -0.30174 0 
0.0489604 -0.33029 0 
0.0443208 -0.276459 0 
0.019853 -0.305239 0 
0.163322 -0.072226 0 
0.138531 -0.103172 0 
0.134072 -0.0475344 0 
0.109542 -0.0782593 0 
0.113528 -0.132255 0 
0.0889421 -0.162228 0 
0.0848171 -0.10737 0 
0.0597586 -0.137032 0 
0.0643849 -0.1917 0 
0.0399686 -0.221138 0 
0.0354956 -0.166795 0 
0.0110602 -0.196011 0 
0.0154832 -0.250865 0 
-0.00973813 -0.280118 0 
-0.0134527 -0.225769 0 
-0.0382552 -0.255552 0 
0.104488 -0.0230395 0 
0.0798854 -0.0534563 0 
0.0748343 0.00138896 0 
0.0500412 -0.0283908 0 
0.0553473 -0.0828828 0 
0.0303195 -0.111979 0 
0.0253836 -0.057981 0 
0.000182582 -0.0871193 0 
0.00593364 -0.141685 0 
-0.0189118 -0.170998 0 
-0.0245567 -0.116768 0 
-0.0490606 -0.14596 0 
-0.0436863 -0.200876 0 
-0.0682793 -0.231186 0 
-0.0742793 -0.175974 0 
-0.098848 -0.206466 0 
VECTORS velocity double
1.98515 -0.781599 0 
2.0983 -1.06057 0 
1.52424 -0.733272 0 
1.55153 -1.4774 0 
2.08876 -1.15219 0 
2.15496 -1.60209 0 
1.43113 -1.37654 0 
1.12265 -1.61875 0 
2.22384 -1.63075 0 
1.74963 -1.89463 0 
1.33101 -1.83681 0 
1.23749 -2.07235 0 
2.15913 -1.92169 0 
1.99521 -2.37013 0 
1.23226 -1.88638 0 
1.35093 -2.61572 0 
1.07865 -0.859095 0 
0.942355 -1.36559 0 
1.07432 -0.602052 0 
1.14932 -1.44799 0 
1.23739 -1.50594 0 
1.21616 -1.66756 0 
1.05754 -1.62053 0 
1.01558 -1.7571 0 
1.46424 -2.21607 0 
1.37285 -2.28339 0 
1.10249 -2.05778 0 
0.997507 -1.97447 0 
1.43896 -2.09794 0 
1.5401 -2.4911 0 
1.22625 -1.99152 0 
1.14277 -2.63421 0 
0.808299 -1.11492 0 
0.895769 -1.8354 0 
0.675202 -0.687611 0 
0.561533 -1.64776 0 
0.854676 -1.64399 0 
0.89225 -1.75488 0 
0.579779 -1.40773 0 
0.495051 -1.66877 0 
0.983406 -2.11444 0 
0.915959 -2.15134 0 
0.719864 -2.08416 0 
0.631457 -2.16223 0 
0.997696 -2.18993 0 
0.914665 -2.68716 0 
0.618677 -2.02632 0 
0.627123 -2.55296 0 
0.676176 -1.07057 0 
0.76099 -1.70273 0 
0.0414555 -1.10755 0 
0.0372776 -1.65445 0 
0.843517 -1.78534 0 
0.849199 -1.71868 0 
0.249638 -1.76422 0 
0.00398589 -1.81704 0 
0.785976 -2.05629 0 
0.610497 -2.27059 0 
0.052477 -2.13449 0 
0.193022 -2.55291 0 
0.809807 -2.05665 0 
0.859259 -2.91717 0 
0.0351134 -2.02661 0 
0.194473 -2.83328 0 
SCALARS mass double 1
LOOKUP_TABLE default
0.625
0.625
0.625
0.625
0.625
0.625
0.625
0.625
0.625
0.625
0.625
0.625
0.625
0.625
0.625
0.625
0.625
0.625
0.625
0.625
0.625
0.625
0.625
0.625
0.625
0.625
0.625
0.625
0.625
0.625
0.625
0.625
0.625
0.625
0.625
0.625
0.625
0.625
0.625
0.625
0.625
0.625
0.625
0.625
0.625
0.625
0.625
0.625
0.625
0.625
0.625
0.625
0.625
0.625
0.625
0.625
0.625
0.625
0.625
0.625
0.625
0.625
0.625
0.625
SCALARS volume double 1
LOOKUP_TABLE default
0.000625304
0.000618053
0.000641231
0.000618633
0.000621878
0.000627331
0.000618588
0.000630502
0.000640952
0.000626179
0.000622735
0.000624179
0.000622044
0.000627423
0.000634372
0.000627474
0.000611392
0.000635988
0.000634839
0.00061476
0.000611392
0.000629702
0.000629418
0.000641577
0.00062473
0.000631191
0.000645449
0.000627832
0.000616317
0.000627034
0.000623304
0.000627593
0.000612739
0.000628402
0.000630164
0.00061312
0.000624866
0.000616715
0.000626795
0.000631143
0.000619125
0.000633137
0.000639182
0.00062404
0.000635824
0.000627396
0.000620694
0.000621518
0.000619921
0.000626977
0.000623081
0.000612463
0.000626471
0.000630474
0.000631898
0.000630119
0.000620155
0.000631742
0.000626016
0.000630306
0.000625788
0.00062055
0.000622705
0.000627765
VECTORS momentum double
1.24072 -0.4885 0 
1.31144 -0.662857 0 
0.95265 -0.458295 0 
0.969706 -0.923375 0 
1.30548 -0.720118 0 
1.34685 -1.0013 0 
0.894457 -0.860338 0 
0.701657 -1.01172 0 
1.3899 -1.01922 0 
1.09352 -1.18414 0 
0.831884 -1.14801 0 
0.773431 -1.29522 0 
1.34946 -1.20106 0 
1.24701 -1.48133 0 
0.770162 -1.17898 0 
0.844332 -1.63483 0 
0.674154 -0.536934 0 
0.588972 -0.853493 0 
0.671452 -0.376282 0 
0.718323 -0.904994 0 
0.773372 -0.94121 0 
0.760098 -1.04223 0 
0.66096 -1.01283 0 
0.634738 -1.09819 0 
0.915151 -1.38504 0 
0.858033 -1.42712 0 
0.689058 -1.28612 0 
0.623442 -1.23404 0 
0.899352 -1.31121 0 
0.962563 -1.55694 0 
0.766408 -1.2447 0 
0.71423 -1.64638 0 
0.505187 -0.696823 0 
0.559855 -1.14712 0 
0.422001 -0.429757 0 
0.350958 -1.02985 0 
0.534173 -1.0275 0 
0.557656 -1.0968 0 
0.362362 -0.87983 0 
0.309407 -1.04298 0 
0.614628 -1.32153 0 
0.572474 -1.34459 0 
0.449915 -1.3026 0 
0.394661 -1.35139 0 
0.62356 -1.36871 0 
0.571666 -1.67948 0 
0.386673 -1.26645 0 
0.391952 -1.5956 0 
0.42261 -0.669105 0 
0.475619 -1.06421 0 
0.0259097 -0.692221 0 
0.0232985 -1.03403 0 
0.527198 -1.11584 0 
0.530749 -1.07417 0 
0.156024 -1.10264 0 
0.00249118 -1.13565 0 
0.491235 -1.28518 0 
0.38156 -1.41912 0 
0.0327981 -1.33405 0 
0.120639 -1.59557 0 
0.506129 -1.28541 0 
0.537037 -1.82323 0 
0.0219459 -1.26663 0 
0.121546 -1.7708 0 
VECTORS body_force double
0 -9.81 0 
0 -9.81 0 
0 -9.81 0 
0 -9.81 0 
0 -9.81 0 
0 -9.81 0 
0 -9.81 0 
0 -9.81 0 
0 -9.81 0 
0 -9.81 0 
0 -9.81 0 
0 -9.81 0 
0 -9.81 0 
0 -9.81 0 
0 -9.81 0 
0 -9.81 0 
0 -9.81 0 
0 -9.81 0 
0 -9.81 0 
0 -9.81 0 
0 -9.81 0 
0 -9.81 0 
0 -9.81 0 
0 -9.81 0 
0 -9.81 0 
0 -9.81 0 
0 -9.81 0 
0 -9.81 0 
0 -9.81 0 
0 -9.81 0 
0 -9.81 0 
0 -9.81 0 
0 -9.81 0 
0 -9.81 0 
0 -9.81 0 
0 -9.81 0 
0 -9.81 0 
0 -9.81 0 
0 -9.81 0 
0 -9.81 0 
0 -9.81 0 
0 -9.81 0 
0 -9.81 0 
0 -9.81 0 
0 -9.81 0 
0 -9.81 0 
0 -9.81 0 
0 -9.81 0 
0 -9.81 0 
0 -9.81 0 
0 -9.81 0 
0 -9.81 0 
0 -9.81 0 
0 -9.81 0 
0 -9.81 0 
0 -9.81 0 
0 -9.81 0 
0 -9.81 0 
0 -9.81 0 
0 -9.81 0 
0 -9.81 0 
0 -9.81 0 
0 -9.81 0 
0 -9.81 0 
TENSORS cauchy_stress double
-1064.85 839.925 0
839.925 1158.36 0
0 0 0

-1182.2 941.88 0
941.88 -967.17 0
0 0 0

1738.78 -3371.14 0
-3371.14 3191.71 0
0 0 0

-167.478 -171.226 0
-171.226 -1801.58 0
0 0 0

-1287.68 1146.5 0
1146.5 324.679 0
0 0 0

670.226 871.277 0
871.277 45.8107 0
0 0 0

-315.277 -4041.07 0
-4041.07 -1667.97 0
0 0 0

27.2724 -248.076 0
-248.076 1658.37 0
0 0 0

2204.86 -246.423 0
-246.423 2641.76 0
0 0 0

313.938 -1358.28 0
-1358.28 48.5627 0
0 0 0

1719.2 -1348.14 0
-1348.14 -2417.28 0
0 0 0

1345.81 -313.896 0
-313.896 -1598.68 0
0 0 0

-725.602 154.991 0
154.991 -186.079 0
0 0 0

1425.16 -1420.47 0
-1420.47 -681.057 0
0 0 0

1486.03 651.931 0
651.931 1376.32 0
0 0 0

635.405 -1831.44 0
-1831.44 124.457 0
0 0 0

83.2836 1946.82 0
1946.82 -4316.65 0
0 0 0

2406.28 304.619 0
304.619 945.272 0
0 0 0

1758.96 -2158.41 0
-2158.41 1244.77 0
0 0 0

-505.449 -828.187 0
-828.187 -2671.31 0
0 0 0

-1342.53 105.471 0
105.471 -2890.73 0
0 0 0

3258.13 4121.62 0
4121.62 -1816.66 0
0 0 0

3271.89 -588.448 0
-588.448 -1917.22 0
0 0 0

1948.18 -1065.08 0
-1065.08 3085.98 0
0 0 0

-1770.69 -316.549 0
-316.549 1687.62 0
0 0 0

322.176 -445.154 0
-445.154 1573.46 0
0 0 0

1642.75 -1832.32 0
-1832.32 4548.54 0
0 0 0

1051.69 1209.93 0
1209.93 -182.272 0
0 0 0

-1196.07 1110.04 0
1110.04 -1494.23 0
0 0 0

-52.5816 327.597 0
327.597 677.386 0
0 0 0

-2357.71 -2276.2 0
-2276.2 1835.22 0
0 0 0

-190.933 -869.62 0
-869.62 987.016 0
0 0 0

-808.487 1916.56 0
1916.56 -3001.69 0
0 0 0

-628.277 1302.58 0
1302.58 1672.18 0
0 0 0

500.499 1174.39 0
1174.39 1081.75 0
0 0 0

-2797.5 925.614 0
925.614 -892.942 0
0 0 0

138.544 -409.149 0
-409.149 -179.676 0
0 0 0

-2030.47 691.973 0
691.973 -535.871 0
0 0 0

1401.54 -158.538 0
-158.538 -850.07 0
0 0 0

-1501.73 2027.71 0
2027.71 3382.54 0
0 0 0

-2086.17 1241.9 0
1241.9 269.857 0
0 0 0

-442.178 69.9196 0
69.9196 2929.83 0
0 0 0

136.856 -2207.9 0
-2207.9 4178.06 0
0 0 0

-386.497 -682.924 0
-682.924 90.9679 0
0 0 0

-491.387 267.287 0
267.287 3793.34 0
0 0 0

1563.92 698.881 0
698.881 -827.999 0
0 0 0

-1954.76 1284.94 0
1284.94 625.325 0
0 0 0

-15.7422 -443.596 0
-443.596 -1058.6 0
0 0 0

9.58697 0.207666 0
0.207666 -1578.65 0
0 0 0

295.387 138.308 0
138.308 311.817 0
0 0 0

439.089 -260.574 0
-260.574 -1030.48 0
0 0 0

-4381.3 1529.18 0
1529.18 484.502 0
0 0 0

842.951 -3718.54 0
-3718.54 -390.82 0
0 0 0

1056.89 -620.876 0
-620.876 619.989 0
0 0 0

1479.52 320.059 0
320.059 631.262 0
0 0 0

128.526 446.947 0
446.947 1439.99 0
0 0 0

-11.7868 -464.38 0
-464.38 -1484.88 0
0 0 0

539.202 -1528.55 0
-1528.55 1524.22 0
0 0 0

-777.692 -470.423 0
-470.423 1090 0
0 0 0

2174.74 -1759.13 0
-1759.13 -548.959 0
0 0 0

-656.49 -309.624 0
-309.624 898.741 0
0 0 0

415.161 -1180.17 0
-1180.17 -1789.25 0
0 0 0

-1140.26 1161.52 0
1161.52 432.919 0
0 0 0

242.744 788.309 0
788.309 606.149 0
0 0 0

TENSORS velocity_gradient double
2.06498 -8.90072 0
8.07408 -1.17068 0
0 0 0

1.89397 -9.84484 0
8.06424 -1.22503 0
0 0 0

1.72745 -11.828 0
8.79858 0.0422098 0
0 0 0

1.91263 -10.9893 0
8.59079 -0.898915 0
0 0 0

3.08692 -10.4688 0
8.52257 -1.39824 0
0 0 0

3.19186 -10.0633 0
8.41243 -1.82386 0
0 0 0

2.33974 -9.87188 0
8.78997 -1.46928 0
0 0 0

2.60392 -8.95961 0
8.76982 -1.5507 0
0 0 0

1.95004 -9.55276 0
7.10264 -2.10301 0
0 0 0

1.98217 -8.82864 0
7.09188 -1.76073 0
0 0 0

1.2125 -8.95223 0
6.68882 -1.78869 0
0 0 0

1.28301 -8.67219 0
6.75157 -1.67304 0
0 0 0

1.0293 -8.15706 0
6.99861 -1.36595 0
0 0 0

1.07994 -7.45849 0
7.08845 -0.730707 0
0 0 0

0.291639 -8.006 0
6.36742 -1.23149 0
0 0 0

0.407802 -7.31767 0
6.47367 -0.601909 0
0 0 0

0.837082 -11.654 0
9.79765 -0.153084 0
0 0 0

1.04882 -10.8028 0
9.56006 -1.10821 0
0 0 0

0.931668 -6.12427 0
9.7413 -1.24443 0
0 0 0

0.810889 -6.6095 0
9.75792 -0.763383 0
0 0 0

1.09998 -9.68737 0
8.74532 -1.46263 0
0 0 0

1.41053 -8.39883 0
8.75651 -1.41622 0
0 0 0

0.348251 -6.93761 0
8.4089 0.143236 0
0 0 0

0.413408 -7.53913 0
8.18499 0.251567 0
0 0 0

0.751874 -7.6455 0
6.10104 -0.975617 0
0 0 0

0.808986 -7.24749 0
6.19124 -0.347027 0
0 0 0

0.380622 -7.5597 0
5.55945 -0.47672 0
0 0 0

0.463175 -7.19435 0
5.69132 -0.25274 0
0 0 0

0.309255 -7.46501 0
6.38655 -0.441543 0
0 0 0

0.221933 -8.11208 0
6.30589 -1.03926 0
0 0 0

0.961092 -7.58252 0
6.98866 -0.550096 0
0 0 0

0.877565 -8.2091 0
6.89199 -1.13027 0
0 0 0

1.42799 -6.22616 0
9.25879 -1.14537 0
0 0 0

0.989454 -6.69318 0
8.35077 -0.600382 0
0 0 0

1.11963 -6.97668 0
8.74759 -0.179755 0
0 0 0

0.891497 -6.39301 0
7.28963 0.156889 0
0 0 0

0.606456 -6.98957 0
7.43349 0.339547 0
0 0 0

0.582657 -7.25613 0
7.13157 1.09096 0
0 0 0

0.793076 -6.33109 0
6.81294 -0.197822 0
0 0 0

0.928236 -6.70607 0
7.35039 -0.0441169 0
0 0 0

0.562567 -7.55053 0
6.35476 0.305559 0
0 0 0

0.707772 -7.79049 0
6.43875 -0.607148 0
0 0 0

0.88966 -7.40028 0
7.37283 -0.15467 0
0 0 0

0.752975 -7.79011 0
6.65855 -0.649576 0
0 0 0

1.09048 -7.58252 0
6.97998 -0.350785 0
0 0 0

1.20309 -7.2359 0
6.03252 -0.101539 0
0 0 0

0.778944 -7.53612 0
6.46055 -0.273426 0
0 0 0

0.711031 -7.16901 0
6.62421 -0.237384 0
0 0 0

0.394708 -6.84634 0
8.22463 -0.0857259 0
0 0 0

0.764083 -6.35148 0
7.2824 0.132339 0
0 0 0

-0.0522221 -8.29085 0
7.68001 0.653378 0
0 0 0

0.876505 -8.30711 0
7.9932 0.355083 0
0 0 0

0.768364 -6.32675 0
7.21308 -0.268166 0
0 0 0

1.55101 -6.4946 0
7.79426 -0.62191 0
0 0 0

0.824102 -8.59698 0
7.7971 -0.746864 0
0 0 0

1.78 -7.53159 0
7.85007 -0.82956 0
0 0 0

1.4426 -7.07936 0
7.75246 -0.847368 0
0 0 0

0.555938 -7.4762 0
5.71784 -0.821017 0
0 0 0

1.86578 -6.94874 0
7.90012 -0.64396 0
0 0 0

0.434758 -7.43936 0
5.02753 -0.683993 0
0 0 0

0.577992 -7.36076 0
5.84855 -0.136822 0
0 0 0

0.150882 -7.23802 0
8.05766 0.510753 0
0 0 0

0.461918 -7.33559 0
5.16057 0.0123748 0
0 0 0

0.00409089 -7.20606 0
7.49819 0.632594 0
0 0 0

SCALARS active double 1
LOOKUP_TABLE default
1
1
1
1
1
1
1
1
1
1
1
1
1
1
1
1
1
1
1
1
1
1
1
1
1
1
1
1
1
1
1
1
1
1
1
1
1
1
1
1
1
1
1
1
1
1
1
1
1
1
1
1
1
1
1
1
1
1
1
1
1
1
1
1
SCALARS extent double 1
LOOKUP_TABLE default
0.0125
0.0125
0.0125
0.0125
0.0125
0.0125
0.0125
0.0125
0.0125
0.0125
0.0125
0.0125
0.0125
0.0125
0.0125
0.0125
0.0125
0.0125
0.0125
0.0125
0.0125
0.0125
0.0125
0.0125
0.0125
0.0125
0.0125
0.0125
0.0125
0.0125
0.0125
0.0125
0.0125
0.0125
0.0125
0.0125
0.0125
0.0125
0.0125
0.0125
0.0125
0.0125
0.0125
0.0125
0.0125
0.0125
0.0125
0.0125
0.0125
0.0125
0.0125
0.0125
0.0125
0.0125
0.0125
0.0125
0.0125
0.0125
0.0125
0.0125
0.0125
0.0125
0.0125
0.0125
SCALARS pressure double 1
LOOKUP_TABLE default
-46.7566
1074.69
-2465.24
984.529
481.502
-358.018
991.622
-842.82
-2423.31
-181.25
349.041
126.431
455.841
-372.053
-1431.18
-379.931
2116.68
-1675.77
-1501.87
1588.38
2116.63
-720.733
-677.335
-2517.08
41.5352
-947.817
-3095.65
-434.707
1345.15
-312.402
261.249
-398.042
1905.09
-521.954
-791.123
1845.22
20.5662
1283.17
-275.734
-940.407
908.157
-1243.82
-2157.46
147.765
-1650.98
-367.961
664.717
537.173
784.531
-303.602
295.696
1948.4
-226.065
-838.441
-1055.39
-784.257
748.334
-1031.71
-156.156
-812.89
-121.126
687.047
353.672
-424.446
SCALARS density double 1
LOOKUP_TABLE default
999.514
1011.24
974.687
1010.29
1005.02
996.284
1010.37
991.273
975.113
998.117
1003.64
1001.32
1004.75
996.138
985.226
996.057
1022.26
982.723
984.502
1016.66
1022.26
992.532
992.98
974.162
1000.43
990.191
968.318
995.489
1014.09
996.756
1002.72
995.869
1020.01
994.586
991.806
1019.38
1000.21
1013.43
997.136
990.267
1009.49
987.148
977.812
1001.54
982.976
996.181
1006.94
1005.6
1008.19
996.848
1003.08
1020.47
997.652
991.318
989.084
991.877
1007.81
989.328
998.377
991.582
998.741
1007.17
1003.68
995.595
