# vtk DataFile Version 3.0
Frame: 13, Time: 0.221
ASCII
DATASET UNSTRUCTURED_GRID
POINTS 64 double
0.306306 0.0649939 0 
0.282628 0.0719782 0 
0.314791 0.0902499 0 
0.290119 0.0949583 0 
0.257258 0.079377 0 
0.233335 0.0848378 0 
0.264611 0.101499 0 
0.239925 0.108608 0 
0.207232 0.0936066 0 
0.182147 0.103481 0 
0.215755 0.11609 0 
0.191252 0.125826 0 
0.158504 0.11018 0 
0.134576 0.117604 0 
0.167432 0.134673 0 
0.142336 0.140461 0 
0.320669 0.114424 0 
0.296381 0.120039 0 
0.325866 0.140233 0 
0.301826 0.14518 0 
0.272929 0.124281 0 
0.248287 0.132407 0 
0.277828 0.150484 0 
0.25365 0.156699 0 
0.224292 0.139629 0 
0.199816 0.148968 0 
0.229656 0.16559 0 
0.206499 0.173665 0 
0.175577 0.158184 0 
0.150724 0.164486 0 
0.182729 0.181426 0 
0.157939 0.187651 0 
0.331896 0.165475 0 
0.306879 0.170519 0 
0.337849 0.189936 0 
0.312619 0.19558 0 
0.282239 0.176341 0 
0.257846 0.183056 0 
0.288689 0.201672 0 
0.264513 0.208929 0 
0.235464 0.1911 0 
0.212149 0.199498 0 
0.241217 0.217092 0 
0.218139 0.225336 0 
0.187934 0.205759 0 
0.163963 0.211095 0 
0.19391 0.231255 0 
0.169749 0.235606 0 
0.343698 0.214249 0 
0.318821 0.21966 0 
0.349692 0.238935 0 
0.325203 0.244526 0 
0.295186 0.226308 0 
0.271145 0.233795 0 
0.302101 0.251917 0 
0.278784 0.257487 0 
0.248321 0.241399 0 
0.224743 0.248762 0 
0.255393 0.265794 0 
0.231107 0.273066 0 
0.199607 0.255803 0 
0.174752 0.260409 0 
0.207419 0.280268 0 
0.182513 0.285916 0 
CELLS 64 128
1 0
1 1
1 2
1 3
1 4
1 5
1 6
1 7
1 8
1 9
1 10
1 11
1 12
1 13
1 14
1 15
1 16
1 17
1 18
1 19
1 20
1 21
1 22
1 23
1 24
1 25
1 26
1 27
1 28
1 29
1 30
1 31
1 32
1 33
1 34
1 35
1 36
1 37
1 38
1 39
1 40
1 41
1 42
1 43
1 44
1 45
1 46
1 47
1 48
1 49
1 50
1 51
1 52
1 53
1 54
1 55
1 56
1 57
1 58
1 59
1 60
1 61
1 62
1 63
CELL_TYPES 64
1
1
1
1
1
1
1
1
1
1
1
1
1
1
1
1
1
1
1
1
1
1
1
1
1
1
1
1
1
1
1
1
1
1
1
1
1
1
1
1
1
1
1
1
1
1
1
1
1
1
1
1
1
1
1
1
1
1
1
1
1
1
1
1
POINT_DATA 64
VECTORS displacement double
0.0938064 -0.147506 0 
0.070128 -0.165522 0 
0.0772905 -0.12225 0 
0.052619 -0.142542 0 
0.0447585 -0.183123 0 
0.0208347 -0.202662 0 
0.0271106 -0.161001 0 
0.0024251 -0.178892 0 
-0.00526775 -0.218893 0 
-0.0303533 -0.234019 0 
-0.0217449 -0.19641 0 
-0.0462477 -0.211674 0 
-0.0539958 -0.25232 0 
-0.0779242 -0.269896 0 
-0.0700683 -0.227827 0 
-0.0951639 -0.247039 0 
0.0581693 -0.0980758 0 
0.0338811 -0.117461 0 
0.0383661 -0.0722674 0 
0.014326 -0.0923198 0 
0.0104287 -0.138219 0 
-0.0142125 -0.155093 0 
-0.00967225 -0.112016 0 
-0.0338497 -0.130801 0 
-0.0382083 -0.172871 0 
-0.0626836 -0.188532 0 
-0.0578443 -0.14691 0 
-0.0810008 -0.163835 0 
-0.0869231 -0.204316 0 
-0.111776 -0.223014 0 
-0.104771 -0.181074 0 
-0.129561 -0.199849 0 
0.0193955 -0.0470248 0 
-0.00562062 -0.0669806 0 
0.000348762 -0.0225641 0 
-0.0248812 -0.0419201 0 
-0.0302605 -0.086159 0 
-0.0546536 -0.104444 0 
-0.0488113 -0.0608275 0 
-0.0729871 -0.0785715 0 
-0.0770357 -0.1214 0 
-0.100351 -0.138002 0 
-0.0962829 -0.0954076 0 
-0.119361 -0.112164 0 
-0.124566 -0.156741 0 
-0.148537 -0.176405 0 
-0.14359 -0.131245 0 
-0.167751 -0.151894 0 
-0.0188018 0.00174911 0 
-0.0436793 -0.0178395 0 
-0.0378081 0.0264351 0 
-0.0622969 0.00702629 0 
-0.0673141 -0.0361918 0 
-0.0913552 -0.053705 0 
-0.0853995 -0.0105831 0 
-0.108716 -0.0300126 0 
-0.114179 -0.0711007 0 
-0.137757 -0.0887376 0 
-0.132107 -0.0467055 0 
-0.156393 -0.0644337 0 
-0.162893 -0.106697 0 
-0.187748 -0.127091 0 
-0.180081 -0.0822324 0 
-0.204987 -0.101584 0 
VECTORS velocity double
-0.457334 2.52629 0 
-0.780335 2.74875 0 
-0.747674 2.89524 0 
-0.681079 2.70692 0 
-0.643623 2.64924 0 
-0.5383 2.17954 0 
-0.656546 2.10285 0 
-1.08571 2.20801 0 
-0.912264 2.19148 0 
-1.01614 1.50785 0 
-1.1692 1.60489 0 
-0.932197 1.15619 0 
-0.958708 1.0162 0 
-1.14563 0.77479 0 
-0.964645 1.4089 0 
-1.59829 1.05357 0 
-1.07576 2.15987 0 
-0.845366 1.43747 0 
-1.26464 2.52801 0 
-1.17973 1.87442 0 
-0.783293 1.3823 0 
-1.42063 1.62513 0 
-1.1268 1.90794 0 
-1.53022 1.98927 0 
-1.45406 1.47341 0 
-1.31632 1.06457 0 
-1.40722 2.26113 0 
-1.65029 1.88118 0 
-1.41074 1.38825 0 
-1.63473 1.0152 0 
-1.76681 1.51353 0 
-1.71394 1.02543 0 
-0.650557 2.26176 0 
-1.3409 2.23518 0 
-1.0838 1.97805 0 
-1.50044 1.87035 0 
-1.09945 2.20759 0 
-1.34041 1.81657 0 
-1.39042 2.06425 0 
-1.47058 1.75811 0 
-1.38983 1.74579 0 
-1.57352 1.66801 0 
-1.56992 1.31758 0 
-1.73873 1.39521 0 
-1.5883 1.14565 0 
-2.07488 0.486697 0 
-1.44521 1.52157 0 
-1.87971 0.585064 0 
-1.42709 2.6785 0 
-1.55244 1.67111 0 
-1.67904 2.59865 0 
-1.94404 2.01722 0 
-1.57596 1.62595 0 
-1.486 1.49173 0 
-1.81925 1.83281 0 
-1.96809 1.53566 0 
-1.47898 1.17423 0 
-2.02614 1.00977 0 
-2.02042 1.61382 0 
-2.50246 1.05505 0 
-2.14996 1.65881 0 
-2.4189 0.433616 0 
-2.49997 1.37649 0 
-2.5404 0.701897 0 
SCALARS mass double 1
LOOKUP_TABLE default
0.625
0.625
0.625
0.625
0.625
0.625
0.625
0.625
0.625
0.625
0.625
0.625
0.625
0.625
0.625
0.625
0.625
0.625
0.625
0.625
0.625
0.625
0.625
0.625
0.625
0.625
0.625
0.625
0.625
0.625
0.625
0.625
0.625
0.625
0.625
0.625
0.625
0.625
0.625
0.625
0.625
0.625
0.625
0.625
0.625
0.625
0.625
0.625
0.625
0.625
0.625
0.625
0.625
0.625
0.625
0.625
0.625
0.625
0.625
0.625
0.625
0.625
0.625
0.625
SCALARS volume double 1
LOOKUP_TABLE default
0.000661282
0.000668039
0.000644645
0.000612762
0.000584128
0.000635739
0.000604415
0.000584042
0.000666277
0.000605815
0.000624166
0.00062552
0.000623278
0.000622699
0.000648158
0.000623816
0.000653214
0.000606217
0.000636484
0.000629344
0.000638384
0.000667006
0.000662916
0.000651796
0.000653903
0.000641316
0.000629698
0.000653078
0.000616095
0.000630935
0.000612117
0.000621167
0.000633507
0.000658937
0.00062928
0.000636535
0.000644536
0.000654074
0.000635853
0.000649051
0.000650404
0.000664642
0.000624846
0.00061707
0.000625925
0.000640533
0.000640708
0.000627057
0.00063575
0.000622359
0.000627402
0.000625077
0.000630402
0.000612913
0.000603382
0.000621391
0.000626337
0.000624278
0.000641295
0.000639214
0.000632454
0.000637043
0.000644109
0.000633822
VECTORS momentum double
-0.285834 1.57893 0 
-0.487709 1.71797 0 
-0.467296 1.80953 0 
-0.425674 1.69182 0 
-0.402265 1.65577 0 
-0.336438 1.36221 0 
-0.410341 1.31428 0 
-0.678569 1.38001 0 
-0.570165 1.36968 0 
-0.635086 0.942407 0 
-0.73075 1.00306 0 
-0.582623 0.722617 0 
-0.599193 0.635128 0 
-0.716016 0.484244 0 
-0.602903 0.880565 0 
-0.998934 0.65848 0 
-0.672349 1.34992 0 
-0.528353 0.898419 0 
-0.790399 1.58001 0 
-0.737331 1.17152 0 
-0.489558 0.863939 0 
-0.887895 1.0157 0 
-0.70425 1.19246 0 
-0.956389 1.24329 0 
-0.908789 0.920882 0 
-0.822699 0.665354 0 
-0.879513 1.41321 0 
-1.03143 1.17574 0 
-0.881713 0.867655 0 
-1.0217 0.634501 0 
-1.10426 0.945959 0 
-1.07122 0.640891 0 
-0.406598 1.4136 0 
-0.838066 1.39699 0 
-0.677374 1.23628 0 
-0.937777 1.16897 0 
-0.687159 1.37974 0 
-0.837755 1.13535 0 
-0.869014 1.29016 0 
-0.919114 1.09882 0 
-0.868642 1.09112 0 
-0.983451 1.0425 0 
-0.981201 0.823486 0 
-1.08671 0.872008 0 
-0.992689 0.716032 0 
-1.2968 0.304185 0 
-0.903258 0.950979 0 
-1.17482 0.365665 0 
-0.89193 1.67406 0 
-0.970273 1.04444 0 
-1.0494 1.62415 0 
-1.21503 1.26076 0 
-0.984974 1.01622 0 
-0.928748 0.93233 0 
-1.13703 1.1455 0 
-1.23006 0.959785 0 
-0.924361 0.733896 0 
-1.26633 0.631109 0 
-1.26276 1.00864 0 
-1.56404 0.659406 0 
-1.34373 1.03676 0 
-1.51181 0.27101 0 
-1.56248 0.860306 0 
-1.58775 0.438686 0 
VECTORS body_force double
0 -9.81 0 
0 -9.81 0 
0 -9.81 0 
0 -9.81 0 
0 -9.81 0 
0 -9.81 0 
0 -9.81 0 
0 -9.81 0 
0 -9.81 0 
0 -9.81 0 
0 -9.81 0 
0 -9.81 0 
0 -9.81 0 
0 -9.81 0 
0 -9.81 0 
0 -9.81 0 
0 -9.81 0 
0 -9.81 0 
0 -9.81 0 
0 -9.81 0 
0 -9.81 0 
0 -9.81 0 
0 -9.81 0 
0 -9.81 0 
0 -9.81 0 
0 -9.81 0 
0 -9.81 0 
0 -9.81 0 
0 -9.81 0 
0 -9.81 0 
0 -9.81 0 
0 -9.81 0 
0 -9.81 0 
0 -9.81 0 
0 -9.81 0 
0 -9.81 0 
0 -9.81 0 
0 -9.81 0 
0 -9.81 0 
0 -9.81 0 
0 -9.81 0 
0 -9.81 0 
0 -9.81 0 
0 -9.81 0 
0 -9.81 0 
0 -9.81 0 
0 -9.81 0 
0 -9.81 0 
0 -9.81 0 
0 -9.81 0 
0 -9.81 0 
0 -9.81 0 
0 -9.81 0 
0 -9.81 0 
0 -9.81 0 
0 -9.81 0 
0 -9.81 0 
0 -9.81 0 
0 -9.81 0 
0 -9.81 0 
0 -9.81 0 
0 -9.81 0 
0 -9.81 0 
0 -9.81 0 
TENSORS cauchy_stress double
-3824.96 7862.47 0
7862.47 14676.7 0
0 0 0

10382.4 291.032 0
291.032 2424.18 0
0 0 0

3401.62 -3335.44 0
-3335.44 2549.84 0
0 0 0

-1991.45 3943.41 0
3943.41 -1811.29 0
0 0 0

-10497.2 -964.287 0
-964.287 -2508.93 0
0 0 0

4275.86 -6561.95 0
-6561.95 -999.544 0
0 0 0

4098.12 -4419.26 0
-4419.26 -10538.6 0
0 0 0

-5238.61 6931.69 0
6931.69 -7795.89 0
0 0 0

9228.15 -2248.18 0
-2248.18 3070.68 0
0 0 0

-220.952 -2229.36 0
-2229.36 -5774.57 0
0 0 0

3927.2 -3287.59 0
-3287.59 -4184.1 0
0 0 0

-664.641 -3142.87 0
-3142.87 824.59 0
0 0 0

532.018 7064.99 0
7064.99 -1062.58 0
0 0 0

783.28 296.296 0
296.296 -1492.68 0
0 0 0

5571.57 3493.71 0
3493.71 1425.07 0
0 0 0

2576.32 31.3345 0
31.3345 -2941.05 0
0 0 0

-128.009 -1223.03 0
-1223.03 8619.01 0
0 0 0

-2590.57 4220.64 0
4220.64 -3277.46 0
0 0 0

1439.39 1325.53 0
1325.53 2061.96 0
0 0 0

-2767.74 1583.15 0
1583.15 4099.82 0
0 0 0

-675.938 1760.19 0
1760.19 4750.64 0
0 0 0

7381.08 -2450.18 0
-2450.18 5128.01 0
0 0 0

1211.52 -1890.11 0
-1890.11 10114.7 0
0 0 0

659.471 -6119.27 0
-6119.27 7413.53 0
0 0 0

605.334 -1120.27 0
-1120.27 8088.32 0
0 0 0

3307.65 -2705.14 0
-2705.14 1648.25 0
0 0 0

-4282.42 -2664.73 0
-2664.73 5722.65 0
0 0 0

-387.983 -3269.81 0
-3269.81 8838.81 0
0 0 0

1172.82 -694.459 0
-694.459 -3932.52 0
0 0 0

3951.09 3335.64 0
3335.64 -2133.43 0
0 0 0

-2054.04 -1347.79 0
-1347.79 -1951.5 0
0 0 0

3925.35 -351.853 0
-351.853 -5108.41 0
0 0 0

-236.013 565.465 0
565.465 2835.91 0
0 0 0

6029.96 1156.34 0
1156.34 4138.69 0
0 0 0

1706.29 -1536.1 0
-1536.1 -393.881 0
0 0 0

2727.34 2929.19 0
2929.19 789.589 0
0 0 0

1188.84 -2057.05 0
-2057.05 4730.21 0
0 0 0

-1642.69 -418.109 0
-418.109 10386.6 0
0 0 0

-382.562 -547.951 0
-547.951 3693.3 0
0 0 0

1463.32 -337.769 0
-337.769 5798.13 0
0 0 0

-3523.78 -4139.59 0
-4139.59 11185.8 0
0 0 0

1227.66 -266.753 0
-266.753 10598.7 0
0 0 0

-2057.64 -2531.45 0
-2531.45 2010.3 0
0 0 0

-3464.35 -704.665 0
-704.665 1008.59 0
0 0 0

-437.393 -494.986 0
-494.986 721.731 0
0 0 0

1171.46 692.799 0
692.799 3549.58 0
0 0 0

953.031 2326.5 0
2326.5 3820.35 0
0 0 0

1576.67 1291 0
1291 -944.734 0
0 0 0

765.979 -2377.2 0
-2377.2 2513.55 0
0 0 0

-354.877 933.91 0
933.91 -459.357 0
0 0 0

-1104.11 1871.73 0
1871.73 1841.68 0
0 0 0

-166.35 1927.04 0
1927.04 189.904 0
0 0 0

-1752.88 571.905 0
571.905 3407.78 0
0 0 0

-4213.21 -1665.42 0
-1665.42 457.632 0
0 0 0

-5701.2 3065.01 0
3065.01 -1068.35 0
0 0 0

-2147.14 431.876 0
431.876 1033.32 0
0 0 0

-2718.17 724.029 0
724.029 3129.03 0
0 0 0

0.427408 -3406.23 0
-3406.23 -222.706 0
0 0 0

2859.23 -1091.42 0
-1091.42 2090.24 0
0 0 0

3733.23 -860.593 0
-860.593 591.374 0
0 0 0

2880.1 -998.716 0
-998.716 -600.139 0
0 0 0

298.521 1739.69 0
1739.69 3371.9 0
0 0 0

3612.41 1186.86 0
1186.86 2179.31 0
0 0 0

1971.12 3336 0
3336 724.458 0
0 0 0

TENSORS velocity_gradient double
1.676 -5.64012 0
-6.72382 -10.8487 0
0 0 0

2.99819 -3.7565 0
5.51035 -11.0601 0
0 0 0

-2.29475 -6.98585 0
1.84956 -7.94308 0
0 0 0

1.87533 -4.12232 0
2.56035 -12.0211 0
0 0 0

2.63074 -2.53417 0
4.54499 -7.8487 0
0 0 0

1.73705 -1.69033 0
8.63896 -7.82898 0
0 0 0

1.87855 -5.50418 0
2.08953 -6.39926 0
0 0 0

1.13161 -9.62323 0
9.68041 -3.47279 0
0 0 0

1.47627 -0.942217 0
9.21705 -9.48741 0
0 0 0

2.5296 -4.86171 0
11.2228 -2.27245 0
0 0 0

1.00284 -9.22278 0
9.61388 -3.26588 0
0 0 0

1.68823 -8.77551 0
8.86913 -2.56589 0
0 0 0

2.02812 -8.04923 0
9.9955 -0.159044 0
0 0 0

-0.451669 -5.42742 0
4.52056 2.31904 0
0 0 0

1.48761 -8.25086 0
8.20429 -0.827234 0
0 0 0

-4.30572 -6.76641 0
1.68372 1.33345 0
0 0 0

-2.79546 -3.92513 0
5.15144 -4.59318 0
0 0 0

1.34377 -6.48797 0
2.61707 -3.36286 0
0 0 0

0.157896 -3.32124 0
3.50523 -4.92979 0
0 0 0

1.72413 -5.97972 0
2.84618 -3.52204 0
0 0 0

3.02627 -8.15265 0
1.7795 -3.3925 0
0 0 0

2.03588 -9.52515 0
5.98597 -3.50308 0
0 0 0

4.44367 -6.13027 0
2.12784 -3.52222 0
0 0 0

4.03924 -2.37299 0
3.05285 -5.37004 0
0 0 0

0.61134 -9.36832 0
9.41159 -3.34108 0
0 0 0

0.897851 -7.79341 0
8.43283 -2.8415 0
0 0 0

1.64079 -2.5896 0
8.23664 -4.65611 0
0 0 0

2.37474 -4.63333 0
7.59819 -2.87828 0
0 0 0

1.29227 -5.91272 0
6.97822 -2.23092 0
0 0 0

-1.41217 -6.27494 0
3.65727 -1.64267 0
0 0 0

1.87115 -5.7315 0
6.94585 -2.24106 0
0 0 0

2.0308 -6.34676 0
6.93693 -2.20666 0
0 0 0

1.11919 -6.15784 0
3.74857 0.368285 0
0 0 0

0.965656 -5.41307 0
4.13443 -1.50348 0
0 0 0

0.39061 -6.33989 0
5.57964 0.825813 0
0 0 0

0.217824 -5.58833 0
6.01389 -1.06301 0
0 0 0

2.82777 -3.76951 0
3.91989 -3.42866 0
0 0 0

2.24464 -1.69889 0
4.4682 -5.37563 0
0 0 0

1.01044 -6.03074 0
5.80784 -3.39309 0
0 0 0

0.856205 -8.52612 0
6.20184 -4.69208 0
0 0 0

3.90697 -2.07141 0
6.26531 -5.10687 0
0 0 0

4.43105 -5.54687 0
5.72413 -3.70009 0
0 0 0

4.52018 -8.83469 0
5.11612 -5.05188 0
0 0 0

4.34933 -8.36877 0
4.93294 -4.55233 0
0 0 0

2.10317 -7.23436 0
7.14878 -4.23665 0
0 0 0

1.91614 -6.43022 0
7.3464 -5.57885 0
0 0 0

1.54666 -7.75095 0
7.64118 -4.36348 0
0 0 0

0.814112 -6.69629 0
8.39587 -5.32547 0
0 0 0

0.280518 -6.31881 0
7.47962 -0.261858 0
0 0 0

0.49371 -7.01831 0
7.86231 -2.01866 0
0 0 0

1.51549 -5.97805 0
6.11907 -0.507012 0
0 0 0

1.15304 -6.84455 0
9.78587 -1.51174 0
0 0 0

1.18556 -7.65277 0
7.15278 -3.62897 0
0 0 0

1.5661 -8.33157 0
7.00816 -4.4711 0
0 0 0

2.14008 -6.99921 0
8.94561 -3.16904 0
0 0 0

2.17405 -8.28345 0
7.52754 -1.70272 0
0 0 0

2.88781 -8.8281 0
5.94406 -5.03906 0
0 0 0

3.90094 -8.56927 0
4.52243 -3.93463 0
0 0 0

2.32358 -8.69271 0
7.46301 -1.43417 0
0 0 0

3.7226 -8.74574 0
5.08175 -1.92266 0
0 0 0

2.49957 -8.55025 0
6.03309 -2.90707 0
0 0 0

0.221593 -8.83078 0
8.31353 -1.21565 0
0 0 0

3.68978 -8.64053 0
5.32272 -2.69528 0
0 0 0

0.47923 -8.75009 0
6.33053 -1.83667 0
0 0 0

SCALARS active double 1
LOOKUP_TABLE default
1
1
1
1
1
1
1
1
1
1
1
1
1
1
1
1
1
1
1
1
1
1
1
1
1
1
1
1
1
1
1
1
1
1
1
1
1
1
1
1
1
1
1
1
1
1
1
1
1
1
1
1
1
1
1
1
1
1
1
1
1
1
1
1
SCALARS extent double 1
LOOKUP_TABLE default
0.0125
0.0125
0.0125
0.0125
0.0125
0.0125
0.0125
0.0125
0.0125
0.0125
0.0125
0.0125
0.0125
0.0125
0.0125
0.0125
0.0125
0.0125
0.0125
0.0125
0.0125
0.0125
0.0125
0.0125
0.0125
0.0125
0.0125
0.0125
0.0125
0.0125
0.0125
0.0125
0.0125
0.0125
0.0125
0.0125
0.0125
0.0125
0.0125
0.0125
0.0125
0.0125
0.0125
0.0125
0.0125
0.0125
0.0125
0.0125
0.0125
0.0125
0.0125
0.0125
0.0125
0.0125
0.0125
0.0125
0.0125
0.0125
0.0125
0.0125
0.0125
0.0125
0.0125
0.0125
SCALARS pressure double 1
LOOKUP_TABLE default
-5425.87
-6403.29
-2975.73
1901.37
6503.08
-1638.16
3220.22
6517.25
-6149.42
2997.76
128.447
-79.9745
265.28
354.702
-3498.32
182.362
-4245.5
2934.02
-1750.68
-666.039
-2037.35
-6254.55
-5663.12
-4036.5
-4346.83
-2477.95
-720.114
-4225.41
1379.85
-908.831
2002.77
591.534
-1299.95
-5084.32
-656.202
-1758.47
-2959.53
-4371.94
-1655.37
-3630.72
-3831.01
-5913.17
23.6697
1227.88
-142.169
-2360.52
-2386.69
-315.968
-1639.76
407.117
-368.786
-11.7767
-827.455
1877.79
3384.77
556.908
-205.43
111.139
-2474.74
-2162.3
-1139.98
-1835.21
-2895.86
-1347.79
SCALARS density double 1
LOOKUP_TABLE default
945.134
935.575
969.526
1019.97
1069.97
983.107
1034.06
1070.13
938.048
1031.67
1001.34
999.169
1002.76
1003.7
964.271
1001.9
956.807
1030.98
981.958
993.097
979.034
937.023
942.804
958.889
955.8
974.559
992.539
957.007
1014.45
990.593
1021.05
1006.17
986.572
948.497
993.199
981.878
969.69
955.55
982.931
962.944
960.941
940.356
1000.25
1012.85
998.523
975.749
975.484
996.719
983.091
1004.24
996.172
999.878
991.431
1019.72
1035.83
1005.81
997.866
1001.16
974.591
977.763
988.214
981.095
970.332
986.081
