# vtk DataFile Version 3.0
Frame: 54, Time: 0.918
ASCII
DATASET UNSTRUCTURED_GRID
POINTS 64 double
0.912785 0.333834 0 
0.937685 0.331692 0 
0.909899 0.307953 0 
0.934924 0.306556 0 
0.96286 0.328551 0 
0.989636 0.32708 0 
0.960016 0.302459 0 
0.985554 0.301206 0 
0.0145679 0.322785 0 
0.0412506 0.318955 0 
0.0123128 0.297908 0 
0.0383734 0.295242 0 
0.066087 0.316773 0 
0.0952302 0.312419 0 
0.0624201 0.29195 0 
0.091154 0.289944 0 
0.907444 0.284622 0 
0.933709 0.281001 0 
0.905461 0.259318 0 
0.931289 0.256476 0 
0.958627 0.277306 0 
0.983434 0.274908 0 
0.956382 0.251763 0 
0.981102 0.249678 0 
0.00717418 0.272355 0 
0.0331023 0.270671 0 
0.00524732 0.246596 0 
0.0310168 0.245287 0 
0.0573845 0.267135 0 
0.0856313 0.264705 0 
0.0568702 0.242581 0 
0.0816318 0.242275 0 
0.902119 0.233565 0 
0.927548 0.231441 0 
0.90177 0.208906 0 
0.927363 0.206546 0 
0.952758 0.226283 0 
0.979292 0.223665 0 
0.952533 0.202947 0 
0.979366 0.199008 0 
0.003725 0.222906 0 
0.0291813 0.220683 0 
0.00454307 0.198336 0 
0.0298866 0.195167 0 
0.0551105 0.219237 0 
0.0793908 0.219617 0 
0.0561472 0.193599 0 
0.0816488 0.19428 0 
0.900007 0.18364 0 
0.924994 0.181722 0 
0.897035 0.159388 0 
0.923149 0.155957 0 
0.951196 0.177925 0 
0.977874 0.175346 0 
0.949083 0.151871 0 
0.97474 0.150354 0 
0.00300343 0.172539 0 
0.0275938 0.171994 0 
-0.000637808 0.146887 0 
0.025844 0.145829 0 
0.0541994 0.169229 0 
0.0809793 0.170449 0 
0.051202 0.145222 0 
0.0777276 0.1454 0 
CELLS 64 128
1 0
1 1
1 2
1 3
1 4
1 5
1 6
1 7
1 8
1 9
1 10
1 11
1 12
1 13
1 14
1 15
1 16
1 17
1 18
1 19
1 20
1 21
1 22
1 23
1 24
1 25
1 26
1 27
1 28
1 29
1 30
1 31
1 32
1 33
1 34
1 35
1 36
1 37
1 38
1 39
1 40
1 41
1 42
1 43
1 44
1 45
1 46
1 47
1 48
1 49
1 50
1 51
1 52
1 53
1 54
1 55
1 56
1 57
1 58
1 59
1 60
1 61
1 62
1 63
CELL_TYPES 64
1
1
1
1
1
1
1
1
1
1
1
1
1
1
1
1
1
1
1
1
1
1
1
1
1
1
1
1
1
1
1
1
1
1
1
1
1
1
1
1
1
1
1
1
1
1
1
1
1
1
1
1
1
1
1
1
1
1
1
1
1
1
1
1
POINT_DATA 64
VECTORS displacement double
-0.299715 0.121334 0 
-0.274815 0.0941921 0 
-0.327601 0.0954531 0 
-0.302576 0.0690559 0 
-0.24964 0.0660505 0 
-0.222864 0.0395796 0 
-0.277484 0.0399593 0 
-0.251946 0.0137061 0 
-0.197932 0.0102849 0 
-0.171249 -0.0185452 0 
-0.225187 -0.014592 0 
-0.199127 -0.0422582 0 
-0.146413 -0.0457272 0 
-0.11727 -0.0750812 0 
-0.17508 -0.0705504 0 
-0.146346 -0.0975563 0 
-0.355056 0.0721222 0 
-0.328791 0.0435008 0 
-0.382039 0.0468176 0 
-0.356211 0.0189756 0 
-0.303873 0.014806 0 
-0.279066 -0.0125921 0 
-0.331118 -0.0107371 0 
-0.306398 -0.0378221 0 
-0.255326 -0.0401446 0 
-0.229398 -0.0668289 0 
-0.282253 -0.0659037 0 
-0.256483 -0.0922135 0 
-0.205115 -0.0953654 0 
-0.176869 -0.122795 0 
-0.23063 -0.119919 0 
-0.205868 -0.145225 0 
-0.410381 0.0210647 0 
-0.384952 -0.0060591 0 
-0.43573 -0.00359383 0 
-0.410137 -0.0309542 0 
-0.359742 -0.0362169 0 
-0.333208 -0.0638345 0 
-0.384967 -0.059553 0 
-0.358134 -0.0884921 0 
-0.308775 -0.0895935 0 
-0.283319 -0.116817 0 
-0.332957 -0.114164 0 
-0.307613 -0.142333 0 
-0.257389 -0.143263 0 
-0.233109 -0.167883 0 
-0.281353 -0.168901 0 
-0.255851 -0.19322 0 
-0.462493 -0.0288602 0 
-0.437506 -0.0557782 0 
-0.490465 -0.0531119 0 
-0.464351 -0.0815426 0 
-0.411304 -0.0845745 0 
-0.384626 -0.112154 0 
-0.438417 -0.110629 0 
-0.41276 -0.137146 0 
-0.359497 -0.139961 0 
-0.334906 -0.165506 0 
-0.388138 -0.165613 0 
-0.361656 -0.191671 0 
-0.308301 -0.193271 0 
-0.281521 -0.217051 0 
-0.336298 -0.217278 0 
-0.309772 -0.2421 0 
VECTORS velocity double
-2.13627 0.125316 0 
-2.15625 0.644312 0 
-2.14029 -0.0545097 0 
-2.06052 0.458639 0 
-1.96892 0.937204 0 
-1.79196 0.200748 0 
-1.83409 0.37507 0 
-2.02894 0.570516 0 
-1.81131 1.02212 0 
-1.36093 0.681571 0 
-1.83133 1.03839 0 
-1.56009 1.39724 0 
-2.02082 0.662014 0 
-1.9583 0.892022 0 
-1.93801 0.893797 0 
-1.64619 1.19802 0 
-2.09656 0.591171 0 
-1.81375 0.937475 0 
-2.22767 0.541224 0 
-1.99885 0.862992 0 
-1.58474 0.97455 0 
-1.73471 0.97916 0 
-1.19183 0.716913 0 
-1.15898 0.644853 0 
-1.89669 0.789065 0 
-1.52472 0.669957 0 
-1.44165 0.894383 0 
-1.31348 0.725479 0 
-1.83818 1.03652 0 
-1.87708 1.02565 0 
-1.56735 0.878593 0 
-1.19194 1.14726 0 
-1.73474 0.736514 0 
-1.56477 1.37474 0 
-1.41007 0.729837 0 
-1.47616 1.30261 0 
-0.968889 0.947154 0 
-1.02535 0.651783 0 
-1.4189 1.04359 0 
-1.2163 0.684075 0 
-1.55961 1.06918 0 
-1.13866 1.18751 0 
-1.39538 0.622182 0 
-0.935768 0.8644 0 
-0.920085 1.05309 0 
-0.762013 1.60348 0 
-0.950963 0.659278 0 
-0.805242 1.09612 0 
-1.65334 1.11725 0 
-1.48521 1.33439 0 
-1.1126 1.29165 0 
-1.45814 1.45293 0 
-1.38144 1.11852 0 
-0.875085 0.895213 0 
-1.51164 0.892276 0 
-1.69232 1.01527 0 
-0.887178 0.541764 0 
-0.727902 0.89111 0 
-1.40607 0.96255 0 
-0.458178 1.14192 0 
-0.956809 1.17178 0 
-0.924902 1.23657 0 
-0.665679 0.997232 0 
-0.0875967 1.43305 0 
SCALARS mass double 1
LOOKUP_TABLE default
0.625
0.625
0.625
0.625
0.625
0.625
0.625
0.625
0.625
0.625
0.625
0.625
0.625
0.625
0.625
0.625
0.625
0.625
0.625
0.625
0.625
0.625
0.625
0.625
0.625
0.625
0.625
0.625
0.625
0.625
0.625
0.625
0.625
0.625
0.625
0.625
0.625
0.625
0.625
0.625
0.625
0.625
0.625
0.625
0.625
0.625
0.625
0.625
0.625
0.625
0.625
0.625
0.625
0.625
0.625
0.625
0.625
0.625
0.625
0.625
0.625
0.625
0.625
0.625
SCALARS volume double 1
LOOKUP_TABLE default
0.000627771
0.000630432
0.000638975
0.000630184
0.000625754
0.000616464
0.000626205
0.000639595
0.000624624
0.000619312
0.000670128
0.000606452
0.000621443
0.000622193
0.000658681
0.000587533
0.00062423
0.000618892
0.000648166
0.000622787
0.000635665
0.000615521
0.00065406
0.000623835
0.000636486
0.000598775
0.000610118
0.000672442
0.00059876
0.000605731
0.000618128
0.000622409
0.000651892
0.000623994
0.000621988
0.000635649
0.000616344
0.00064491
0.000614711
0.000621313
0.0005987
0.00062319
0.000639628
0.000638846
0.000594252
0.000604788
0.000646015
0.000639322
0.000634072
0.000642593
0.000612164
0.000603811
0.000643332
0.000613887
0.000668985
0.000595778
0.000637107
0.000619194
0.000639277
0.000669253
0.000608936
0.000634687
0.000614539
0.000636156
VECTORS momentum double
-1.33517 0.0783222 0 
-1.34765 0.402695 0 
-1.33768 -0.0340686 0 
-1.28783 0.28665 0 
-1.23058 0.585752 0 
-1.11997 0.125467 0 
-1.1463 0.234418 0 
-1.26809 0.356573 0 
-1.13207 0.638825 0 
-0.850582 0.425982 0 
-1.14458 0.648993 0 
-0.975055 0.873273 0 
-1.26301 0.413759 0 
-1.22394 0.557514 0 
-1.21126 0.558623 0 
-1.02887 0.748764 0 
-1.31035 0.369482 0 
-1.13359 0.585922 0 
-1.39229 0.338265 0 
-1.24928 0.53937 0 
-0.990463 0.609094 0 
-1.08419 0.611975 0 
-0.744894 0.44807 0 
-0.724364 0.403033 0 
-1.18543 0.493166 0 
-0.952948 0.418723 0 
-0.901033 0.558989 0 
-0.820927 0.453425 0 
-1.14886 0.647827 0 
-1.17317 0.641034 0 
-0.979594 0.54912 0 
-0.744963 0.717036 0 
-1.08421 0.460321 0 
-0.97798 0.859212 0 
-0.881293 0.456148 0 
-0.922599 0.81413 0 
-0.605555 0.591971 0 
-0.640843 0.407365 0 
-0.886813 0.652245 0 
-0.760186 0.427547 0 
-0.974757 0.668238 0 
-0.711661 0.742192 0 
-0.872115 0.388864 0 
-0.584855 0.54025 0 
-0.575053 0.65818 0 
-0.476258 1.00217 0 
-0.594352 0.412049 0 
-0.503276 0.685077 0 
-1.03334 0.698279 0 
-0.928257 0.833993 0 
-0.695372 0.807281 0 
-0.911337 0.908079 0 
-0.8634 0.699076 0 
-0.546928 0.559508 0 
-0.944773 0.557673 0 
-1.0577 0.634545 0 
-0.554486 0.338603 0 
-0.454939 0.556944 0 
-0.878793 0.601594 0 
-0.286361 0.713702 0 
-0.598006 0.732363 0 
-0.578064 0.772854 0 
-0.416049 0.62327 0 
-0.0547479 0.895657 0 
VECTORS body_force double
0 -9.81 0 
0 -9.81 0 
0 -9.81 0 
0 -9.81 0 
0 -9.81 0 
0 -9.81 0 
0 -9.81 0 
0 -9.81 0 
0 -9.81 0 
0 -9.81 0 
0 -9.81 0 
0 -9.81 0 
0 -9.81 0 
0 -9.81 0 
0 -9.81 0 
0 -9.81 0 
0 -9.81 0 
0 -9.81 0 
0 -9.81 0 
0 -9.81 0 
0 -9.81 0 
0 -9.81 0 
0 -9.81 0 
0 -9.81 0 
0 -9.81 0 
0 -9.81 0 
0 -9.81 0 
0 -9.81 0 
0 -9.81 0 
0 -9.81 0 
0 -9.81 0 
0 -9.81 0 
0 -9.81 0 
0 -9.81 0 
0 -9.81 0 
0 -9.81 0 
0 -9.81 0 
0 -9.81 0 
0 -9.81 0 
0 -9.81 0 
0 -9.81 0 
0 -9.81 0 
0 -9.81 0 
0 -9.81 0 
0 -9.81 0 
0 -9.81 0 
0 -9.81 0 
0 -9.81 0 
0 -9.81 0 
0 -9.81 0 
0 -9.81 0 
0 -9.81 0 
0 -9.81 0 
0 -9.81 0 
0 -9.81 0 
0 -9.81 0 
0 -9.81 0 
0 -9.81 0 
0 -9.81 0 
0 -9.81 0 
0 -9.81 0 
0 -9.81 0 
0 -9.81 0 
0 -9.81 0 
TENSORS cauchy_stress double
1408.27 897.076 0
897.076 -557.592 0
0 0 0

659.025 -1166.74 0
-1166.74 1005 0
0 0 0

1890.06 1505.36 0
1505.36 2362.43 0
0 0 0

-1598.28 -1041.83 0
-1041.83 3186.75 0
0 0 0

-274.958 -16.5692 0
-16.5692 506.678 0
0 0 0

2359.33 1488.33 0
1488.33 -5003.85 0
0 0 0

755.013 -2796.99 0
-2796.99 -384.737 0
0 0 0

1999.39 157.038 0
157.038 2439.8 0
0 0 0

2090.4 1155.88 0
1155.88 -2206.03 0
0 0 0

1588.78 -999.762 0
-999.762 -3347.07 0
0 0 0

9649.52 2096.69 0
2096.69 3757.76 0
0 0 0

-2715.44 -756.162 0
-756.162 -3078.1 0
0 0 0

2980.84 117.013 0
117.013 -4078.37 0
0 0 0

2362.28 149.119 0
149.119 -3227.91 0
0 0 0

8130.35 4216.46 0
4216.46 1963.36 0
0 0 0

-6684.63 -1261.79 0
-1261.79 -5203.83 0
0 0 0

2121.74 -2194.94 0
-2194.94 -2358.76 0
0 0 0

-103.277 -4307.32 0
-4307.32 -1785.4 0
0 0 0

5798.37 2910.55 0
2910.55 1200.76 0
0 0 0

-392.634 -432.3 0
-432.3 -289.501 0
0 0 0

1485.91 -1292.4 0
-1292.4 1768.07 0
0 0 0

-5149.59 -439.945 0
-439.945 2210.53 0
0 0 0

3045.8 330.521 0
330.521 5693.97 0
0 0 0

-2594.88 1720.9 0
1720.9 2236.09 0
0 0 0

857.411 170.636 0
170.636 2644.7 0
0 0 0

-4677.22 1009.85 0
1009.85 -3566.03 0
0 0 0

-3095.74 1593.19 0
1593.19 -1538.83 0
0 0 0

8355.99 336.717 0
336.717 5713.97 0
0 0 0

-152.518 750.26 0
750.26 -8095.66 0
0 0 0

1761.65 978.665 0
978.665 -7783.82 0
0 0 0

-1196.57 -1154.22 0
-1154.22 -929.449 0
0 0 0

3354.2 431.887 0
431.887 -4153.11 0
0 0 0

3449.52 -133.708 0
-133.708 4651.76 0
0 0 0

-704.941 -1323.4 0
-1323.4 395.181 0
0 0 0

530.259 -4271.21 0
-4271.21 -1459.36 0
0 0 0

2658.21 -2577.81 0
-2577.81 590.84 0
0 0 0

1099.28 -7057.61 0
-7057.61 -3781.25 0
0 0 0

1782.35 203.816 0
203.816 4248.24 0
0 0 0

-668.988 -6269.05 0
-6269.05 -2523.18 0
0 0 0

2395.99 -3237.77 0
-3237.77 -3533.71 0
0 0 0

-2601.78 -7183.18 0
-7183.18 -5665.8 0
0 0 0

-223.911 -1036.4 0
-1036.4 -333.921 0
0 0 0

366.178 -340.877 0
-340.877 4082.85 0
0 0 0

3118.33 -3992.82 0
-3992.82 1095.45 0
0 0 0

-1560.41 -3957.46 0
-3957.46 -8141.04 0
0 0 0

-3435.32 -286.833 0
-286.833 -2886.48 0
0 0 0

2969.82 1337.31 0
1337.31 3389.92 0
0 0 0

3436.21 265.247 0
265.247 920.928 0
0 0 0

489.683 -1488.21 0
-1488.21 2281.72 0
0 0 0

3572.68 1171.99 0
1171.99 1765.74 0
0 0 0

-757.415 -893.134 0
-893.134 -3233.1 0
0 0 0

-4380.16 -1733.39 0
-1733.39 -2252.7 0
0 0 0

3625.94 -3080.1 0
-3080.1 1933.53 0
0 0 0

1962.67 -2431.02 0
-2431.02 -5412.69 0
0 0 0

9656 -1687.78 0
-1687.78 3422.97 0
0 0 0

-5402.55 -1155.92 0
-1155.92 -3805.94 0
0 0 0

1199.68 3183.25 0
3183.25 2489.96 0
0 0 0

1447.48 -1466.38 0
-1466.38 -3242.32 0
0 0 0

4732.43 -810.875 0
-810.875 -389.036 0
0 0 0

5854.5 1741.34 0
1741.34 7301.23 0
0 0 0

609.102 882.636 0
882.636 -5616.49 0
0 0 0

1856.43 1462.67 0
1462.67 1101.47 0
0 0 0

1764.09 931.326 0
931.326 -5010.16 0
0 0 0

2352.85 220.957 0
220.957 1049.42 0
0 0 0

TENSORS velocity_gradient double
2.59855 -1.51327 0
7.11282 -3.42501 0
0 0 0

2.64825 -2.04472 0
6.95914 -1.78171 0
0 0 0

3.15402 -1.45086 0
5.39526 -3.61797 0
0 0 0

3.19411 -2.08754 0
5.29724 -2.04318 0
0 0 0

3.32111 -1.87541 0
2.2089 -1.16824 0
0 0 0

3.28079 -1.17299 0
2.21589 -1.29012 0
0 0 0

2.64838 -4.19092 0
2.18613 -2.4462 0
0 0 0

2.61824 -4.26041 0
2.15017 -2.19398 0
0 0 0

2.42741 -0.000685699 0
4.20598 -1.47597 0
0 0 0

2.19834 1.54376 0
4.24149 -1.71535 0
0 0 0

1.12189 -5.24222 0
4.14714 -1.69436 0
0 0 0

1.00307 -6.03962 0
4.08624 -0.465963 0
0 0 0

-4.21997 0.238741 0
0.899641 -1.04112 0
0 0 0

-5.18951 -2.32727 0
-0.4931 0.314852 0
0 0 0

-2.32857 -6.7125 0
0.773492 -0.70906 0
0 0 0

-2.24421 -7.90698 0
0.892346 -2.39191 0
0 0 0

4.62554 -5.14356 0
4.32423 -6.95225 0
0 0 0

4.93491 -7.29418 0
4.18925 -6.01398 0
0 0 0

6.72326 -4.97064 0
3.40903 -7.0277 0
0 0 0

6.91839 -6.96768 0
3.2933 -6.01096 0
0 0 0

2.12587 -8.28234 0
0.943772 -4.88087 0
0 0 0

2.07821 -7.79712 0
0.799473 -3.41194 0
0 0 0

1.73722 -6.22145 0
-0.62907 -3.82902 0
0 0 0

1.74092 -5.55031 0
-0.771095 -1.63433 0
0 0 0

0.365633 -7.26288 0
2.89887 -2.06249 0
0 0 0

0.3171 -6.54874 0
2.80583 -0.693312 0
0 0 0

0.294106 -5.38151 0
2.0193 0.304836 0
0 0 0

0.339367 -7.39664 0
2.00992 -0.26386 0
0 0 0

-1.29857 -6.49635 0
2.2246 -0.404532 0
0 0 0

-1.19492 -7.66923 0
2.37063 -2.05695 0
0 0 0

-0.297143 -9.41543 0
3.18167 -0.935017 0
0 0 0

-0.281993 -10.3901 0
3.18223 -0.970747 0
0 0 0

2.80938 -6.61028 0
2.51508 -5.94047 0
0 0 0

5.84268 -4.93867 0
1.73716 -4.31052 0
0 0 0

1.99619 -6.56904 0
1.5806 -5.94696 0
0 0 0

3.78889 -4.67623 0
-0.018036 -4.22405 0
0 0 0

2.71539 -3.4381 0
-1.89552 -2.51709 0
0 0 0

2.23605 -3.94266 0
-2.7452 -0.471488 0
0 0 0

2.98058 -1.63376 0
-3.41652 -1.95832 0
0 0 0

3.10052 -1.68603 0
-4.25127 -1.03294 0
0 0 0

2.38463 -4.90641 0
2.29301 0.762907 0
0 0 0

2.61463 -7.2482 0
2.94316 -0.156707 0
0 0 0

4.52825 -3.37038 0
3.30008 -1.00106 0
0 0 0

4.85315 -4.50749 0
3.70014 -1.68162 0
0 0 0

0.6222 -9.33756 0
3.21538 -0.932162 0
0 0 0

0.610311 -10.2927 0
3.21494 -0.967176 0
0 0 0

1.54826 -5.87421 0
3.33882 -1.8151 0
0 0 0

1.53154 -6.58781 0
3.33102 -2.14786 0
0 0 0

-0.0182034 -2.80828 0
0.958326 -4.76515 0
0 0 0

1.12778 -0.274197 0
-2.07309 -2.67597 0
0 0 0

-1.58617 -2.94951 0
1.10331 -4.98534 0
0 0 0

-1.84706 -0.051164 0
-4.21047 -2.2498 0
0 0 0

3.70614 1.80121 0
-3.51925 -0.896226 0
0 0 0

5.19584 -0.336242 0
-3.93141 -1.2987 0
0 0 0

3.00213 3.5193 0
-3.60073 -0.27059 0
0 0 0

7.67722 1.8144 0
-2.87994 -2.30771 0
0 0 0

6.21801 -2.56611 0
2.39451 -1.74346 0
0 0 0

6.4171 -4.23593 0
3.68646 -1.74426 0
0 0 0

8.27436 -0.198333 0
0.430973 -5.41887 0
0 0 0

8.58055 -3.40347 0
2.9537 -3.59885 0
0 0 0

2.67417 -5.79115 0
3.66034 -1.79675 0
0 0 0

2.20066 -6.56469 0
3.64304 -2.13708 0
0 0 0

4.94182 -6.3569 0
3.70414 -1.31807 0
0 0 0

2.93482 -7.44934 0
4.13119 -1.99603 0
0 0 0

SCALARS active double 1
LOOKUP_TABLE default
1
1
1
1
1
1
1
1
1
1
1
1
1
1
1
1
1
1
1
1
1
1
1
1
1
1
1
1
1
1
1
1
1
1
1
1
1
1
1
1
1
1
1
1
1
1
1
1
1
1
1
1
1
1
1
1
1
1
1
1
1
1
1
1
SCALARS extent double 1
LOOKUP_TABLE default
0.0125
0.0125
0.0125
0.0125
0.0125
0.0125
0.0125
0.0125
0.0125
0.0125
0.0125
0.0125
0.0125
0.0125
0.0125
0.0125
0.0125
0.0125
0.0125
0.0125
0.0125
0.0125
0.0125
0.0125
0.0125
0.0125
0.0125
0.0125
0.0125
0.0125
0.0125
0.0125
0.0125
0.0125
0.0125
0.0125
0.0125
0.0125
0.0125
0.0125
0.0125
0.0125
0.0125
0.0125
0.0125
0.0125
0.0125
0.0125
0.0125
0.0125
0.0125
0.0125
0.0125
0.0125
0.0125
0.0125
0.0125
0.0125
0.0125
0.0125
0.0125
0.0125
0.0125
0.0125
SCALARS pressure double 1
LOOKUP_TABLE default
-425.34
-832.012
-2126.24
-794.232
-115.86
1322.26
-185.138
-2219.6
57.8163
879.146
-6703.64
2896.77
548.762
432.811
-5046.85
5944.23
118.509
944.337
-3499.57
341.068
-1626.99
1469.53
-4369.88
179.396
-1751.06
4121.63
2317.28
-7034.98
4124.09
3011.08
1063.01
399.454
-4050.64
154.88
464.552
-1624.53
1340.99
-3015.3
1596.08
568.86
4133.79
278.916
-2224.51
-2106.89
4850.72
3160.9
-3179.87
-2178.57
-1385.7
-2669.21
1995.26
3316.43
-2779.73
1725.01
-6539.48
4604.25
-1844.82
897.421
-2171.7
-6577.86
2503.69
-1478.95
1623.04
-1701.14
SCALARS density double 1
LOOKUP_TABLE default
995.586
991.384
978.13
991.774
998.796
1013.85
998.076
977.181
1000.6
1009.19
932.657
1030.58
1005.72
1004.51
948.866
1063.77
1001.23
1009.87
964.259
1003.55
983.222
1015.4
955.57
1001.87
981.954
1043.8
1024.39
929.449
1043.82
1031.81
1011.12
1004.16
958.748
1001.61
1004.84
983.247
1014.04
969.128
1016.74
1005.93
1043.93
1002.9
977.131
978.327
1051.74
1033.42
967.47
977.598
985.692
972.622
1020.97
1035.09
971.505
1018.1
934.251
1049.05
980.997
1009.38
977.668
933.878
1026.38
984.737
1017.02
982.464
