# vtk DataFile Version 3.0
Frame: 6, Time: 0.102
ASCII
DATASET UNSTRUCTURED_GRID
POINTS 64 double
0.562456 0.263374 0 
0.557092 0.286566 0 
0.589692 0.269534 0 
0.582531 0.292294 0 
0.551117 0.309901 0 
0.54018 0.331697 0 
0.575199 0.318225 0 
0.564504 0.341801 0 
0.529877 0.354224 0 
0.523009 0.378034 0 
0.555043 0.36452 0 
0.546929 0.387371 0 
0.513198 0.401246 0 
0.504276 0.424404 0 
0.536066 0.410571 0 
0.527341 0.434075 0 
0.618361 0.281244 0 
0.607855 0.302901 0 
0.64163 0.292093 0 
0.631233 0.314162 0 
0.598426 0.327322 0 
0.587755 0.351183 0 
0.621205 0.336615 0 
0.611074 0.359771 0 
0.578942 0.374789 0 
0.569724 0.396975 0 
0.602582 0.383966 0 
0.592813 0.406978 0 
0.558727 0.419682 0 
0.550291 0.443411 0 
0.582126 0.429673 0 
0.57353 0.453158 0 
0.66388 0.302784 0 
0.653853 0.32549 0 
0.687053 0.312631 0 
0.677153 0.3356 0 
0.643881 0.347534 0 
0.634537 0.370372 0 
0.667299 0.358327 0 
0.657765 0.381324 0 
0.626037 0.394024 0 
0.615819 0.416892 0 
0.648556 0.404411 0 
0.638517 0.42729 0 
0.605417 0.439726 0 
0.595848 0.463113 0 
0.628202 0.450121 0 
0.61801 0.473318 0 
0.710901 0.322247 0 
0.700997 0.345241 0 
0.733981 0.330968 0 
0.724231 0.354688 0 
0.691101 0.368048 0 
0.681117 0.391004 0 
0.714139 0.378126 0 
0.703733 0.40134 0 
0.671113 0.414367 0 
0.661191 0.437903 0 
0.693424 0.425046 0 
0.684046 0.448158 0 
0.650599 0.461095 0 
0.640313 0.484452 0 
0.673219 0.470992 0 
0.663308 0.49423 0 
CELLS 64 128
1 0
1 1
1 2
1 3
1 4
1 5
1 6
1 7
1 8
1 9
1 10
1 11
1 12
1 13
1 14
1 15
1 16
1 17
1 18
1 19
1 20
1 21
1 22
1 23
1 24
1 25
1 26
1 27
1 28
1 29
1 30
1 31
1 32
1 33
1 34
1 35
1 36
1 37
1 38
1 39
1 40
1 41
1 42
1 43
1 44
1 45
1 46
1 47
1 48
1 49
1 50
1 51
1 52
1 53
1 54
1 55
1 56
1 57
1 58
1 59
1 60
1 61
1 62
1 63
CELL_TYPES 64
1
1
1
1
1
1
1
1
1
1
1
1
1
1
1
1
1
1
1
1
1
1
1
1
1
1
1
1
1
1
1
1
1
1
1
1
1
1
1
1
1
1
1
1
1
1
1
1
1
1
1
1
1
1
1
1
1
1
1
1
1
1
1
1
POINT_DATA 64
VECTORS displacement double
-0.0500439 -0.0491262 0 
-0.0554079 -0.0509342 0 
-0.0478079 -0.0429659 0 
-0.0549693 -0.0452062 0 
-0.0613833 -0.0525992 0 
-0.0723196 -0.0558035 0 
-0.0623014 -0.0442753 0 
-0.0729957 -0.045699 0 
-0.0826226 -0.0582755 0 
-0.089491 -0.0594663 0 
-0.0824571 -0.0479798 0 
-0.0905706 -0.0501289 0 
-0.0993019 -0.0612537 0 
-0.108224 -0.0630958 0 
-0.101434 -0.0519291 0 
-0.110159 -0.0534247 0 
-0.044139 -0.0312559 0 
-0.0546446 -0.0345991 0 
-0.0458699 -0.0204068 0 
-0.056267 -0.0233382 0 
-0.0640745 -0.035178 0 
-0.0747448 -0.0363169 0 
-0.0662954 -0.0258846 0 
-0.0764264 -0.027729 0 
-0.0835583 -0.0377112 0 
-0.0927759 -0.0405248 0 
-0.0849184 -0.0285339 0 
-0.0946871 -0.0305222 0 
-0.103773 -0.042818 0 
-0.112209 -0.0440891 0 
-0.105374 -0.0328268 0 
-0.11397 -0.034342 0 
-0.0486201 -0.00971608 0 
-0.0586474 -0.0120103 0 
-0.0504469 0.000131151 0 
-0.0603474 -0.00189988 0 
-0.0686186 -0.0149658 0 
-0.0779632 -0.0171281 0 
-0.0702011 -0.00417293 0 
-0.079735 -0.0061763 0 
-0.0864635 -0.0184759 0 
-0.0966814 -0.0206077 0 
-0.0889437 -0.0080889 0 
-0.0989832 -0.0102099 0 
-0.107083 -0.0227742 0 
-0.116652 -0.0243867 0 
-0.109298 -0.0123791 0 
-0.11949 -0.0141824 0 
-0.0515989 0.00974735 0 
-0.0615025 0.00774139 0 
-0.053519 0.0184677 0 
-0.0632689 0.017188 0 
-0.0713988 0.00554817 0 
-0.0813833 0.00350385 0 
-0.0733609 0.015626 0 
-0.0837666 0.0138401 0 
-0.0913867 0.00186719 0 
-0.101309 0.00040297 0 
-0.0940763 0.0125464 0 
-0.103454 0.0106578 0 
-0.111901 -0.00140524 0 
-0.122187 -0.00304813 0 
-0.114281 0.00849214 0 
-0.124192 0.00672951 0 
VECTORS velocity double
0.486906 -0.981881 0 
0.930631 -1.59486 0 
2.17127 -0.101544 0 
2.27037 -1.67771 0 
0.91873 -1.72541 0 
0.700969 -1.47102 0 
1.9842 -1.06101 0 
1.49834 -0.802341 0 
1.17641 -0.901418 0 
1.37172 -0.710835 0 
1.35383 -0.812531 0 
1.1596 -0.695759 0 
1.3245 -1.08943 0 
0.697316 -1.32805 0 
1.22267 -0.562439 0 
0.514375 -0.641845 0 
2.39587 0.798458 0 
1.12074 -0.795971 0 
1.87764 0.322922 0 
0.732252 -0.231217 0 
1.39916 -0.689593 0 
1.44324 -0.666549 0 
0.969434 -0.555353 0 
1.07121 -0.567977 0 
1.14838 -0.924667 0 
0.887998 -0.847266 0 
0.933713 -0.379277 0 
0.850461 -0.342455 0 
1.14268 -0.675848 0 
0.425578 -0.808218 0 
1.17297 -0.411433 0 
0.173751 -0.712607 0 
1.851 0.335683 0 
1.11598 0.301716 0 
1.97572 0.709099 0 
1.48382 0.706642 0 
1.13955 0.104243 0 
0.974445 -0.0311168 0 
1.37959 0.764383 0 
1.03355 0.498697 0 
0.84393 0.13898 0 
0.920765 0.0828872 0 
0.804051 0.279174 0 
0.910017 0.182288 0 
1.16247 -0.0972505 0 
-0.154259 -0.440235 0 
0.943712 0.0401663 0 
-0.359244 -0.221713 0 
1.8852 0.941025 0 
1.33829 0.663579 0 
1.71712 1.32947 0 
1.03376 1.07366 0 
1.19518 0.597596 0 
0.978988 0.512649 0 
0.804458 0.753282 0 
0.773677 0.737937 0 
0.727421 0.370666 0 
0.757438 0.339154 0 
0.535904 0.832891 0 
0.410341 0.912526 0 
0.674622 0.231765 0 
-0.433087 -0.0410022 0 
0.195351 1.07065 0 
-0.679672 0.897093 0 
SCALARS mass double 1
LOOKUP_TABLE default
0.625
0.625
0.625
0.625
0.625
0.625
0.625
0.625
0.625
0.625
0.625
0.625
0.625
0.625
0.625
0.625
0.625
0.625
0.625
0.625
0.625
0.625
0.625
0.625
0.625
0.625
0.625
0.625
0.625
0.625
0.625
0.625
0.625
0.625
0.625
0.625
0.625
0.625
0.625
0.625
0.625
0.625
0.625
0.625
0.625
0.625
0.625
0.625
0.625
0.625
0.625
0.625
0.625
0.625
0.625
0.625
0.625
0.625
0.625
0.625
0.625
0.625
0.625
0.625
SCALARS volume double 1
LOOKUP_TABLE default
0.000595245
0.000576174
0.000767789
0.000693844
0.000580235
0.000645008
0.000673796
0.000659461
0.000623344
0.000632867
0.000639934
0.000634877
0.000618471
0.00062405
0.000614348
0.000626076
0.000627518
0.000690539
0.000598075
0.000630428
0.000632157
0.000627883
0.000608549
0.00066304
0.000600464
0.000626424
0.000633288
0.000626993
0.000618507
0.000626605
0.000631104
0.000622145
0.00063101
0.000616565
0.00065141
0.000637869
0.000606051
0.000643846
0.000632946
0.000635383
0.000625838
0.000634611
0.000613697
0.000622636
0.000633225
0.00061353
0.000627662
0.000625643
0.000628476
0.000634073
0.000610214
0.000625833
0.000630153
0.000624494
0.000629156
0.000629179
0.000630881
0.000628891
0.00063139
0.000626314
0.000625277
0.000629222
0.000624461
0.000631578
VECTORS momentum double
0.304316 -0.613676 0 
0.581644 -0.996786 0 
1.35704 -0.063465 0 
1.41898 -1.04857 0 
0.574206 -1.07838 0 
0.438106 -0.919386 0 
1.24013 -0.663134 0 
0.93646 -0.501463 0 
0.735255 -0.563386 0 
0.857325 -0.444272 0 
0.846144 -0.507832 0 
0.724748 -0.434849 0 
0.827814 -0.680892 0 
0.435823 -0.830033 0 
0.76417 -0.351524 0 
0.321484 -0.401153 0 
1.49742 0.499036 0 
0.700466 -0.497482 0 
1.17352 0.201826 0 
0.457657 -0.14451 0 
0.874472 -0.430996 0 
0.902025 -0.416593 0 
0.605896 -0.347096 0 
0.669507 -0.354986 0 
0.717736 -0.577917 0 
0.554999 -0.529542 0 
0.583571 -0.237048 0 
0.531538 -0.214034 0 
0.714176 -0.422405 0 
0.265986 -0.505136 0 
0.733108 -0.257146 0 
0.108594 -0.44538 0 
1.15688 0.209802 0 
0.697486 0.188573 0 
1.23482 0.443187 0 
0.927385 0.441651 0 
0.712219 0.0651518 0 
0.609028 -0.019448 0 
0.862246 0.477739 0 
0.645968 0.311686 0 
0.527456 0.0868623 0 
0.575478 0.0518045 0 
0.502532 0.174484 0 
0.56876 0.11393 0 
0.726543 -0.0607816 0 
-0.0964117 -0.275147 0 
0.58982 0.0251039 0 
-0.224528 -0.138571 0 
1.17825 0.588141 0 
0.83643 0.414737 0 
1.0732 0.830916 0 
0.646103 0.671036 0 
0.746989 0.373497 0 
0.611867 0.320406 0 
0.502786 0.470801 0 
0.483548 0.46121 0 
0.454638 0.231666 0 
0.473399 0.211971 0 
0.33494 0.520557 0 
0.256463 0.570329 0 
0.421639 0.144853 0 
-0.270679 -0.0256264 0 
0.122094 0.669155 0 
-0.424795 0.560683 0 
VECTORS body_force double
0 -9.81 0 
0 -9.81 0 
0 -9.81 0 
0 -9.81 0 
0 -9.81 0 
0 -9.81 0 
0 -9.81 0 
0 -9.81 0 
0 -9.81 0 
0 -9.81 0 
0 -9.81 0 
0 -9.81 0 
0 -9.81 0 
0 -9.81 0 
0 -9.81 0 
0 -9.81 0 
0 -9.81 0 
0 -9.81 0 
0 -9.81 0 
0 -9.81 0 
0 -9.81 0 
0 -9.81 0 
0 -9.81 0 
0 -9.81 0 
0 -9.81 0 
0 -9.81 0 
0 -9.81 0 
0 -9.81 0 
0 -9.81 0 
0 -9.81 0 
0 -9.81 0 
0 -9.81 0 
0 -9.81 0 
0 -9.81 0 
0 -9.81 0 
0 -9.81 0 
0 -9.81 0 
0 -9.81 0 
0 -9.81 0 
0 -9.81 0 
0 -9.81 0 
0 -9.81 0 
0 -9.81 0 
0 -9.81 0 
0 -9.81 0 
0 -9.81 0 
0 -9.81 0 
0 -9.81 0 
0 -9.81 0 
0 -9.81 0 
0 -9.81 0 
0 -9.81 0 
0 -9.81 0 
0 -9.81 0 
0 -9.81 0 
0 -9.81 0 
0 -9.81 0 
0 -9.81 0 
0 -9.81 0 
0 -9.81 0 
0 -9.81 0 
0 -9.81 0 
0 -9.81 0 
0 -9.81 0 
TENSORS cauchy_stress double
-4773.84 -2581.36 0
-2581.36 -4606.81 0
0 0 0

-4871.62 -2737.3 0
-2737.3 -10770.9 0
0 0 0

29076.5 10652.1 0
10652.1 10493.3 0
0 0 0

10908.4 4122.65 0
4122.65 9186.8 0
0 0 0

-3737.65 -2339.37 0
-2339.37 -10554.5 0
0 0 0

5864.34 -2247.24 0
-2247.24 195.469 0
0 0 0

4010.32 2738.1 0
2738.1 10446.4 0
0 0 0

5475.7 2502.27 0
2502.27 4845.61 0
0 0 0

2878.05 3688.14 0
3688.14 -3388.21 0
0 0 0

1685.82 802.712 0
802.712 719.654 0
0 0 0

4251.9 5054.96 0
5054.96 289.064 0
0 0 0

1901.15 -252.943 0
-252.943 1114.3 0
0 0 0

288.509 -2166.85 0
-2166.85 -2308.02 0
0 0 0

475.479 -194.397 0
-194.397 -768.099 0
0 0 0

-2998.59 -19.2703 0
-19.2703 -307.355 0
0 0 0

-1426.17 999.531 0
999.531 1756.89 0
0 0 0

5554.96 3236.19 0
3236.19 -4781.65 0
0 0 0

9162.37 1808.01 0
1808.01 10014.6 0
0 0 0

-3485.6 1605.62 0
1605.62 -4982.7 0
0 0 0

619.977 2137.27 0
2137.27 1042.89 0
0 0 0

-253.09 -2227.79 0
-2227.79 2442.65 0
0 0 0

-682.199 -2890.05 0
-2890.05 1567.17 0
0 0 0

-1273.87 657.825 0
657.825 -3855.72 0
0 0 0

4086.66 1207.73 0
1207.73 7275.55 0
0 0 0

-3092.56 2173.14 0
2173.14 -4609.08 0
0 0 0

1711.8 -1308.68 0
-1308.68 -1274.27 0
0 0 0

298.103 2937.93 0
2937.93 2235.25 0
0 0 0

2009.56 -1840.23 0
-1840.23 -1397.26 0
0 0 0

-1411.57 -116.619 0
-116.619 -596.807 0
0 0 0

84.4622 -893.444 0
-893.444 408.724 0
0 0 0

34.1648 2317.77 0
2317.77 1834.89 0
0 0 0

-1205.67 86.054 0
86.054 325.186 0
0 0 0

-1142.7 660.469 0
660.469 2983.01 0
0 0 0

-1305.49 1834.08 0
1834.08 -1307.48 0
0 0 0

3760.3 1333.8 0
1333.8 4198.84 0
0 0 0

4306.92 -760.355 0
-760.355 -387.583 0
0 0 0

-2574.94 3355.24 0
3355.24 -3345.82 0
0 0 0

1080.1 3284.19 0
3284.19 4632.87 0
0 0 0

2711.51 1396.65 0
1396.65 -281.859 0
0 0 0

1730.03 1263.31 0
1263.31 1438.34 0
0 0 0

-1778.88 3485.91 0
3485.91 2036.52 0
0 0 0

2928.23 -769.07 0
-769.07 6.4756 0
0 0 0

-3006.12 1355.86 0
1355.86 -503.67 0
0 0 0

-767.542 324.932 0
324.932 38.6476 0
0 0 0

492.561 1962.33 0
1962.33 2021.82 0
0 0 0

-3023.37 -1938.61 0
-1938.61 -538.594 0
0 0 0

-497.108 578.428 0
578.428 1314.42 0
0 0 0

-1495.74 235.392 0
235.392 1693.36 0
0 0 0

-545.531 1705.89 0
1705.89 1612.26 0
0 0 0

2629.8 -138.158 0
-138.158 141.969 0
0 0 0

-2854.91 -1259.91 0
-1259.91 -1749.18 0
0 0 0

921.226 -2669.98 0
-2669.98 -665.06 0
0 0 0

354.496 1907.07 0
1907.07 1224.55 0
0 0 0

-398.849 251.132 0
251.132 243.241 0
0 0 0

659.613 -1380.68 0
-1380.68 615.066 0
0 0 0

140.532 -657.269 0
-657.269 1141.1 0
0 0 0

-833.22 -1350.57 0
-1350.57 2634.15 0
0 0 0

-639.38 -77.5373 0
-77.5373 1832.79 0
0 0 0

-961.591 703.206 0
703.206 2917.86 0
0 0 0

-520.058 1545.6 0
1545.6 923.8 0
0 0 0

-1008.55 -1450.95 0
-1450.95 1093.77 0
0 0 0

-2093.82 1513.75 0
1513.75 3388.44 0
0 0 0

1450.88 -2241.23 0
-2241.23 -1616.66 0
0 0 0

1665.65 -969.417 0
-969.417 347.661 0
0 0 0

TENSORS velocity_gradient double
11.6244 1.07208 0
18.7229 -7.38849 0
0 0 0

7.37269 2.14699 0
16.3396 -6.74007 0
0 0 0

10.4968 -4.2453 0
18.1211 -10.2263 0
0 0 0

5.93734 -2.85975 0
15.6878 -9.48685 0
0 0 0

7.21027 -0.141946 0
11.4322 8.46446 0
0 0 0

4.24332 2.5342 0
3.73574 11.0607 0
0 0 0

2.66679 -3.18929 0
12.0999 4.48105 0
0 0 0

0.30931 -2.12712 0
8.57586 6.06884 0
0 0 0

-0.682711 -2.77617 0
-0.0856372 3.64006 0
0 0 0

-0.452737 -3.68859 0
2.65892 1.82608 0
0 0 0

-1.06068 -3.47235 0
6.36184 5.23428 0
0 0 0

-0.6155 -3.34913 0
4.47664 4.69296 0
0 0 0

-0.261226 -6.77564 0
5.05168 0.132866 0
0 0 0

-0.22935 -7.74232 0
5.95422 -0.104746 0
0 0 0

-0.449003 -8.9129 0
5.34617 0.0236632 0
0 0 0

-1.1813 -8.64781 0
5.47616 -0.0233901 0
0 0 0

2.84015 -8.53513 0
12.5248 -6.91701 0
0 0 0

0.7474 -6.25215 0
17.1667 -1.82161 0
0 0 0

1.60973 -11.2518 0
15.4141 -0.537644 0
0 0 0

0.390016 -6.40856 0
17.4735 0.310455 0
0 0 0

1.34033 -5.37932 0
12.5352 1.24316 0
0 0 0

-0.39282 -4.77696 0
7.85552 4.60734 0
0 0 0

-0.0688382 -6.20803 0
17.2748 0.397289 0
0 0 0

-0.555255 -5.80525 0
16.0742 4.77451 0
0 0 0

-1.62793 -4.53533 0
7.74177 5.61191 0
0 0 0

-2.51503 -5.4807 0
7.98578 3.99454 0
0 0 0

-1.44546 -5.56302 0
11.3613 5.39377 0
0 0 0

-2.50519 -7.70819 0
8.14673 1.01009 0
0 0 0

-1.9884 -9.06425 0
8.42674 0.275345 0
0 0 0

-1.29415 -9.26798 0
7.12777 0.125661 0
0 0 0

-1.59874 -8.12742 0
8.63787 0.782938 0
0 0 0

-1.10137 -13.5111 0
9.08306 -0.321443 0
0 0 0

4.50992 -8.61596 0
10.7877 0.534728 0
0 0 0

2.44399 -7.0531 0
12.4413 0.0513143 0
0 0 0

4.26211 -9.03902 0
10.5933 -0.666202 0
0 0 0

2.81579 -8.43343 0
10.0728 -0.448257 0
0 0 0

-0.284863 -6.62456 0
17.0033 0.511791 0
0 0 0

-0.776501 -6.31589 0
14.9837 2.25768 0
0 0 0

1.48504 -7.4818 0
9.41457 -0.167161 0
0 0 0

0.329714 -7.01335 0
8.4758 0.213481 0
0 0 0

-1.28478 -6.15465 0
12.4648 3.0999 0
0 0 0

-1.13156 -7.13134 0
11.7081 1.09143 0
0 0 0

-1.1138 -6.66179 0
10.6199 0.933883 0
0 0 0

-0.96009 -6.74521 0
11.6452 0.949727 0
0 0 0

-0.798143 -7.32185 0
11.2442 1.13457 0
0 0 0

-1.33272 -15.8917 0
9.57285 -0.34091 0
0 0 0

-0.610976 -11.5147 0
11.6335 0.83143 0
0 0 0

-0.468157 -16.0802 0
12.3274 0.305388 0
0 0 0

0.159109 -9.74501 0
7.44727 -0.667065 0
0 0 0

1.49243 -9.63804 0
9.08098 -0.866553 0
0 0 0

0.348687 -9.23139 0
7.74785 0.147276 0
0 0 0

0.803327 -9.09281 0
7.99986 -2.77841 0
0 0 0

1.00912 -8.67565 0
9.02786 -1.13723 0
0 0 0

-0.145267 -8.18579 0
8.08985 -0.739196 0
0 0 0

0.997992 -9.07988 0
6.21768 -2.6142 0
0 0 0

1.02543 -7.95965 0
5.14232 -0.0493489 0
0 0 0

-0.951126 -7.02061 0
8.03496 1.36011 0
0 0 0

-1.50972 -6.78921 0
8.59848 1.12667 0
0 0 0

-1.19929 -7.55134 0
8.28531 1.89551 0
0 0 0

-1.65245 -9.66663 0
8.96695 2.53844 0
0 0 0

-1.04067 -15.8639 0
10.8482 1.63292 0
0 0 0

-0.419672 -15.9797 0
12.7102 1.09916 0
0 0 0

-1.2651 -15.3257 0
10.7724 3.55926 0
0 0 0

-0.647719 -15.5792 0
12.9135 2.67988 0
0 0 0

SCALARS active double 1
LOOKUP_TABLE default
1
1
1
1
1
1
1
1
1
1
1
1
1
1
1
1
1
1
1
1
1
1
1
1
1
1
1
1
1
1
1
1
1
1
1
1
1
1
1
1
1
1
1
1
1
1
1
1
1
1
1
1
1
1
1
1
1
1
1
1
1
1
1
1
SCALARS extent double 1
LOOKUP_TABLE default
0.0125
0.0125
0.0125
0.0125
0.0125
0.0125
0.0125
0.0125
0.0125
0.0125
0.0125
0.0125
0.0125
0.0125
0.0125
0.0125
0.0125
0.0125
0.0125
0.0125
0.0125
0.0125
0.0125
0.0125
0.0125
0.0125
0.0125
0.0125
0.0125
0.0125
0.0125
0.0125
0.0125
0.0125
0.0125
0.0125
0.0125
0.0125
0.0125
0.0125
0.0125
0.0125
0.0125
0.0125
0.0125
0.0125
0.0125
0.0125
0.0125
0.0125
0.0125
0.0125
0.0125
0.0125
0.0125
0.0125
0.0125
0.0125
0.0125
0.0125
0.0125
0.0125
0.0125
0.0125
SCALARS pressure double 1
LOOKUP_TABLE default
4690.33
7821.27
-19784.9
-10047.6
7146.06
-3029.9
-7228.37
-5160.66
255.079
-1202.74
-2270.48
-1507.72
1009.76
146.31
1652.97
-165.357
-386.655
-9588.48
4234.15
-831.435
-1094.78
-442.484
2564.8
-5681.1
3850.82
-218.764
-1266.68
-306.152
1004.19
-246.593
-934.527
440.243
-920.152
1306.49
-3979.57
-1959.67
2960.38
-2856.49
-1214.82
-1584.19
-128.819
-1467.35
1754.89
364.447
-1257.19
1780.98
-408.657
-98.8085
-533.362
-1385.88
2302.05
-128.083
-789.524
77.804
-637.34
-640.815
-900.464
-596.707
-978.136
-201.871
-42.6114
-647.311
82.8889
-1006.65
SCALARS density double 1
LOOKUP_TABLE default
1049.99
1084.74
814.026
900.779
1077.15
968.98
927.581
947.744
1002.66
987.569
976.664
984.442
1010.56
1001.52
1017.34
998.282
995.987
905.091
1045.02
991.39
988.679
995.409
1027.03
942.628
1040.86
997.727
986.913
996.821
1010.5
997.439
990.328
1004.59
990.476
1013.68
959.457
979.826
1031.27
970.729
987.445
983.659
998.661
984.855
1018.42
1003.8
987.01
1018.69
995.759
998.973
994.468
985.69
1024.23
998.669
991.823
1000.81
993.394
993.358
990.679
993.813
989.879
997.903
999.557
993.291
1000.86
989.585
