# vtk DataFile Version 3.0
Frame: 38, Time: 0.646
ASCII
DATASET UNSTRUCTURED_GRID
POINTS 64 double
0.69176 0.141323 0 
0.669683 0.126897 0 
0.675737 0.163278 0 
0.654376 0.149477 0 
0.645705 0.114893 0 
0.626348 0.0990898 0 
0.632018 0.13726 0 
0.611267 0.12247 0 
0.603824 0.0851304 0 
0.580655 0.0706373 0 
0.588972 0.107508 0 
0.567351 0.0932407 0 
0.559003 0.0578134 0 
0.53381 0.0455516 0 
0.545996 0.0801692 0 
0.52343 0.0673068 0 
0.659419 0.184272 0 
0.637942 0.169101 0 
0.64818 0.205654 0 
0.626518 0.191581 0 
0.617848 0.156156 0 
0.59669 0.142352 0 
0.605832 0.177087 0 
0.583771 0.162758 0 
0.573996 0.128567 0 
0.554799 0.114092 0 
0.562159 0.15088 0 
0.541989 0.136541 0 
0.53376 0.100935 0 
0.510847 0.088636 0 
0.520756 0.122434 0 
0.498636 0.110734 0 
0.634284 0.227855 0 
0.613046 0.21366 0 
0.623263 0.25132 0 
0.600281 0.236564 0 
0.593069 0.200494 0 
0.571361 0.186185 0 
0.579602 0.221772 0 
0.557605 0.208073 0 
0.549222 0.172793 0 
0.528456 0.158872 0 
0.537074 0.193714 0 
0.515681 0.179875 0 
0.507044 0.144588 0 
0.484918 0.132875 0 
0.493973 0.166928 0 
0.472127 0.155073 0 
0.610506 0.272339 0 
0.587351 0.257414 0 
0.594321 0.294689 0 
0.572945 0.279085 0 
0.566398 0.243942 0 
0.544916 0.230908 0 
0.552398 0.265676 0 
0.531141 0.251569 0 
0.524466 0.216708 0 
0.503493 0.202098 0 
0.510294 0.237919 0 
0.490232 0.22498 0 
0.481486 0.189878 0 
0.458939 0.176556 0 
0.468253 0.211976 0 
0.445966 0.198785 0 
CELLS 64 128
1 0
1 1
1 2
1 3
1 4
1 5
1 6
1 7
1 8
1 9
1 10
1 11
1 12
1 13
1 14
1 15
1 16
1 17
1 18
1 19
1 20
1 21
1 22
1 23
1 24
1 25
1 26
1 27
1 28
1 29
1 30
1 31
1 32
1 33
1 34
1 35
1 36
1 37
1 38
1 39
1 40
1 41
1 42
1 43
1 44
1 45
1 46
1 47
1 48
1 49
1 50
1 51
1 52
1 53
1 54
1 55
1 56
1 57
1 58
1 59
1 60
1 61
1 62
1 63
CELL_TYPES 64
1
1
1
1
1
1
1
1
1
1
1
1
1
1
1
1
1
1
1
1
1
1
1
1
1
1
1
1
1
1
1
1
1
1
1
1
1
1
1
1
1
1
1
1
1
1
1
1
1
1
1
1
1
1
1
1
1
1
1
1
1
1
1
1
POINT_DATA 64
VECTORS displacement double
0.0792603 -0.171177 0 
0.0571827 -0.210603 0 
0.0382372 -0.149222 0 
0.0168759 -0.188023 0 
0.0332051 -0.247607 0 
0.0138481 -0.28841 0 
-0.00548189 -0.22524 0 
-0.0262328 -0.26503 0 
-0.00867572 -0.32737 0 
-0.031845 -0.366863 0 
-0.0485276 -0.304992 0 
-0.0701489 -0.344259 0 
-0.053497 -0.404687 0 
-0.0786898 -0.441948 0 
-0.0915044 -0.382331 0 
-0.11407 -0.420193 0 
-0.00308108 -0.128228 0 
-0.0245584 -0.168399 0 
-0.0393197 -0.106846 0 
-0.0609824 -0.145919 0 
-0.0446523 -0.206344 0 
-0.0658103 -0.245148 0 
-0.0816677 -0.185413 0 
-0.103729 -0.224742 0 
-0.0885042 -0.283933 0 
-0.107701 -0.323408 0 
-0.125341 -0.26162 0 
-0.145511 -0.300959 0 
-0.12874 -0.361565 0 
-0.151653 -0.398864 0 
-0.166744 -0.340066 0 
-0.188864 -0.376766 0 
-0.0782163 -0.084645 0 
-0.0994545 -0.12384 0 
-0.114237 -0.0611803 0 
-0.137219 -0.100936 0 
-0.119431 -0.162006 0 
-0.141139 -0.201315 0 
-0.157898 -0.140728 0 
-0.179895 -0.179427 0 
-0.163278 -0.239707 0 
-0.184044 -0.278628 0 
-0.200426 -0.218786 0 
-0.221819 -0.257625 0 
-0.205456 -0.317912 0 
-0.227582 -0.354625 0 
-0.243527 -0.295572 0 
-0.265373 -0.332427 0 
-0.151994 -0.0401614 0 
-0.175149 -0.0800861 0 
-0.193179 -0.0178114 0 
-0.214555 -0.0584146 0 
-0.196102 -0.118558 0 
-0.217584 -0.156592 0 
-0.235102 -0.0968237 0 
-0.256359 -0.135931 0 
-0.238034 -0.195792 0 
-0.259007 -0.235402 0 
-0.277206 -0.174581 0 
-0.297268 -0.21252 0 
-0.281014 -0.272622 0 
-0.303561 -0.310944 0 
-0.319247 -0.250524 0 
-0.341534 -0.288715 0 
VECTORS velocity double
-0.586596 1.69369 0 
0.216436 1.01494 0 
-0.625809 2.17355 0 
-0.35233 0.923346 0 
-0.0715135 0.788747 0 
0.54291 1.02936 0 
-0.577722 0.510525 0 
-0.544479 0.420115 0 
0.32815 0.243693 0 
-0.0193892 0.421264 0 
-0.291469 -0.074413 0 
-0.46308 -0.111461 0 
0.190886 0.282981 0 
0.152139 -0.0713596 0 
-0.27456 0.256123 0 
-0.33241 -0.0622163 0 
-1.3389 0.697076 0 
-0.770856 0.138012 0 
-1.29685 1.92511 0 
-0.946837 0.235449 0 
-0.250799 0.478011 0 
-0.237017 0.452487 0 
-0.471201 -0.0206926 0 
-0.466825 0.129901 0 
-0.486318 0.196457 0 
-0.266645 0.0609859 0 
-0.598071 0.240105 0 
-0.412395 0.0142822 0 
0.138005 0.0929296 0 
-0.0571926 -0.281927 0 
-0.0356857 0.00154245 0 
-0.448491 -0.70541 0 
-1.19236 1.18664 0 
-0.929202 0.752414 0 
-1.82549 0.549282 0 
-1.72011 0.287703 0 
-1.11543 0.293779 0 
-0.755087 -0.00578459 0 
-2.11721 0.781658 0 
-1.75022 0.336584 0 
-0.529724 -0.0895672 0 
-0.452644 -0.555268 0 
-1.04095 -0.526962 0 
-0.999776 -0.922594 0 
-0.54148 -0.313034 0 
-0.500508 -1.30613 0 
-1.27505 -0.352551 0 
-0.773901 -1.22608 0 
-2.13267 0.218178 0 
-1.86111 -0.110714 0 
-2.663 0.602897 0 
-2.40847 -0.614644 0 
-1.29168 0.286845 0 
-1.15889 -0.106736 0 
-2.64228 -0.479733 0 
-2.56733 -0.834384 0 
-1.30631 -1.02974 0 
-1.12961 -0.911492 0 
-2.03028 -0.723641 0 
-1.88998 -1.0768 0 
-0.747274 -0.352879 0 
-0.533607 -1.44576 0 
-1.88002 -1.2902 0 
-1.82216 -1.84428 0 
SCALARS mass double 1
LOOKUP_TABLE default
0.625
0.625
0.625
0.625
0.625
0.625
0.625
0.625
0.625
0.625
0.625
0.625
0.625
0.625
0.625
0.625
0.625
0.625
0.625
0.625
0.625
0.625
0.625
0.625
0.625
0.625
0.625
0.625
0.625
0.625
0.625
0.625
0.625
0.625
0.625
0.625
0.625
0.625
0.625
0.625
0.625
0.625
0.625
0.625
0.625
0.625
0.625
0.625
0.625
0.625
0.625
0.625
0.625
0.625
0.625
0.625
0.625
0.625
0.625
0.625
0.625
0.625
0.625
0.625
SCALARS volume double 1
LOOKUP_TABLE default
0.000641755
0.000633914
0.000610169
0.00064568
0.000632161
0.000625393
0.000580771
0.000658713
0.000652268
0.000604057
0.000676772
0.000619789
0.000659733
0.000588915
0.000625884
0.00063723
0.000619341
0.000633046
0.00062302
0.000639951
0.000514301
0.000601167
0.000636201
0.000639588
0.000601915
0.000609762
0.000620512
0.000634134
0.000597478
0.000611663
0.000625808
0.000642857
0.000577609
0.000604955
0.000624463
0.000644446
0.000650128
0.000645018
0.000605361
0.000607015
0.000631617
0.000626486
0.000615115
0.000607321
0.000622314
0.00061165
0.000630277
0.000621875
0.000634535
0.000622913
0.000634973
0.00061733
0.000652023
0.000633182
0.00062108
0.000621459
0.000620073
0.000626088
0.000629511
0.000600964
0.000622456
0.000633581
0.000625637
0.000639259
VECTORS momentum double
-0.366622 1.05855 0 
0.135273 0.634335 0 
-0.391131 1.35847 0 
-0.220206 0.577092 0 
-0.0446959 0.492967 0 
0.339319 0.643349 0 
-0.361076 0.319078 0 
-0.3403 0.262572 0 
0.205094 0.152308 0 
-0.0121182 0.26329 0 
-0.182168 -0.0465081 0 
-0.289425 -0.0696632 0 
0.119304 0.176863 0 
0.0950868 -0.0445998 0 
-0.1716 0.160077 0 
-0.207756 -0.0388852 0 
-0.836811 0.435673 0 
-0.481785 0.0862575 0 
-0.810534 1.2032 0 
-0.591773 0.147156 0 
-0.156749 0.298757 0 
-0.148136 0.282804 0 
-0.294501 -0.0129329 0 
-0.291766 0.0811883 0 
-0.303949 0.122786 0 
-0.166653 0.0381162 0 
-0.373794 0.150065 0 
-0.257747 0.00892635 0 
0.0862534 0.058081 0 
-0.0357454 -0.176204 0 
-0.0223036 0.000964033 0 
-0.280307 -0.440881 0 
-0.745227 0.741649 0 
-0.580751 0.470259 0 
-1.14093 0.343301 0 
-1.07507 0.179814 0 
-0.697142 0.183612 0 
-0.47193 -0.00361537 0 
-1.32325 0.488536 0 
-1.09389 0.210365 0 
-0.331078 -0.0559795 0 
-0.282903 -0.347043 0 
-0.650594 -0.329352 0 
-0.62486 -0.576621 0 
-0.338425 -0.195646 0 
-0.312817 -0.816329 0 
-0.796904 -0.220344 0 
-0.483688 -0.766298 0 
-1.33292 0.136361 0 
-1.1632 -0.0691964 0 
-1.66437 0.376811 0 
-1.50529 -0.384153 0 
-0.807303 0.179278 0 
-0.724305 -0.0667099 0 
-1.65143 -0.299833 0 
-1.60458 -0.52149 0 
-0.816445 -0.643585 0 
-0.706004 -0.569683 0 
-1.26892 -0.452275 0 
-1.18124 -0.672999 0 
-0.467046 -0.220549 0 
-0.333505 -0.903597 0 
-1.17501 -0.806376 0 
-1.13885 -1.15267 0 
VECTORS body_force double
0 -9.81 0 
0 -9.81 0 
0 -9.81 0 
0 -9.81 0 
0 -9.81 0 
0 -9.81 0 
0 -9.81 0 
0 -9.81 0 
0 -9.81 0 
0 -9.81 0 
0 -9.81 0 
0 -9.81 0 
0 -9.81 0 
0 -9.81 0 
0 -9.81 0 
0 -9.81 0 
0 -9.81 0 
0 -9.81 0 
0 -9.81 0 
0 -9.81 0 
0 -9.81 0 
0 -9.81 0 
0 -9.81 0 
0 -9.81 0 
0 -9.81 0 
0 -9.81 0 
0 -9.81 0 
0 -9.81 0 
0 -9.81 0 
0 -9.81 0 
0 -9.81 0 
0 -9.81 0 
0 -9.81 0 
0 -9.81 0 
0 -9.81 0 
0 -9.81 0 
0 -9.81 0 
0 -9.81 0 
0 -9.81 0 
0 -9.81 0 
0 -9.81 0 
0 -9.81 0 
0 -9.81 0 
0 -9.81 0 
0 -9.81 0 
0 -9.81 0 
0 -9.81 0 
0 -9.81 0 
0 -9.81 0 
0 -9.81 0 
0 -9.81 0 
0 -9.81 0 
0 -9.81 0 
0 -9.81 0 
0 -9.81 0 
0 -9.81 0 
0 -9.81 0 
0 -9.81 0 
0 -9.81 0 
0 -9.81 0 
0 -9.81 0 
0 -9.81 0 
0 -9.81 0 
0 -9.81 0 
TENSORS cauchy_stress double
2405.03 5273.67 0
5273.67 2682.48 0
0 0 0

4765.31 2478.17 0
2478.17 -2041.99 0
0 0 0

-7049.27 425.921 0
425.921 2430.89 0
0 0 0

2397.78 -1198.48 0
-1198.48 3862.3 0
0 0 0

2882.71 2336.49 0
2336.49 -691.959 0
0 0 0

-2166.64 1023.75 0
1023.75 2287.4 0
0 0 0

-3951.67 -3640.73 0
-3640.73 -10162.7 0
0 0 0

4433.48 -572.579 0
-572.579 5669.62 0
0 0 0

6447.82 1801.13 0
1801.13 1764.54 0
0 0 0

-1040.71 -70.4188 0
-70.4188 -5513.74 0
0 0 0

8842.04 -2309.6 0
-2309.6 6462.47 0
0 0 0

-2966.46 304.442 0
304.442 1356.44 0
0 0 0

7202.76 966.148 0
966.148 3197.98 0
0 0 0

1319.31 7899.22 0
7899.22 -12755.9 0
0 0 0

1816.15 -2261.2 0
-2261.2 -1544.34 0
0 0 0

4994.55 -3892.72 0
-3892.72 -1267.95 0
0 0 0

6334.75 -161.689 0
-161.689 -8083.84 0
0 0 0

8565.27 3106.45 0
3106.45 -6105.47 0
0 0 0

-1954.65 -2212.32 0
-2212.32 1344.34 0
0 0 0

-2169.28 -578.2 0
-578.2 6715.47 0
0 0 0

-15221.6 -3415.84 0
-3415.84 -22267.4 0
0 0 0

-1300.68 3233.75 0
3233.75 -6175.98 0
0 0 0

-985.932 1261.09 0
1261.09 4401.8 0
0 0 0

-902.339 51.0715 0
51.0715 5339.49 0
0 0 0

-3217.43 -1490.32 0
-1490.32 -4020.09 0
0 0 0

-6032.12 680.491 0
680.491 1285.32 0
0 0 0

-6466.22 1440.33 0
1440.33 5080.37 0
0 0 0

-874.206 -297.245 0
-297.245 3664.33 0
0 0 0

-3209.32 -830.334 0
-830.334 -5450.95 0
0 0 0

-534.17 -1088.72 0
-1088.72 -3613.98 0
0 0 0

-1758.41 762.756 0
762.756 2006.77 0
0 0 0

2951.81 -527.956 0
-527.956 2465.75 0
0 0 0

-5741.75 151.433 0
151.433 -9422.44 0
0 0 0

-5923.27 -1501.2 0
-1501.2 -345.614 0
0 0 0

306.743 2297.02 0
2297.02 -471.973 0
0 0 0

212.99 2003.68 0
2003.68 5679.22 0
0 0 0

970.134 -2516.86 0
-2516.86 6610.2 0
0 0 0

3367.67 -2389.1 0
-2389.1 2695.04 0
0 0 0

-3778.32 -29.2018 0
-29.2018 -2361.53 0
0 0 0

-6192.88 1038.36 0
1038.36 577.967 0
0 0 0

-2049.76 306.71 0
306.71 4075.07 0
0 0 0

3031.2 -2701.22 0
-2701.22 -2574.48 0
0 0 0

-5583.79 690.637 0
690.637 2517.97 0
0 0 0

-5454.18 2546.54 0
2546.54 -63.959 0
0 0 0

558.601 -1597.53 0
-1597.53 -1386.95 0
0 0 0

-567.152 508.888 0
508.888 -3585.14 0
0 0 0

-806.455 -1650.68 0
-1650.68 2423.36 0
0 0 0

-1662.1 -2412.43 0
-2412.43 698.301 0
0 0 0

2494.19 -2468.34 0
-2468.34 417.523 0
0 0 0

-1498.1 1924.52 0
1924.52 854.753 0
0 0 0

1986.42 -2886.3 0
-2886.3 1057.96 0
0 0 0

-3521.27 -367.374 0
-367.374 1146.62 0
0 0 0

4066.28 -5309.56 0
-5309.56 4073.79 0
0 0 0

-370.255 312.027 0
312.027 2871.38 0
0 0 0

500.979 -1200.78 0
-1200.78 -1710.85 0
0 0 0

-1366.83 -72.7647 0
-72.7647 274.261 0
0 0 0

665.805 201.196 0
201.196 -2187.69 0
0 0 0

1737.17 -1946.01 0
-1946.01 -1402.76 0
0 0 0

-2861.46 -2132.32 0
-2132.32 4244.52 0
0 0 0

-5849.39 -1745.39 0
-1745.39 -1692.42 0
0 0 0

1020.33 -2193.11 0
-2193.11 -1804.74 0
0 0 0

3440.9 1042.17 0
1042.17 -818.429 0
0 0 0

-491.676 1844.29 0
1844.29 687.59 0
0 0 0

2499.04 -1305.24 0
-1305.24 1838.95 0
0 0 0

TENSORS velocity_gradient double
-2.65014 -10.7851 0
14.3097 5.04585 0
0 0 0

-2.27163 -10.1858 0
12.7185 2.5264 0
0 0 0

-2.75044 -11.8734 0
14.3914 1.47421 0
0 0 0

-2.45455 -10.6933 0
14.3551 1.81364 0
0 0 0

1.34044 -9.36581 0
10.3017 0.275513 0
0 0 0

2.65558 -5.44268 0
9.82983 -0.0818711 0
0 0 0

0.650615 -8.5954 0
10.5713 -0.110264 0
0 0 0

1.52106 -7.35073 0
10.2563 -0.560782 0
0 0 0

2.52954 -3.91732 0
8.75672 -0.0125159 0
0 0 0

2.15067 -3.64531 0
4.20235 -0.329167 0
0 0 0

1.58202 -6.60603 0
4.90539 -1.09151 0
0 0 0

1.74462 -3.40893 0
4.59651 -0.558632 0
0 0 0

2.37887 -3.25762 0
3.98082 -0.705521 0
0 0 0

1.18215 -1.35707 0
3.55655 0.62059 0
0 0 0

1.21465 -3.06682 0
6.64085 -1.39625 0
0 0 0

1.16222 -2.83355 0
5.77728 -3.7586 0
0 0 0

-2.44938 -12.1025 0
12.528 2.89229 0
0 0 0

0.150855 -12.4341 0
11.3426 3.4997 0
0 0 0

0.660832 -8.70649 0
12.2186 -1.7204 0
0 0 0

0.517274 -12.6152 0
11.935 3.20685 0
0 0 0

-0.0331435 -12.5297 0
11.0105 2.80935 0
0 0 0

1.11096 -6.73893 0
7.11141 -0.89251 0
0 0 0

0.286257 -12.9544 0
11.5615 2.65843 0
0 0 0

1.39704 -13.1149 0
7.53918 0.594341 0
0 0 0

1.46937 -6.52717 0
5.45537 -1.47652 0
0 0 0

1.5419 -6.45575 0
5.55793 -1.99431 0
0 0 0

1.38088 -10.2756 0
6.37498 -1.92515 0
0 0 0

2.57298 -6.75607 0
11.3711 -2.52623 0
0 0 0

1.03653 -5.38807 0
9.26477 -2.83477 0
0 0 0

0.948998 -2.70955 0
8.13238 -5.12824 0
0 0 0

1.91402 -7.76398 0
10.6037 -3.70006 0
0 0 0

1.62347 -8.6282 0
13.0131 -4.43104 0
0 0 0

3.89154 -10.539 0
11.6983 -2.93543 0
0 0 0

2.22752 -13.0787 0
11.9441 -2.56028 0
0 0 0

5.94752 -12.8639 0
10.949 -3.60286 0
0 0 0

3.84742 -14.3088 0
11.5926 -2.3577 0
0 0 0

1.51387 -13.9593 0
11.6845 -0.303016 0
0 0 0

1.47675 -13.1558 0
10.3907 -0.869428 0
0 0 0

1.64976 -14.8911 0
11.8472 -2.11102 0
0 0 0

1.57142 -15.0201 0
11.9877 -1.87971 0
0 0 0

1.93155 -13.1164 0
10.4086 -3.18299 0
0 0 0

2.8978 -12.5311 0
12.0827 -3.51368 0
0 0 0

1.72687 -12.8765 0
11.984 -3.49679 0
0 0 0

2.18503 -12.112 0
12.0228 -3.47847 0
0 0 0

2.91962 -8.77277 0
11.7994 -4.33673 0
0 0 0

1.72233 -8.71132 0
13.4008 -3.70381 0
0 0 0

1.98573 -11.6559 0
11.7414 -3.31048 0
0 0 0

1.75356 -11.9036 0
11.9666 -2.84648 0
0 0 0

4.46929 -12.4737 0
8.82019 -2.87335 0
0 0 0

1.93321 -11.4242 0
11.7616 -1.7721 0
0 0 0

2.41831 -10.5473 0
11.3044 -1.30989 0
0 0 0

2.28987 -11.6544 0
12.3947 -2.18066 0
0 0 0

1.78132 -14.8976 0
11.619 -1.98557 0
0 0 0

0.661377 -14.8822 0
11.7819 -1.77434 0
0 0 0

1.85437 -12.0229 0
11.7777 -2.67879 0
0 0 0

-0.04657 -13.4521 0
11.3443 -1.54424 0
0 0 0

0.882459 -14.1704 0
11.8706 -1.65138 0
0 0 0

1.5413 -12.9681 0
11.8343 -2.04556 0
0 0 0

0.0811931 -13.6514 0
11.75 -1.57329 0
0 0 0

3.02505 -13.3952 0
10.688 -1.40238 0
0 0 0

2.26996 -11.8107 0
11.2123 -3.05862 0
0 0 0

2.07482 -12.1481 0
11.4941 -2.57134 0
0 0 0

2.71982 -13.9228 0
10.8495 -1.1232 0
0 0 0

1.89837 -11.7549 0
12.9115 -2.07769 0
0 0 0

SCALARS active double 1
LOOKUP_TABLE default
1
1
1
1
1
1
1
1
1
1
1
1
1
1
1
1
1
1
1
1
1
1
1
1
1
1
1
1
1
1
1
1
1
1
1
1
1
1
1
1
1
1
1
1
1
1
1
1
1
1
1
1
1
1
1
1
1
1
1
1
1
1
1
1
SCALARS extent double 1
LOOKUP_TABLE default
0.0125
0.0125
0.0125
0.0125
0.0125
0.0125
0.0125
0.0125
0.0125
0.0125
0.0125
0.0125
0.0125
0.0125
0.0125
0.0125
0.0125
0.0125
0.0125
0.0125
0.0125
0.0125
0.0125
0.0125
0.0125
0.0125
0.0125
0.0125
0.0125
0.0125
0.0125
0.0125
0.0125
0.0125
0.0125
0.0125
0.0125
0.0125
0.0125
0.0125
0.0125
0.0125
0.0125
0.0125
0.0125
0.0125
0.0125
0.0125
0.0125
0.0125
0.0125
0.0125
0.0125
0.0125
0.0125
0.0125
0.0125
0.0125
0.0125
0.0125
0.0125
0.0125
0.0125
0.0125
SCALARS pressure double 1
LOOKUP_TABLE default
-2543.75
-1361.66
2309.19
-3130.04
-1095.38
-60.383
7057.19
-5051.55
-4106.18
3277.22
-7652.26
805.009
-5200.37
5718.31
-135.904
-1863.3
874.546
-1229.9
305.157
-2273.09
18744.5
3738.33
-1707.94
-2218.57
3618.76
2373.4
692.924
-1395.06
4330.14
2074.07
-124.181
-2708.78
7582.1
3134.44
82.6149
-2946.11
-3790.16
-3031.36
3069.92
2807.45
-1012.66
-228.361
1532.91
2759.07
414.172
2076.15
-808.453
481.901
-1455.86
321.676
-1522.19
1187.33
-4070.04
-1250.56
604.935
546.284
760.944
-167.203
-691.528
3770.9
392.205
-1311.24
-97.9569
-2168.99
SCALARS density double 1
LOOKUP_TABLE default
973.892
985.939
1024.31
967.972
988.673
999.372
1076.16
948.82
958.195
1034.67
923.501
1008.41
947.353
1061.27
998.588
980.808
1009.14
987.291
1003.18
976.637
1215.24
1039.64
982.394
977.191
1038.35
1024.99
1007.23
985.596
1046.06
1021.8
998.709
972.222
1082.05
1033.14
1000.86
969.825
961.349
968.966
1032.44
1029.63
989.524
997.628
1016.07
1029.11
1004.32
1021.83
991.627
1005.02
984.973
1003.35
984.294
1012.42
958.555
987.078
1006.31
1005.7
1007.95
998.263
992.834
1040
1004.09
986.456
998.982
977.695
