# vtk DataFile Version 3.0
Frame: 12, Time: 0.204
ASCII
DATASET UNSTRUCTURED_GRID
POINTS 64 double
0.776758 0.201379 0 
0.752475 0.207755 0 
0.783658 0.225549 0 
0.760387 0.231894 0 
0.727719 0.217226 0 
0.704855 0.224356 0 
0.735961 0.241857 0 
0.711997 0.248693 0 
0.680116 0.231675 0 
0.655957 0.24046 0 
0.687798 0.255759 0 
0.664384 0.264722 0 
0.632127 0.247325 0 
0.60845 0.256333 0 
0.639994 0.271652 0 
0.616459 0.280206 0 
0.792293 0.249105 0 
0.768449 0.255647 0 
0.801345 0.271264 0 
0.777668 0.279161 0 
0.745191 0.264949 0 
0.720307 0.271998 0 
0.753492 0.288307 0 
0.729004 0.295743 0 
0.695389 0.279788 0 
0.672846 0.288374 0 
0.705814 0.303759 0 
0.68185 0.312448 0 
0.64882 0.295285 0 
0.625551 0.304364 0 
0.657698 0.31986 0 
0.634626 0.328564 0 
0.809243 0.295234 0 
0.784933 0.30331 0 
0.81779 0.31849 0 
0.794091 0.326751 0 
0.76142 0.312228 0 
0.738034 0.319819 0 
0.770897 0.335735 0 
0.747264 0.343814 0 
0.714521 0.327563 0 
0.691013 0.335557 0 
0.723414 0.350996 0 
0.699785 0.35902 0 
0.667222 0.343751 0 
0.643391 0.352723 0 
0.676309 0.367188 0 
0.652923 0.375975 0 
0.827486 0.341833 0 
0.803684 0.350182 0 
0.836485 0.365204 0 
0.812509 0.373983 0 
0.78011 0.359037 0 
0.756504 0.367765 0 
0.788533 0.382717 0 
0.764422 0.391388 0 
0.732646 0.375188 0 
0.708734 0.383056 0 
0.740501 0.399074 0 
0.717538 0.406951 0 
0.684892 0.391046 0 
0.661578 0.399964 0 
0.69376 0.414768 0 
0.670587 0.423817 0 
CELLS 64 128
1 0
1 1
1 2
1 3
1 4
1 5
1 6
1 7
1 8
1 9
1 10
1 11
1 12
1 13
1 14
1 15
1 16
1 17
1 18
1 19
1 20
1 21
1 22
1 23
1 24
1 25
1 26
1 27
1 28
1 29
1 30
1 31
1 32
1 33
1 34
1 35
1 36
1 37
1 38
1 39
1 40
1 41
1 42
1 43
1 44
1 45
1 46
1 47
1 48
1 49
1 50
1 51
1 52
1 53
1 54
1 55
1 56
1 57
1 58
1 59
1 60
1 61
1 62
1 63
CELL_TYPES 64
1
1
1
1
1
1
1
1
1
1
1
1
1
1
1
1
1
1
1
1
1
1
1
1
1
1
1
1
1
1
1
1
1
1
1
1
1
1
1
1
1
1
1
1
1
1
1
1
1
1
1
1
1
1
1
1
1
1
1
1
1
1
1
1
POINT_DATA 64
VECTORS displacement double
0.164258 -0.111121 0 
0.139975 -0.129745 0 
0.146158 -0.0869511 0 
0.122887 -0.105606 0 
0.115219 -0.145274 0 
0.0923551 -0.163144 0 
0.0984607 -0.120643 0 
0.0744965 -0.138807 0 
0.0676161 -0.180825 0 
0.0434567 -0.19704 0 
0.0502977 -0.156741 0 
0.026884 -0.172778 0 
0.0196268 -0.215175 0 
-0.0040496 -0.231167 0 
0.00249394 -0.190848 0 
-0.0210413 -0.207294 0 
0.129793 -0.0633948 0 
0.105949 -0.081853 0 
0.113845 -0.0412357 0 
0.0901675 -0.0583388 0 
0.0826905 -0.0975511 0 
0.0578071 -0.115502 0 
0.0659917 -0.0741925 0 
0.0415038 -0.091757 0 
0.0328892 -0.132712 0 
0.0103459 -0.149126 0 
0.0183142 -0.108741 0 
-0.00565032 -0.125052 0 
-0.01368 -0.167215 0 
-0.0369487 -0.183136 0 
-0.0298016 -0.14264 0 
-0.052874 -0.158936 0 
0.096743 -0.0172657 0 
0.0724328 -0.0341905 0 
0.0802901 0.00599039 0 
0.0565909 -0.0107487 0 
0.0489197 -0.0502717 0 
0.0255336 -0.0676812 0 
0.0333972 -0.0267651 0 
0.00976374 -0.0436856 0 
0.00202091 -0.0849366 0 
-0.0214873 -0.101943 0 
-0.0140864 -0.0615043 0 
-0.0377149 -0.0784799 0 
-0.0452783 -0.118749 0 
-0.0691089 -0.134777 0 
-0.0611912 -0.0953118 0 
-0.0845766 -0.111525 0 
0.0649861 0.0293331 0 
0.0411844 0.0126817 0 
0.0489853 0.0527045 0 
0.025009 0.0364825 0 
0.0176105 -0.00346265 0 
-0.00599579 -0.0197353 0 
0.00103276 0.0202173 0 
-0.0230779 0.0038881 0 
-0.0298545 -0.037312 0 
-0.0537663 -0.0544443 0 
-0.0469995 -0.0134261 0 
-0.0699615 -0.0305494 0 
-0.0776076 -0.0714536 0 
-0.100922 -0.0875358 0 
-0.0937401 -0.0477317 0 
-0.116913 -0.0636834 0 
VECTORS velocity double
2.46015 -0.614625 0 
2.11092 -1.29089 0 
1.5632 0.186851 0 
1.63813 -1.17413 0 
2.1542 -1.16822 0 
2.15137 -1.65864 0 
1.52429 -1.0167 0 
1.13345 -1.275 0 
2.08412 -1.86019 0 
1.61589 -1.90197 0 
1.1469 -1.55745 0 
1.07634 -1.6152 0 
1.99081 -2.04628 0 
1.58032 -2.58692 0 
1.19222 -1.48278 0 
0.886611 -2.39984 0 
1.49458 -0.186964 0 
1.1198 -0.957386 0 
1.52336 -0.100532 0 
1.19492 -0.73495 0 
1.27867 -0.936256 0 
1.14525 -1.20058 0 
1.01651 -0.792891 0 
0.981393 -1.02423 0 
1.14017 -1.8396 0 
0.955458 -1.90532 0 
0.981363 -1.32491 0 
0.695576 -1.44539 0 
1.243 -1.71761 0 
1.2344 -2.10442 0 
1.08343 -1.56261 0 
1.04462 -2.04741 0 
0.947061 -0.413888 0 
0.6916 -0.662055 0 
1.0545 0.11132 0 
0.623574 -0.506293 0 
0.771443 -0.598692 0 
0.850334 -0.926625 0 
0.767478 -0.39483 0 
0.685808 -0.741845 0 
0.901707 -1.33167 0 
0.821248 -1.42582 0 
0.749832 -1.27505 0 
0.672375 -1.40605 0 
1.0143 -1.50278 0 
0.83102 -1.91807 0 
0.718872 -1.27757 0 
0.516684 -1.60855 0 
1.16586 -0.25682 0 
0.789416 -0.736481 0 
0.448318 -0.0411536 0 
0.410992 -0.285698 0 
0.736619 -0.915561 0 
0.81483 -0.6999 0 
0.659281 -0.66673 0 
0.285184 -0.542449 0 
0.77025 -1.03961 0 
0.606479 -1.39925 0 
0.126675 -0.722966 0 
0.287842 -1.24695 0 
0.718148 -1.24979 0 
0.521129 -1.68704 0 
0.0890445 -0.907016 0 
-0.022335 -1.48932 0 
SCALARS mass double 1
LOOKUP_TABLE default
0.625
0.625
0.625
0.625
0.625
0.625
0.625
0.625
0.625
0.625
0.625
0.625
0.625
0.625
0.625
0.625
0.625
0.625
0.625
0.625
0.625
0.625
0.625
0.625
0.625
0.625
0.625
0.625
0.625
0.625
0.625
0.625
0.625
0.625
0.625
0.625
0.625
0.625
0.625
0.625
0.625
0.625
0.625
0.625
0.625
0.625
0.625
0.625
0.625
0.625
0.625
0.625
0.625
0.625
0.625
0.625
0.625
0.625
0.625
0.625
0.625
0.625
0.625
0.625
SCALARS volume double 1
LOOKUP_TABLE default
0.000626128
0.000640387
0.00061761
0.000623619
0.00063108
0.000618087
0.00062784
0.000631804
0.000626177
0.000621939
0.000624126
0.000625882
0.000622074
0.000623379
0.00063869
0.000628598
0.000585469
0.000640658
0.000641522
0.000629839
0.000614363
0.000627071
0.000636213
0.000652193
0.000620923
0.000641102
0.00063517
0.000636218
0.000624249
0.000634605
0.000632039
0.000635046
0.00061814
0.00064914
0.000628013
0.000624281
0.000612502
0.000615506
0.000612364
0.000641958
0.000602514
0.000627698
0.00065115
0.000623741
0.000644088
0.000630173
0.000620254
0.000625327
0.000615466
0.000638802
0.000622126
0.000626187
0.000620049
0.000626394
0.000642657
0.000622604
0.000628704
0.00063058
0.000610252
0.000624358
0.000626145
0.000627092
0.000620463
0.000622306
VECTORS momentum double
1.5376 -0.384141 0 
1.31932 -0.806809 0 
0.976997 0.116782 0 
1.02383 -0.733834 0 
1.34637 -0.730135 0 
1.34461 -1.03665 0 
0.952683 -0.63544 0 
0.708405 -0.796876 0 
1.30257 -1.16262 0 
1.00993 -1.18873 0 
0.716811 -0.973408 0 
0.672712 -1.0095 0 
1.24426 -1.27892 0 
0.987699 -1.61683 0 
0.745139 -0.926736 0 
0.554132 -1.4999 0 
0.934113 -0.116852 0 
0.699874 -0.598366 0 
0.952098 -0.0628322 0 
0.746825 -0.459344 0 
0.799171 -0.58516 0 
0.715779 -0.750361 0 
0.635321 -0.495557 0 
0.613371 -0.640145 0 
0.712607 -1.14975 0 
0.597161 -1.19083 0 
0.613352 -0.828067 0 
0.434735 -0.903371 0 
0.776872 -1.07351 0 
0.771502 -1.31526 0 
0.677146 -0.976633 0 
0.652891 -1.27963 0 
0.591913 -0.25868 0 
0.43225 -0.413784 0 
0.65906 0.069575 0 
0.389734 -0.316433 0 
0.482152 -0.374183 0 
0.531458 -0.579141 0 
0.479674 -0.246769 0 
0.42863 -0.463653 0 
0.563567 -0.832291 0 
0.51328 -0.891137 0 
0.468645 -0.796909 0 
0.420234 -0.878784 0 
0.633938 -0.939236 0 
0.519388 -1.19879 0 
0.449295 -0.798481 0 
0.322927 -1.00534 0 
0.728662 -0.160513 0 
0.493385 -0.460301 0 
0.280199 -0.025721 0 
0.25687 -0.178562 0 
0.460387 -0.572226 0 
0.509269 -0.437438 0 
0.412051 -0.416706 0 
0.17824 -0.339031 0 
0.481406 -0.649755 0 
0.37905 -0.87453 0 
0.0791719 -0.451854 0 
0.179901 -0.779344 0 
0.448843 -0.781118 0 
0.325706 -1.0544 0 
0.0556528 -0.566885 0 
-0.0139594 -0.930825 0 
VECTORS body_force double
0 -9.81 0 
0 -9.81 0 
0 -9.81 0 
0 -9.81 0 
0 -9.81 0 
0 -9.81 0 
0 -9.81 0 
0 -9.81 0 
0 -9.81 0 
0 -9.81 0 
0 -9.81 0 
0 -9.81 0 
0 -9.81 0 
0 -9.81 0 
0 -9.81 0 
0 -9.81 0 
0 -9.81 0 
0 -9.81 0 
0 -9.81 0 
0 -9.81 0 
0 -9.81 0 
0 -9.81 0 
0 -9.81 0 
0 -9.81 0 
0 -9.81 0 
0 -9.81 0 
0 -9.81 0 
0 -9.81 0 
0 -9.81 0 
0 -9.81 0 
0 -9.81 0 
0 -9.81 0 
0 -9.81 0 
0 -9.81 0 
0 -9.81 0 
0 -9.81 0 
0 -9.81 0 
0 -9.81 0 
0 -9.81 0 
0 -9.81 0 
0 -9.81 0 
0 -9.81 0 
0 -9.81 0 
0 -9.81 0 
0 -9.81 0 
0 -9.81 0 
0 -9.81 0 
0 -9.81 0 
0 -9.81 0 
0 -9.81 0 
0 -9.81 0 
0 -9.81 0 
0 -9.81 0 
0 -9.81 0 
0 -9.81 0 
0 -9.81 0 
0 -9.81 0 
0 -9.81 0 
0 -9.81 0 
0 -9.81 0 
0 -9.81 0 
0 -9.81 0 
0 -9.81 0 
0 -9.81 0 
TENSORS cauchy_stress double
1953.63 -874.562 0
-874.562 -1606.74 0
0 0 0

2845.65 -263.892 0
-263.892 1831.42 0
0 0 0

-3903.4 -843.156 0
-843.156 1615.95 0
0 0 0

-660.879 -140.328 0
-140.328 235.409 0
0 0 0

-209.785 203.392 0
203.392 2071.59 0
0 0 0

-467.969 -763.212 0
-763.212 -1671.05 0
0 0 0

-4468.48 -1828.12 0
-1828.12 5340.22 0
0 0 0

-628.696 772.988 0
772.988 2711.03 0
0 0 0

238.445 1007.1 0
1007.1 123.394 0
0 0 0

-1183.03 662.34 0
662.34 238.845 0
0 0 0

-835.187 -2029.1 0
-2029.1 566.064 0
0 0 0

-110.348 43.1193 0
43.1193 381.509 0
0 0 0

560.146 1692.3 0
1692.3 -1462.68 0
0 0 0

-564.942 237.269 0
237.269 65.4647 0
0 0 0

1674.67 1031.51 0
1031.51 2492.21 0
0 0 0

-1482.6 -936.81 0
-936.81 2586.5 0
0 0 0

-590.365 3423.36 0
3423.36 -11974.8 0
0 0 0

3668.83 819.826 0
819.826 1089.73 0
0 0 0

2480.95 534.5 0
534.5 2536.82 0
0 0 0

-211.993 -1197.29 0
-1197.29 1695.12 0
0 0 0

-798.323 416.161 0
416.161 -2502.72 0
0 0 0

5978.14 988.785 0
988.785 -5342.08 0
0 0 0

2029.8 -970.122 0
-970.122 1389.63 0
0 0 0

3212.86 2512.24 0
2512.24 4977.36 0
0 0 0

-1805.75 1919.73 0
1919.73 547.13 0
0 0 0

2243.45 2278.26 0
2278.26 2648.26 0
0 0 0

-1474.09 1198.36 0
1198.36 4578.07 0
0 0 0

5282.72 1053.48 0
1053.48 -1861.77 0
0 0 0

244.062 1688.99 0
1688.99 -475.338 0
0 0 0

1238.58 1306.33 0
1306.33 1694.24 0
0 0 0

-1212.26 1219.74 0
1219.74 3366.11 0
0 0 0

778.869 1531.48 0
1531.48 2287.77 0
0 0 0

183.995 -2375.34 0
-2375.34 -2306.58 0
0 0 0

3143.61 82.134 0
82.134 4144.28 0
0 0 0

518.597 831.45 0
831.45 406.229 0
0 0 0

1606.52 1906.98 0
1906.98 -1827.89 0
0 0 0

-3564.61 369.159 0
369.159 -319.783 0
0 0 0

-918.116 1640.48 0
1640.48 -2025.46 0
0 0 0

-1837.63 1550.49 0
1550.49 -2090.07 0
0 0 0

3573.07 4566.9 0
4566.9 1575.33 0
0 0 0

-3286.88 992.705 0
992.705 -3759.49 0
0 0 0

510.961 1357.51 0
1357.51 317.389 0
0 0 0

2103.4 1934.06 0
1934.06 5778.96 0
0 0 0

323.878 950.576 0
950.576 -711.546 0
0 0 0

2389.26 1154.08 0
1154.08 3396.13 0
0 0 0

1956.19 -102.686 0
-102.686 -370.922 0
0 0 0

-15.5199 1163.36 0
1163.36 -1450.3 0
0 0 0

-1927.21 -479.671 0
-479.671 2027.68 0
0 0 0

-2004.19 265.723 0
265.723 -952.076 0
0 0 0

3348.26 485.045 0
485.045 852.236 0
0 0 0

-1962.26 -1205.04 0
-1205.04 1075.87 0
0 0 0

659.407 2000.55 0
2000.55 -294.469 0
0 0 0

-3655.01 -1708.53 0
-1708.53 2125.7 0
0 0 0

113.911 -281.743 0
-281.743 314.628 0
0 0 0

4830.8 174.363 0
174.363 526.727 0
0 0 0

812.096 1228.72 0
1228.72 -1550.73 0
0 0 0

2624.18 1600.95 0
1600.95 -1487.9 0
0 0 0

822.331 1816.66 0
1816.66 887.011 0
0 0 0

-2862.88 1800.33 0
1800.33 -1729.29 0
0 0 0

-1611.71 -363.094 0
-363.094 1413.98 0
0 0 0

242.241 559.547 0
559.547 109.82 0
0 0 0

-2096.64 -1490.67 0
-1490.67 2739.18 0
0 0 0

477.042 2060.71 0
2060.71 -1878.17 0
0 0 0

-953.467 123.129 0
123.129 122.646 0
0 0 0

TENSORS velocity_gradient double
-0.361661 -9.98045 0
9.62683 2.03462 0
0 0 0

-0.253792 -11.9162 0
10.4552 0.0547789 0
0 0 0

-0.380824 -12.0735 0
11.1184 1.55214 0
0 0 0

-0.421228 -11.9315 0
11.4623 0.343281 0
0 0 0

-0.170272 -12.0251 0
10.7815 -0.196205 0
0 0 0

0.0488319 -12.0826 0
10.0395 -0.208538 0
0 0 0

-0.0204692 -11.973 0
10.867 -0.166444 0
0 0 0

-0.00285335 -10.7984 0
10.9301 0.672405 0
0 0 0

0.22369 -11.1924 0
7.44631 0.56067 0
0 0 0

-0.385021 -10.2011 0
7.35419 1.39742 0
0 0 0

-0.854766 -8.90801 0
6.79398 1.4033 0
0 0 0

-1.24082 -7.91794 0
6.79897 1.3905 0
0 0 0

-1.20281 -9.55075 0
9.13275 0.910527 0
0 0 0

-0.970163 -7.02575 0
9.2609 2.50687 0
0 0 0

-1.08845 -7.2756 0
8.86896 1.679 0
0 0 0

-1.15739 -7.09029 0
8.64054 2.29301 0
0 0 0

-0.464363 -10.6717 0
11.9535 0.570019 0
0 0 0

-0.434553 -9.33805 0
11.8481 0.817816 0
0 0 0

-2.66887 -8.1504 0
7.31113 -1.31057 0
0 0 0

-0.0958971 -9.20147 0
9.96466 0.0581749 0
0 0 0

-0.0132745 -9.57155 0
11.1397 2.08952 0
0 0 0

-0.0246711 -9.5225 0
11.2547 1.70896 0
0 0 0

0.0101454 -9.51851 0
9.91239 1.8131 0
0 0 0

-0.114421 -8.28988 0
11.5387 1.60644 0
0 0 0

-1.79893 -9.22966 0
6.98334 1.41122 0
0 0 0

-2.2393 -8.28529 0
6.81188 1.39525 0
0 0 0

-0.493172 -4.36606 0
10.9312 1.7239 0
0 0 0

-2.30364 -4.16726 0
6.9003 1.8548 0
0 0 0

-1.68605 -6.69102 0
7.8026 1.57661 0
0 0 0

-1.61852 -3.66138 0
8.0075 2.36054 0
0 0 0

-2.10913 -4.78872 0
6.94521 1.71134 0
0 0 0

-2.84308 -4.12874 0
7.35843 2.11282 0
0 0 0

0.407516 -6.58808 0
6.13095 -1.1601 0
0 0 0

0.240543 -5.55426 0
8.29239 -0.859247 0
0 0 0

1.29926 -4.87577 0
6.59356 -1.37672 0
0 0 0

0.525656 -4.60974 0
7.57945 -1.1914 0
0 0 0

0.353372 -5.00459 0
7.97634 -0.281788 0
0 0 0

-0.684323 -4.75789 0
10.8585 0.513026 0
0 0 0

0.636225 -4.8889 0
7.32474 -0.54831 0
0 0 0

-0.888394 -4.99144 0
9.29843 0.180085 0
0 0 0

-0.916883 -4.07386 0
10.5457 1.43298 0
0 0 0

-1.71226 -3.9288 0
7.03682 1.90985 0
0 0 0

-1.32681 -5.45457 0
9.65651 1.14949 0
0 0 0

-1.20734 -6.76697 0
7.91892 1.94878 0
0 0 0

-1.50703 -4.88448 0
7.06118 1.90107 0
0 0 0

-3.71737 -7.16964 0
6.66967 3.26955 0
0 0 0

-1.11994 -7.14794 0
6.62782 2.58031 0
0 0 0

-1.77563 -7.47153 0
6.23053 3.20644 0
0 0 0

0.81927 -5.0776 0
6.597 -1.37528 0
0 0 0

0.674948 -4.86522 0
6.69604 -1.12082 0
0 0 0

0.318631 -5.72524 0
6.6492 -0.888442 0
0 0 0

0.122788 -5.20154 0
6.67871 -0.967357 0
0 0 0

0.820473 -4.98498 0
6.70079 -0.482102 0
0 0 0

0.789006 -5.04085 0
6.55087 0.119511 0
0 0 0

0.870486 -4.96693 0
6.09818 -0.699617 0
0 0 0

0.889142 -5.0178 0
5.87338 -0.0866499 0
0 0 0

-0.610963 -5.6802 0
8.83751 0.869524 0
0 0 0

-0.326431 -6.52245 0
8.56714 1.66988 0
0 0 0

0.260278 -5.56498 0
7.90591 -0.72774 0
0 0 0

0.59382 -6.76996 0
7.42522 -0.31497 0
0 0 0

-0.79194 -7.02692 0
6.00826 2.35173 0
0 0 0

-0.693208 -7.6371 0
5.88271 1.68906 0
0 0 0

-0.574563 -7.5927 0
5.85216 0.975791 0
0 0 0

-0.510328 -7.75453 0
5.87661 0.914199 0
0 0 0

SCALARS active double 1
LOOKUP_TABLE default
1
1
1
1
1
1
1
1
1
1
1
1
1
1
1
1
1
1
1
1
1
1
1
1
1
1
1
1
1
1
1
1
1
1
1
1
1
1
1
1
1
1
1
1
1
1
1
1
1
1
1
1
1
1
1
1
1
1
1
1
1
1
1
1
SCALARS extent double 1
LOOKUP_TABLE default
0.0125
0.0125
0.0125
0.0125
0.0125
0.0125
0.0125
0.0125
0.0125
0.0125
0.0125
0.0125
0.0125
0.0125
0.0125
0.0125
0.0125
0.0125
0.0125
0.0125
0.0125
0.0125
0.0125
0.0125
0.0125
0.0125
0.0125
0.0125
0.0125
0.0125
0.0125
0.0125
0.0125
0.0125
0.0125
0.0125
0.0125
0.0125
0.0125
0.0125
0.0125
0.0125
0.0125
0.0125
0.0125
0.0125
0.0125
0.0125
0.0125
0.0125
0.0125
0.0125
0.0125
0.0125
0.0125
0.0125
0.0125
0.0125
0.0125
0.0125
0.0125
0.0125
0.0125
0.0125
SCALARS pressure double 1
LOOKUP_TABLE default
-173.447
-2338.53
1143.72
212.735
-930.9
1069.51
-435.87
-1041.17
-180.919
472.092
134.561
-135.581
451.266
249.739
-2083.44
-551.95
6282.6
-2379.28
-2508.89
-741.562
1650.52
-318.034
-1709.72
-4095.11
629.311
-2445.85
-1551.99
-1710.47
115.638
-1466.41
-1076.93
-1533.32
1061.29
-3643.94
-462.413
110.688
1942.2
1471.79
1963.85
-2574.2
3523.19
-414.175
-3941.18
193.834
-2892.69
-792.636
732.908
-50.2376
1478.13
-2100.25
443.197
-182.469
764.657
-214.27
-2678.77
369.319
-568.141
-854.671
2296.08
98.8657
-176.03
-321.268
700.565
415.411
SCALARS density double 1
LOOKUP_TABLE default
998.198
975.973
1011.97
1002.21
990.365
1011.19
995.477
989.23
998.12
1004.92
1001.4
998.591
1004.7
1002.6
978.565
994.276
1067.52
975.559
974.245
992.317
1017.31
996.698
982.376
958.305
1006.57
974.884
983.989
982.368
1001.2
984.865
988.862
984.18
1011.1
962.812
995.202
1001.15
1020.4
1015.42
1020.63
973.584
1037.32
995.702
959.84
1002.02
970.364
991.79
1007.65
999.478
1015.49
978.394
1004.62
998.104
1007.98
997.774
972.525
1003.85
994.109
991.151
1024.17
1001.03
998.171
996.664
1007.31
1004.33
