# vtk DataFile Version 3.0
Frame: 48, Time: 0.816
ASCII
DATASET UNSTRUCTURED_GRID
POINTS 64 double
0.474363 0.229582 0 
0.474756 0.205503 0 
0.446044 0.228495 0 
0.448329 0.203553 0 
0.476783 0.178981 0 
0.482795 0.154766 0 
0.450954 0.176765 0 
0.455222 0.151144 0 
0.483432 0.128148 0 
0.487699 0.101251 0 
0.458053 0.125528 0 
0.461796 0.0997109 0 
0.490596 0.0758759 0 
0.491768 0.04714 0 
0.464227 0.0744151 0 
0.465348 0.0487068 0 
0.417988 0.224127 0 
0.422867 0.198984 0 
0.39335 0.225738 0 
0.396787 0.199615 0 
0.427145 0.174399 0 
0.430401 0.148535 0 
0.402618 0.173534 0 
0.40655 0.146593 0 
0.432356 0.121563 0 
0.43764 0.0967631 0 
0.407514 0.120876 0 
0.412017 0.0944436 0 
0.440202 0.071971 0 
0.440194 0.045786 0 
0.414339 0.0688005 0 
0.414372 0.0446016 0 
0.367398 0.222833 0 
0.372268 0.196584 0 
0.339538 0.221393 0 
0.346442 0.194315 0 
0.377418 0.171829 0 
0.382006 0.14546 0 
0.353331 0.169497 0 
0.358036 0.143499 0 
0.383887 0.118321 0 
0.386996 0.0923635 0 
0.360665 0.117328 0 
0.362321 0.0914525 0 
0.387306 0.0674469 0 
0.385697 0.0430491 0 
0.361297 0.0672649 0 
0.357982 0.0438356 0 
0.31578 0.218307 0 
0.321741 0.191161 0 
0.28992 0.213759 0 
0.295552 0.187535 0 
0.327832 0.167479 0 
0.333157 0.143033 0 
0.301906 0.164715 0 
0.310128 0.140521 0 
0.335352 0.117908 0 
0.33673 0.092323 0 
0.312389 0.117329 0 
0.310367 0.0948466 0 
0.334999 0.0684622 0 
0.331917 0.0440001 0 
0.306789 0.0699278 0 
0.304599 0.0472822 0 
CELLS 64 128
1 0
1 1
1 2
1 3
1 4
1 5
1 6
1 7
1 8
1 9
1 10
1 11
1 12
1 13
1 14
1 15
1 16
1 17
1 18
1 19
1 20
1 21
1 22
1 23
1 24
1 25
1 26
1 27
1 28
1 29
1 30
1 31
1 32
1 33
1 34
1 35
1 36
1 37
1 38
1 39
1 40
1 41
1 42
1 43
1 44
1 45
1 46
1 47
1 48
1 49
1 50
1 51
1 52
1 53
1 54
1 55
1 56
1 57
1 58
1 59
1 60
1 61
1 62
1 63
CELL_TYPES 64
1
1
1
1
1
1
1
1
1
1
1
1
1
1
1
1
1
1
1
1
1
1
1
1
1
1
1
1
1
1
1
1
1
1
1
1
1
1
1
1
1
1
1
1
1
1
1
1
1
1
1
1
1
1
1
1
1
1
1
1
1
1
1
1
POINT_DATA 64
VECTORS displacement double
-0.138137 -0.0829181 0 
-0.137744 -0.131997 0 
-0.191456 -0.0840055 0 
-0.189171 -0.133947 0 
-0.135717 -0.183519 0 
-0.129705 -0.232734 0 
-0.186546 -0.185735 0 
-0.182278 -0.236356 0 
-0.129068 -0.284352 0 
-0.124801 -0.336249 0 
-0.179447 -0.286972 0 
-0.175704 -0.337789 0 
-0.121904 -0.386624 0 
-0.120732 -0.44036 0 
-0.173273 -0.388085 0 
-0.172152 -0.438793 0 
-0.244512 -0.0883725 0 
-0.239633 -0.138516 0 
-0.29415 -0.0867621 0 
-0.290713 -0.137885 0 
-0.235355 -0.188101 0 
-0.232099 -0.238965 0 
-0.284882 -0.188966 0 
-0.28095 -0.240907 0 
-0.230144 -0.290937 0 
-0.22486 -0.340737 0 
-0.279986 -0.291624 0 
-0.275483 -0.343056 0 
-0.222298 -0.390529 0 
-0.222306 -0.441714 0 
-0.273161 -0.3937 0 
-0.273128 -0.442898 0 
-0.345102 -0.0896667 0 
-0.340232 -0.140916 0 
-0.397962 -0.0911072 0 
-0.391058 -0.143185 0 
-0.335082 -0.190671 0 
-0.330494 -0.24204 0 
-0.384169 -0.193003 0 
-0.379464 -0.244001 0 
-0.328613 -0.294179 0 
-0.325504 -0.345137 0 
-0.376835 -0.295172 0 
-0.375179 -0.346048 0 
-0.325194 -0.395053 0 
-0.326803 -0.444451 0 
-0.376203 -0.395235 0 
-0.379518 -0.443664 0 
-0.44672 -0.0941934 0 
-0.440759 -0.146339 0 
-0.49758 -0.0987407 0 
-0.491948 -0.149965 0 
-0.434668 -0.195021 0 
-0.429343 -0.244467 0 
-0.485594 -0.197785 0 
-0.477372 -0.246979 0 
-0.427148 -0.294592 0 
-0.42577 -0.345177 0 
-0.475111 -0.295171 0 
-0.477133 -0.342653 0 
-0.427501 -0.394038 0 
-0.430583 -0.4435 0 
-0.480711 -0.392572 0 
-0.482901 -0.440218 0 
VECTORS velocity double
-1.33585 0.897807 0 
-0.676199 1.12233 0 
-1.30384 0.530776 0 
-0.78839 0.717267 0 
-0.541886 0.770802 0 
0.317503 1.10586 0 
-0.366395 0.234649 0 
-0.0860769 0.235214 0 
-0.297245 0.43175 0 
0.02562 0.447051 0 
-0.00734907 0.341396 0 
0.026432 0.180029 0 
-0.276248 0.602229 0 
0.167281 0.222918 0 
-0.142419 0.365615 0 
-0.114309 0.285059 0 
-1.36289 0.0867473 0 
-0.52323 0.417956 0 
-1.27606 0.598204 0 
-0.829569 0.425424 0 
0.208348 0.470088 0 
0.390347 0.318724 0 
-0.394258 0.18521 0 
-0.164458 0.340264 0 
0.0581236 0.673649 0 
0.351006 0.166633 0 
-0.266386 0.764558 0 
-0.0282087 0.170752 0 
0.159255 0.154505 0 
-0.0756071 0.24871 0 
-0.242921 0.172245 0 
-0.220526 0.11765 0 
-1.14661 -0.307216 0 
-0.304246 0.301435 0 
-1.48852 0.468952 0 
-0.407064 0.0795099 0 
-0.40459 -0.127467 0 
0.231715 -0.212882 0 
-0.631659 0.454271 0 
-0.192008 0.177521 0 
0.245285 0.4536 0 
0.3885 -0.0795185 0 
-0.0159681 0.510225 0 
-0.0729967 0.142009 0 
-0.0554134 0.290423 0 
0.229587 0.267849 0 
-0.34866 0.149245 0 
0.0528941 0.515724 0 
-1.01436 -0.0114149 0 
-0.350335 -0.0543346 0 
-0.784271 0.149225 0 
-0.397217 -0.112574 0 
-0.255147 0.312304 0 
-0.232367 -0.142748 0 
-0.630674 -0.0899937 0 
-0.61913 -0.611278 0 
-0.665661 -0.0561148 0 
-0.414503 0.0274757 0 
-0.257813 -0.168826 0 
-0.669798 0.0216158 0 
0.385837 -0.062819 0 
0.662067 -0.234074 0 
-1.02259 0.227169 0 
0.748207 -0.0620729 0 
SCALARS mass double 1
LOOKUP_TABLE default
0.625
0.625
0.625
0.625
0.625
0.625
0.625
0.625
0.625
0.625
0.625
0.625
0.625
0.625
0.625
0.625
0.625
0.625
0.625
0.625
0.625
0.625
0.625
0.625
0.625
0.625
0.625
0.625
0.625
0.625
0.625
0.625
0.625
0.625
0.625
0.625
0.625
0.625
0.625
0.625
0.625
0.625
0.625
0.625
0.625
0.625
0.625
0.625
0.625
0.625
0.625
0.625
0.625
0.625
0.625
0.625
0.625
0.625
0.625
0.625
0.625
0.625
0.625
0.625
SCALARS volume double 1
LOOKUP_TABLE default
0.00062787
0.000624219
0.000634476
0.000621763
0.000645097
0.000628295
0.00062691
0.000612388
0.000632487
0.000634209
0.000622442
0.000602171
0.000661204
0.000634426
0.000647698
0.000604326
0.000620121
0.00065912
0.000629513
0.00062589
0.000568483
0.000629076
0.000640775
0.000604556
0.000632038
0.000627823
0.000625958
0.000631553
0.000613218
0.000575915
0.000632784
0.000611393
0.000620131
0.000616287
0.000617967
0.000630816
0.000642302
0.000591096
0.000595076
0.000591155
0.000628731
0.000595033
0.000617206
0.000584264
0.000625974
0.000609395
0.000591361
0.000587255
0.000603081
0.000616333
0.000617359
0.000607301
0.000629988
0.00060209
0.000588455
0.00050691
0.000610394
0.000618276
0.000465128
0.000545643
0.000607568
0.000571939
0.000644971
0.000581801
VECTORS momentum double
-0.834903 0.56113 0 
-0.422624 0.701457 0 
-0.814898 0.331735 0 
-0.492744 0.448292 0 
-0.338679 0.481751 0 
0.198439 0.691163 0 
-0.228997 0.146656 0 
-0.053798 0.147009 0 
-0.185778 0.269844 0 
0.0160125 0.279407 0 
-0.00459317 0.213373 0 
0.01652 0.112518 0 
-0.172655 0.376393 0 
0.104551 0.139324 0 
-0.0890122 0.228509 0 
-0.0714432 0.178162 0 
-0.851804 0.054217 0 
-0.327019 0.261223 0 
-0.797538 0.373878 0 
-0.518481 0.26589 0 
0.130218 0.293805 0 
0.243967 0.199203 0 
-0.246412 0.115756 0 
-0.102786 0.212665 0 
0.0363272 0.42103 0 
0.219378 0.104146 0 
-0.166491 0.477849 0 
-0.0176304 0.10672 0 
0.0995342 0.0965655 0 
-0.0472544 0.155444 0 
-0.151826 0.107653 0 
-0.137829 0.073531 0 
-0.71663 -0.19201 0 
-0.190154 0.188397 0 
-0.930326 0.293095 0 
-0.254415 0.0496937 0 
-0.252869 -0.0796671 0 
0.144822 -0.133051 0 
-0.394787 0.283919 0 
-0.120005 0.110951 0 
0.153303 0.2835 0 
0.242813 -0.0496991 0 
-0.00998008 0.318891 0 
-0.0456229 0.0887554 0 
-0.0346334 0.181514 0 
0.143492 0.167406 0 
-0.217913 0.093278 0 
0.0330588 0.322328 0 
-0.633972 -0.00713431 0 
-0.218959 -0.0339591 0 
-0.49017 0.0932654 0 
-0.248261 -0.0703584 0 
-0.159467 0.19519 0 
-0.145229 -0.0892177 0 
-0.394171 -0.056246 0 
-0.386956 -0.382049 0 
-0.416038 -0.0350718 0 
-0.259065 0.0171723 0 
-0.161133 -0.105516 0 
-0.418624 0.0135099 0 
0.241148 -0.0392619 0 
0.413792 -0.146296 0 
-0.63912 0.141981 0 
0.467629 -0.0387955 0 
VECTORS body_force double
0 -9.81 0 
0 -9.81 0 
0 -9.81 0 
0 -9.81 0 
0 -9.81 0 
0 -9.81 0 
0 -9.81 0 
0 -9.81 0 
0 -9.81 0 
0 -9.81 0 
0 -9.81 0 
0 -9.81 0 
0 -9.81 0 
0 -9.81 0 
0 -9.81 0 
0 -9.81 0 
0 -9.81 0 
0 -9.81 0 
0 -9.81 0 
0 -9.81 0 
0 -9.81 0 
0 -9.81 0 
0 -9.81 0 
0 -9.81 0 
0 -9.81 0 
0 -9.81 0 
0 -9.81 0 
0 -9.81 0 
0 -9.81 0 
0 -9.81 0 
0 -9.81 0 
0 -9.81 0 
0 -9.81 0 
0 -9.81 0 
0 -9.81 0 
0 -9.81 0 
0 -9.81 0 
0 -9.81 0 
0 -9.81 0 
0 -9.81 0 
0 -9.81 0 
0 -9.81 0 
0 -9.81 0 
0 -9.81 0 
0 -9.81 0 
0 -9.81 0 
0 -9.81 0 
0 -9.81 0 
0 -9.81 0 
0 -9.81 0 
0 -9.81 0 
0 -9.81 0 
0 -9.81 0 
0 -9.81 0 
0 -9.81 0 
0 -9.81 0 
0 -9.81 0 
0 -9.81 0 
0 -9.81 0 
0 -9.81 0 
0 -9.81 0 
0 -9.81 0 
0 -9.81 0 
0 -9.81 0 
TENSORS cauchy_stress double
926.255 277.898 0
277.898 -45.3239 0
0 0 0

-477.511 -2874.45 0
-2874.45 237.117 0
0 0 0

2503.08 -824.326 0
-824.326 390.598 0
0 0 0

585.865 -2971.51 0
-2971.51 -1584.31 0
0 0 0

524.706 -2025.65 0
-2025.65 5561.67 0
0 0 0

1592.09 -686.255 0
-686.255 -580.862 0
0 0 0

-1402.6 711.222 0
711.222 1989.5 0
0 0 0

-224.194 -601.886 0
-601.886 -3696.12 0
0 0 0

-2732.69 -569.097 0
-569.097 5022.65 0
0 0 0

1811.33 -2402 0
-2402 1001.49 0
0 0 0

-9.63181 2707.62 0
2707.62 -779.017 0
0 0 0

-4405.77 -2442.29 0
-2442.29 -2749.91 0
0 0 0

3211.3 -2677.58 0
-2677.58 7617.83 0
0 0 0

-8082.4 -2036.65 0
-2036.65 10961 0
0 0 0

3473.53 4469.02 0
4469.02 3386.49 0
0 0 0

5193.97 6417.06 0
6417.06 -11662.6 0
0 0 0

-211.058 2889.88 0
2889.88 -1296.11 0
0 0 0

1130.53 -1299.57 0
-1299.57 9091.5 0
0 0 0

638.527 -2042.76 0
-2042.76 744.969 0
0 0 0

1505.38 -4287.28 0
-4287.28 -1231.66 0
0 0 0

-7546.24 -133.827 0
-133.827 -10680.8 0
0 0 0

-951.519 -454.163 0
-454.163 2201.49 0
0 0 0

-196.44 -5892.63 0
-5892.63 4990.12 0
0 0 0

-5088.76 -790.332 0
-790.332 -1306.83 0
0 0 0

14.474 6.8476 0
6.8476 2138.97 0
0 0 0

2400.45 -2486.37 0
-2486.37 -1533.95 0
0 0 0

-1551.76 -4796.18 0
-4796.18 1846.39 0
0 0 0

-1002.73 -867.974 0
-867.974 3008.52 0
0 0 0

-1251.47 3450.16 0
3450.16 -2408.33 0
0 0 0

-4989.26 6052.07 0
6052.07 -10740 0
0 0 0

2506.55 -233.049 0
-233.049 -126.4 0
0 0 0

3315.19 1489.61 0
1489.61 -7548.06 0
0 0 0

-1677.97 330.916 0
330.916 173.855 0
0 0 0

-496.865 -2936.13 0
-2936.13 -2202.99 0
0 0 0

30.5317 -4776.58 0
-4776.58 -2206.91 0
0 0 0

2166.17 -6454.86 0
-6454.86 -384.799 0
0 0 0

2779.72 -4206.2 0
-4206.2 2471.64 0
0 0 0

-7709.58 1895.75 0
1895.75 -3016.03 0
0 0 0

-3671.66 -6074.21 0
-6074.21 -5763.53 0
0 0 0

-7333.88 -3738.1 0
-3738.1 -3372.64 0
0 0 0

-3089.85 -4207.92 0
-4207.92 4234.55 0
0 0 0

-2941.42 4884.25 0
4884.25 -6507.49 0
0 0 0

-2924.1 -2652.16 0
-2652.16 510.727 0
0 0 0

-5347.38 -2584.36 0
-2584.36 -7613.99 0
0 0 0

2833.25 2996.54 0
2996.54 -2533.76 0
0 0 0

5042.86 1250.32 0
1250.32 -9905.5 0
0 0 0

-1299.6 2482.25 0
2482.25 -9339.91 0
0 0 0

1716.55 4408.21 0
4408.21 -13696 0
0 0 0

-3585.49 -951.768 0
-951.768 -3280.01 0
0 0 0

258.942 -3761.82 0
-3761.82 -2944.42 0
0 0 0

-796.556 -4031.87 0
-4031.87 -1569.15 0
0 0 0

961.943 -6018.73 0
-6018.73 -6486.25 0
0 0 0

6335.87 -1586.02 0
-1586.02 -4807.13 0
0 0 0

-2851.89 -3051.85 0
-3051.85 -4329.76 0
0 0 0

-988.875 -7540.42 0
-7540.42 -10597.9 0
0 0 0

-20716.1 -6730.11 0
-6730.11 -19556.7 0
0 0 0

-5174.5 936.911 0
936.911 626.972 0
0 0 0

3476.65 -798.72 0
-798.72 -5556.84 0
0 0 0

-30515.9 1032.44 0
1032.44 -26299.4 0
0 0 0

-14253.5 1237.6 0
1237.6 -11859.2 0
0 0 0

1939.02 2955.12 0
2955.12 -7378.88 0
0 0 0

-2219.75 3605.89 0
3605.89 -14841.5 0
0 0 0

9146.26 -1504.25 0
-1504.25 -3097.47 0
0 0 0

1476.25 -1322.91 0
-1322.91 -15250 0
0 0 0

TENSORS velocity_gradient double
-0.300689 -10.4104 0
7.14013 -0.602735 0
0 0 0

-0.425574 -10.7819 0
7.1199 -0.0733611 0
0 0 0

-0.0918892 -10.5252 0
6.0497 -0.603226 0
0 0 0

-0.161195 -11.3485 0
6.22625 0.34065 0
0 0 0

-0.736346 -13.4623 0
6.55492 3.81693 0
0 0 0

-1.07803 -11.0533 0
5.84779 4.14006 0
0 0 0

-0.163007 -13.6997 0
5.75515 3.07744 0
0 0 0

-0.952214 -7.80215 0
5.49149 3.02008 0
0 0 0

-1.73158 0.346905 0
4.00852 5.01266 0
0 0 0

-2.23251 -0.00868586 0
2.07156 3.63489 0
0 0 0

-1.80033 -0.349137 0
3.80822 2.98481 0
0 0 0

-2.20932 0.380543 0
2.00797 2.14665 0
0 0 0

-1.05224 -0.799749 0
1.65797 1.39165 0
0 0 0

0.311852 -0.746686 0
1.37285 5.21506 0
0 0 0

-0.969237 0.748326 0
1.6495 1.23356 0
0 0 0

0.272103 -0.33229 0
1.40168 4.01079 0
0 0 0

-0.0144084 -10.5236 0
5.66066 -0.606981 0
0 0 0

0.117603 -12.0345 0
5.48801 0.947755 0
0 0 0

-0.235571 -10.5824 0
2.649 -0.500448 0
0 0 0

-0.0771818 -11.2753 0
3.71999 0.327756 0
0 0 0

0.833776 -13.1042 0
4.51095 2.09218 0
0 0 0

1.36607 -5.56743 0
3.32212 1.58456 0
0 0 0

1.18367 -12.2052 0
4.16984 1.10358 0
0 0 0

1.35678 -4.45276 0
3.22836 0.149243 0
0 0 0

0.392239 -1.31559 0
1.82443 1.34283 0
0 0 0

-0.393177 1.11266 0
0.740067 1.33611 0
0 0 0

0.365097 -2.36509 0
1.78807 -0.063351 0
0 0 0

-0.42896 1.8709 0
0.684608 1.42466 0
0 0 0

-0.189903 1.69331 0
0.859353 1.23003 0
0 0 0

0.0358977 -0.685575 0
0.922071 4.46172 0
0 0 0

-0.154923 1.98107 0
0.885663 1.44647 0
0 0 0

0.0417396 -0.953242 0
0.914868 4.31348 0
0 0 0

-0.277107 -10.8647 0
2.55955 -0.0302776 0
0 0 0

-0.0255056 -9.81823 0
3.00956 0.932944 0
0 0 0

-2.86646 -10.2424 0
2.12049 0.730689 0
0 0 0

-0.366504 -7.18154 0
3.20664 1.58961 0
0 0 0

2.26323 -10.0365 0
3.31868 1.15018 0
0 0 0

4.32081 -3.60085 0
3.49741 -0.512432 0
0 0 0

2.32293 -7.68499 0
3.50261 1.47112 0
0 0 0

4.39624 -2.6305 0
3.49119 -1.05978 0
0 0 0

4.42788 -2.66263 0
3.14516 -0.708475 0
0 0 0

3.2086 0.0916282 0
2.6715 1.19365 0
0 0 0

4.42903 -2.63369 0
3.13255 -1.02489 0
0 0 0

3.07539 -3.78703 0
2.64725 0.487672 0
0 0 0

-0.715552 0.140913 0
1.95724 1.20262 0
0 0 0

-2.94494 -0.148393 0
1.25454 3.75342 0
0 0 0

-0.736209 -3.9631 0
1.95348 0.455624 0
0 0 0

-3.00117 1.76043 0
1.27849 2.94026 0
0 0 0

-2.6061 -8.19294 0
2.25511 1.7903 0
0 0 0

-0.252942 -4.85181 0
3.37483 2.45441 0
0 0 0

0.315341 -5.32885 0
-4.22168 -0.471332 0
0 0 0

-0.213597 -4.07311 0
-4.75509 3.9645 0
0 0 0

1.84267 -5.38036 0
4.20047 2.24617 0
0 0 0

4.10499 -0.930279 0
4.86765 -1.037 0
0 0 0

-0.162116 -3.67226 0
1.97747 3.37673 0
0 0 0

4.3511 1.4197 0
4.88748 -0.847649 0
0 0 0

6.68347 -1.15134 0
5.07542 -1.05481 0
0 0 0

7.02602 -8.2466 0
4.84235 -0.50876 0
0 0 0

6.73102 1.18619 0
5.07925 -0.866464 0
0 0 0

7.36607 -11.9152 0
4.93965 -1.7054 0
0 0 0

2.44772 -8.61554 0
3.67123 -0.603134 0
0 0 0

-0.928356 2.52808 0
2.43235 1.66641 0
0 0 0

2.74929 -14.0097 0
3.74837 -1.98295 0
0 0 0

-2.81406 -1.38014 0
2.32929 -0.218098 0
0 0 0

SCALARS active double 1
LOOKUP_TABLE default
1
1
1
1
1
1
1
1
1
1
1
1
1
1
1
1
1
1
1
1
1
1
1
1
1
1
1
1
1
1
1
1
1
1
1
1
1
1
1
1
1
1
1
1
1
1
1
1
1
1
1
1
1
1
1
1
1
1
1
1
1
1
1
1
SCALARS extent double 1
LOOKUP_TABLE default
0.0125
0.0125
0.0125
0.0125
0.0125
0.0125
0.0125
0.0125
0.0125
0.0125
0.0125
0.0125
0.0125
0.0125
0.0125
0.0125
0.0125
0.0125
0.0125
0.0125
0.0125
0.0125
0.0125
0.0125
0.0125
0.0125
0.0125
0.0125
0.0125
0.0125
0.0125
0.0125
0.0125
0.0125
0.0125
0.0125
0.0125
0.0125
0.0125
0.0125
0.0125
0.0125
0.0125
0.0125
0.0125
0.0125
0.0125
0.0125
0.0125
0.0125
0.0125
0.0125
0.0125
0.0125
0.0125
0.0125
0.0125
0.0125
0.0125
0.0125
0.0125
0.0125
0.0125
0.0125
SCALARS pressure double 1
LOOKUP_TABLE default
-440.466
120.197
-1446.84
499.222
-3043.19
-505.616
-293.449
1960.16
-1144.98
-1406.41
394.324
3577.84
-5414.57
-1439.32
-3430.01
3234.33
753.587
-5111.02
-691.748
-136.861
9113.53
-624.985
-2396.84
3197.8
-1076.72
-433.253
-147.316
-1002.9
1829.9
7864.62
-1190.08
2116.44
752.056
1349.93
1088.19
-890.684
-2625.68
5362.81
4717.6
5353.26
-572.351
4724.46
1206.69
6480.69
-149.745
2431.32
5319.76
5989.71
3432.75
1342.74
1182.85
2762.15
-764.372
3590.82
5793.36
20136.4
2273.77
1040.1
28407.6
13056.4
2719.93
8530.63
-3024.4
6886.87
SCALARS density double 1
LOOKUP_TABLE default
995.43
1001.25
985.066
1005.21
968.846
994.755
996.953
1020.59
988.163
985.48
1004.11
1037.91
945.245
985.143
964.957
1034.21
1007.87
948.233
992.832
998.578
1099.42
993.521
975.381
1033.82
988.865
995.504
998.469
989.624
1019.21
1085.23
987.699
1022.25
1007.85
1014.14
1011.38
990.78
973.062
1057.36
1050.29
1057.25
994.065
1050.36
1012.63
1069.72
998.444
1025.61
1056.88
1064.27
1036.35
1014.06
1012.38
1029.14
992.082
1038.05
1062.1
1232.96
1023.93
1010.88
1343.72
1145.44
1028.69
1092.77
969.036
1074.25
