# vtk DataFile Version 3.0
Frame: 24, Time: 0.408
ASCII
DATASET UNSTRUCTURED_GRID
POINTS 64 double
0.13964 0.359488 0 
0.127109 0.337931 0 
0.119631 0.373109 0 
0.106735 0.351843 0 
0.11122 0.316242 0 
0.0965198 0.294251 0 
0.0916657 0.331732 0 
0.0771339 0.311797 0 
0.0796169 0.275308 0 
0.0636657 0.255495 0 
0.0609939 0.291863 0 
0.0452033 0.271416 0 
0.0483803 0.235848 0 
0.0291258 0.21684 0 
0.0289832 0.252971 0 
0.0117221 0.232687 0 
0.101055 0.388161 0 
0.0854279 0.368098 0 
0.0815851 0.403943 0 
0.0665586 0.384494 0 
0.0713805 0.348407 0 
0.0562806 0.328564 0 
0.0515747 0.364883 0 
0.0375147 0.345099 0 
0.0422219 0.309235 0 
0.0273582 0.290054 0 
0.0218035 0.326918 0 
0.00775949 0.309004 0 
0.0115476 0.271704 0 
0.99579 0.25341 0 
0.992919 0.290118 0 
0.980135 0.272958 0 
0.0622845 0.420695 0 
0.0469073 0.400763 0 
0.0427817 0.436841 0 
0.0270044 0.417095 0 
0.031386 0.381899 0 
0.0171442 0.362264 0 
0.0117217 0.398636 0 
0.996176 0.37893 0 
0.00303477 0.344535 0 
0.988498 0.326684 0 
0.982203 0.359906 0 
0.967703 0.341925 0 
0.973674 0.307266 0 
0.960265 0.290101 0 
0.951982 0.322158 0 
0.938395 0.304502 0 
0.0233811 0.453535 0 
0.00822004 0.433416 0 
0.00419799 0.469595 0 
0.987915 0.449384 0 
0.99232 0.415 0 
0.976351 0.394898 0 
0.97138 0.431036 0 
0.956624 0.410474 0 
0.961943 0.37611 0 
0.947918 0.357321 0 
0.941063 0.391613 0 
0.926615 0.372571 0 
0.931681 0.337505 0 
0.918083 0.31836 0 
0.911134 0.35399 0 
0.896715 0.334029 0 
CELLS 64 128
1 0
1 1
1 2
1 3
1 4
1 5
1 6
1 7
1 8
1 9
1 10
1 11
1 12
1 13
1 14
1 15
1 16
1 17
1 18
1 19
1 20
1 21
1 22
1 23
1 24
1 25
1 26
1 27
1 28
1 29
1 30
1 31
1 32
1 33
1 34
1 35
1 36
1 37
1 38
1 39
1 40
1 41
1 42
1 43
1 44
1 45
1 46
1 47
1 48
1 49
1 50
1 51
1 52
1 53
1 54
1 55
1 56
1 57
1 58
1 59
1 60
1 61
1 62
1 63
CELL_TYPES 64
1
1
1
1
1
1
1
1
1
1
1
1
1
1
1
1
1
1
1
1
1
1
1
1
1
1
1
1
1
1
1
1
1
1
1
1
1
1
1
1
1
1
1
1
1
1
1
1
1
1
1
1
1
1
1
1
1
1
1
1
1
1
1
1
POINT_DATA 64
VECTORS displacement double
-0.0728596 0.146988 0 
-0.085391 0.100431 0 
-0.117869 0.160609 0 
-0.130765 0.114343 0 
-0.10128 0.0537418 0 
-0.11598 0.00675093 0 
-0.145834 0.0692323 0 
-0.160366 0.0242968 0 
-0.132883 -0.0371922 0 
-0.148834 -0.0820046 0 
-0.176506 -0.0206366 0 
-0.192297 -0.0660836 0 
-0.16412 -0.126652 0 
-0.183374 -0.17066 0 
-0.208517 -0.109529 0 
-0.225778 -0.154813 0 
-0.161445 0.175661 0 
-0.177072 0.130598 0 
-0.205915 0.191443 0 
-0.220941 0.146994 0 
-0.191119 0.0859073 0 
-0.206219 0.0410643 0 
-0.235925 0.102383 0 
-0.249985 0.0575992 0 
-0.220278 -0.00326459 0 
-0.235142 -0.0474463 0 
-0.265696 0.0144181 0 
-0.279741 -0.0284961 0 
-0.250952 -0.0907962 0 
-0.26671 -0.13409 0 
-0.294581 -0.0723821 0 
-0.307365 -0.114542 0 
-0.250215 0.208195 0 
-0.265593 0.163263 0 
-0.294718 0.224341 0 
-0.310496 0.179595 0 
-0.281114 0.119399 0 
-0.295356 0.0747637 0 
-0.325778 0.136136 0 
-0.341324 0.0914304 0 
-0.309465 0.032035 0 
-0.324002 -0.010816 0 
-0.355297 0.0474064 0 
-0.369797 0.00442519 0 
-0.338826 -0.0552345 0 
-0.352235 -0.0973991 0 
-0.385518 -0.0403415 0 
-0.399105 -0.082998 0 
-0.339119 0.241035 0 
-0.35428 0.195916 0 
-0.383302 0.257095 0 
-0.399585 0.211884 0 
-0.37018 0.1525 0 
-0.386149 0.107398 0 
-0.41612 0.168536 0 
-0.430876 0.122974 0 
-0.400557 0.0636102 0 
-0.414582 0.0198208 0 
-0.446437 0.0791131 0 
-0.460885 0.0350707 0 
-0.430819 -0.0249954 0 
-0.444417 -0.0691395 0 
-0.476366 -0.00850999 0 
-0.490785 -0.0534707 0 
VECTORS velocity double
0.169745 2.51877 0 
0.650147 2.10878 0 
-0.393787 1.92391 0 
0.0795113 1.49613 0 
0.671703 2.29802 0 
0.132248 1.57539 0 
0.514174 1.35848 0 
0.029094 1.45973 0 
0.494837 1.96181 0 
0.929951 1.48327 0 
-0.0319649 1.34239 0 
0.23571 1.14216 0 
0.715441 1.60744 0 
0.739566 1.34514 0 
0.319997 1.09763 0 
0.669527 0.824621 0 
0.231058 1.94514 0 
0.389495 1.52068 0 
-0.351152 1.55154 0 
0.283568 1.35552 0 
0.169329 1.48056 0 
0.189654 1.22973 0 
0.0625098 1.49019 0 
0.0129306 1.11025 0 
0.442384 1.42275 0 
0.440174 0.962793 0 
0.415188 1.52934 0 
0.211587 1.4099 0 
0.284784 0.885757 0 
0.389968 0.866457 0 
-0.0990727 1.03328 0 
0.167365 0.657951 0 
-0.084661 1.55998 0 
0.328791 0.912941 0 
-0.213525 1.40896 0 
0.165546 0.840794 0 
0.315627 1.17311 0 
0.0276951 0.613908 0 
0.0527073 1.26096 0 
-0.130809 0.641902 0 
0.0472009 0.795742 0 
0.142502 0.847786 0 
-0.0553929 0.579349 0 
-0.0394827 0.634363 0 
0.104317 0.509473 0 
-0.0474971 0.111073 0 
-0.142229 0.510848 0 
-0.0787288 0.412423 0 
-0.0603966 1.20358 0 
0.329528 0.700823 0 
-0.404188 0.799902 0 
-0.212453 0.341343 0 
0.244729 1.06789 0 
0.28603 0.38823 0 
-0.184607 0.250609 0 
-0.173808 0.0386519 0 
0.438765 0.433695 0 
0.209084 0.506214 0 
-0.026739 0.200936 0 
-0.0392866 -0.170699 0 
-0.0298346 0.628632 0 
0.367889 0.122355 0 
-0.264843 0.059177 0 
-0.142241 -0.447394 0 
SCALARS mass double 1
LOOKUP_TABLE default
0.625
0.625
0.625
0.625
0.625
0.625
0.625
0.625
0.625
0.625
0.625
0.625
0.625
0.625
0.625
0.625
0.625
0.625
0.625
0.625
0.625
0.625
0.625
0.625
0.625
0.625
0.625
0.625
0.625
0.625
0.625
0.625
0.625
0.625
0.625
0.625
0.625
0.625
0.625
0.625
0.625
0.625
0.625
0.625
0.625
0.625
0.625
0.625
0.625
0.625
0.625
0.625
0.625
0.625
0.625
0.625
0.625
0.625
0.625
0.625
0.625
0.625
0.625
0.625
SCALARS volume double 1
LOOKUP_TABLE default
0.000620832
0.000633553
0.000607088
0.000630823
0.000645318
0.000619724
0.000648927
0.000614826
0.000632212
0.000625736
0.000650228
0.000602637
0.000645897
0.000614318
0.000647608
0.000631522
0.000619871
0.000621951
0.000606233
0.000622114
0.00062282
0.000638073
0.000623592
0.000620346
0.000635454
0.000610844
0.000603115
0.000630374
0.0006254
0.000514849
0.00061509
0.000515041
0.000624675
0.000622062
0.00064146
0.00061773
0.000612018
0.000638004
0.000623489
0.000627207
0.000584815
0.00059054
0.000600564
0.000608523
0.00061741
0.000548453
0.000648529
0.000491354
0.000625657
0.000608004
0.000632396
0.000621966
0.00063304
0.000609282
0.000623081
0.000630882
0.00060728
0.000627642
0.000596991
0.000617832
0.000613695
0.000584617
0.000623899
0.000593671
VECTORS momentum double
0.106091 1.57423 0 
0.406342 1.31798 0 
-0.246117 1.20244 0 
0.0496946 0.935083 0 
0.419815 1.43626 0 
0.0826551 0.98462 0 
0.321359 0.849047 0 
0.0181838 0.912331 0 
0.309273 1.22613 0 
0.581219 0.927043 0 
-0.019978 0.838992 0 
0.147319 0.713852 0 
0.447151 1.00465 0 
0.462229 0.840715 0 
0.199998 0.686021 0 
0.418454 0.515388 0 
0.144411 1.21571 0 
0.243435 0.950423 0 
-0.21947 0.96971 0 
0.17723 0.847198 0 
0.105831 0.925347 0 
0.118534 0.768584 0 
0.0390686 0.93137 0 
0.00808164 0.693905 0 
0.27649 0.889216 0 
0.275109 0.601746 0 
0.259493 0.955835 0 
0.132242 0.881188 0 
0.17799 0.553598 0 
0.24373 0.541535 0 
-0.0619205 0.645799 0 
0.104603 0.411219 0 
-0.0529131 0.97499 0 
0.205494 0.570588 0 
-0.133453 0.880599 0 
0.103466 0.525496 0 
0.197267 0.733194 0 
0.0173094 0.383692 0 
0.0329421 0.788098 0 
-0.0817555 0.401189 0 
0.0295006 0.497339 0 
0.0890636 0.529866 0 
-0.0346206 0.362093 0 
-0.0246767 0.396477 0 
0.0651979 0.31842 0 
-0.0296857 0.0694204 0 
-0.0888929 0.31928 0 
-0.0492055 0.257764 0 
-0.0377479 0.752237 0 
0.205955 0.438014 0 
-0.252618 0.499939 0 
-0.132783 0.21334 0 
0.152955 0.667429 0 
0.178768 0.242643 0 
-0.11538 0.156631 0 
-0.10863 0.0241574 0 
0.274228 0.271059 0 
0.130678 0.316384 0 
-0.0167119 0.125585 0 
-0.0245541 -0.106687 0 
-0.0186466 0.392895 0 
0.22993 0.0764722 0 
-0.165527 0.0369856 0 
-0.0889008 -0.279621 0 
VECTORS body_force double
0 -9.81 0 
0 -9.81 0 
0 -9.81 0 
0 -9.81 0 
0 -9.81 0 
0 -9.81 0 
0 -9.81 0 
0 -9.81 0 
0 -9.81 0 
0 -9.81 0 
0 -9.81 0 
0 -9.81 0 
0 -9.81 0 
0 -9.81 0 
0 -9.81 0 
0 -9.81 0 
0 -9.81 0 
0 -9.81 0 
0 -9.81 0 
0 -9.81 0 
0 -9.81 0 
0 -9.81 0 
0 -9.81 0 
0 -9.81 0 
0 -9.81 0 
0 -9.81 0 
0 -9.81 0 
0 -9.81 0 
0 -9.81 0 
0 -9.81 0 
0 -9.81 0 
0 -9.81 0 
0 -9.81 0 
0 -9.81 0 
0 -9.81 0 
0 -9.81 0 
0 -9.81 0 
0 -9.81 0 
0 -9.81 0 
0 -9.81 0 
0 -9.81 0 
0 -9.81 0 
0 -9.81 0 
0 -9.81 0 
0 -9.81 0 
0 -9.81 0 
0 -9.81 0 
0 -9.81 0 
0 -9.81 0 
0 -9.81 0 
0 -9.81 0 
0 -9.81 0 
0 -9.81 0 
0 -9.81 0 
0 -9.81 0 
0 -9.81 0 
0 -9.81 0 
0 -9.81 0 
0 -9.81 0 
0 -9.81 0 
0 -9.81 0 
0 -9.81 0 
0 -9.81 0 
0 -9.81 0 
TENSORS cauchy_stress double
-1295.46 456.856 0
456.856 8.64716 0
0 0 0

766.358 848.183 0
848.183 1847.54 0
0 0 0

-3229.38 2360.53 0
2360.53 -2362.57 0
0 0 0

1314 -3718.85 0
-3718.85 469.395 0
0 0 0

2796.84 2264.5 0
2264.5 3355.39 0
0 0 0

-2490.04 -112.19 0
-112.19 859.791 0
0 0 0

5776.89 712.369 0
712.369 1447.87 0
0 0 0

-3736.06 -5453.48 0
-5453.48 579.698 0
0 0 0

-1624.23 -279.906 0
-279.906 3830.71 0
0 0 0

1574.72 1825.28 0
1825.28 -1348.5 0
0 0 0

-2393.24 3114.85 0
3114.85 10003.2 0
0 0 0

-3659.84 -16.3815 0
-16.3815 -3347.35 0
0 0 0

3744.86 -303.058 0
-303.058 2579.78 0
0 0 0

-1189.15 1203.75 0
1203.75 -2126.12 0
0 0 0

1263.75 -1215.81 0
-1215.81 5569.57 0
0 0 0

-1561.89 3441.7 0
3441.7 3558.22 0
0 0 0

-896.315 -30.8581 0
-30.8581 -688.368 0
0 0 0

-5430.17 -1129.31 0
-1129.31 4489.73 0
0 0 0

-3801.34 -976.214 0
-976.214 -2061.66 0
0 0 0

-2330.39 -2531.99 0
-2531.99 1440.35 0
0 0 0

-1180.71 -3040.67 0
-3040.67 508.76 0
0 0 0

1568.96 -2701.24 0
-2701.24 2411.93 0
0 0 0

-2362.49 -3854.69 0
-3854.69 1928.89 0
0 0 0

-2192.09 -1474.26 0
-1474.26 754.799 0
0 0 0

558.767 -3698.69 0
-3698.69 2631.3 0
0 0 0

-6496.21 -4680.82 0
-4680.82 2090.46 0
0 0 0

-7077.3 -7113.09 0
-7113.09 222.707 0
0 0 0

-2343.52 -5964.41 0
-5964.41 3989.95 0
0 0 0

-5202.54 -760.143 0
-760.143 5325.69 0
0 0 0

-26514.6 -5298 0
-5298 -10769.5 0
0 0 0

-6113.78 -5158.7 0
-5158.7 3040 0
0 0 0

-21041.3 -14049.6 0
-14049.6 -16171.4 0
0 0 0

98.2745 -586.366 0
-586.366 -198.27 0
0 0 0

-1072.69 -779.791 0
-779.791 166.602 0
0 0 0

1269.62 -147.117 0
-147.117 3729.45 0
0 0 0

-3032 -3030.13 0
-3030.13 781.83 0
0 0 0

-2016.45 -2130.56 0
-2130.56 -2020.22 0
0 0 0

946.309 -7062.54 0
-7062.54 3013.89 0
0 0 0

545.917 -1288.65 0
-1288.65 -1011.47 0
0 0 0

-25.0217 -2402.15 0
-2402.15 703.023 0
0 0 0

-2798.61 -4212.34 0
-4212.34 -9981.27 0
0 0 0

-4225.88 -4602.2 0
-4602.2 -6680.83 0
0 0 0

-3372.87 -4273.83 0
-4273.83 -4296.67 0
0 0 0

-613.753 -2383.94 0
-2383.94 -4524.28 0
0 0 0

885.827 -1631.95 0
-1631.95 -3235.45 0
0 0 0

-4706.73 -10149.7 0
-10149.7 -20418.2 0
0 0 0

3702.41 -1198.27 0
-1198.27 3404.37 0
0 0 0

-17893.5 -8026.09 0
-8026.09 -28373.1 0
0 0 0

235.925 -257.426 0
-257.426 -33.8105 0
0 0 0

-3186.07 -900.798 0
-900.798 -2115.83 0
0 0 0

839.315 -76.4881 0
-76.4881 1422.95 0
0 0 0

-444.458 -442.56 0
-442.56 -491.358 0
0 0 0

2291.76 -1508.86 0
-1508.86 166.263 0
0 0 0

-3284.39 -937.398 0
-937.398 -1613.73 0
0 0 0

-600.963 -1111.71 0
-1111.71 9.56606 0
0 0 0

1948.67 -682.793 0
-682.793 -147.217 0
0 0 0

-3321.39 -4337.51 0
-4337.51 -2209.62 0
0 0 0

3787.33 -757.001 0
-757.001 -2976.16 0
0 0 0

-2505.85 -532.181 0
-532.181 -6311.26 0
0 0 0

205.176 -325.55 0
-325.55 -2423.58 0
0 0 0

300.69 -781.724 0
-781.724 -3811.05 0
0 0 0

-4184.92 -3591.32 0
-3591.32 -8660.34 0
0 0 0

-34.8513 -832.576 0
-832.576 -304.08 0
0 0 0

-684.272 383.712 0
383.712 -9205.31 0
0 0 0

TENSORS velocity_gradient double
-0.643563 -5.5197 0
10.0377 -1.34095 0
0 0 0

0.936715 -4.45837 0
9.83416 0.390416 0
0 0 0

-1.14052 -4.80263 0
9.53967 -0.622321 0
0 0 0

-0.202744 -3.45792 0
10.0869 -0.221362 0
0 0 0

2.95427 -2.96525 0
9.11247 -0.143682 0
0 0 0

2.10861 -4.13585 0
7.46132 0.246712 0
0 0 0

1.37694 -1.72484 0
7.82366 -0.582432 0
0 0 0

1.88644 -1.35141 0
7.65282 -0.707645 0
0 0 0

0.682527 -5.1197 0
7.43257 -0.0664041 0
0 0 0

-0.502696 -5.22957 0
7.27466 -0.0144995 0
0 0 0

1.61594 -6.15441 0
7.51643 -0.15936 0
0 0 0

2.71366 -6.37872 0
8.09258 -0.0135886 0
0 0 0

1.18134 -3.30657 0
7.08524 -0.438406 0
0 0 0

1.69221 -4.79624 0
5.65723 -2.15898 0
0 0 0

3.7257 -5.22461 0
8.50107 -0.427725 0
0 0 0

2.82424 -6.01836 0
7.14093 -3.76076 0
0 0 0

-1.33806 -4.10667 0
8.98843 -0.121627 0
0 0 0

0.0834036 -3.40429 0
8.44371 -0.319971 0
0 0 0

-1.34645 -3.0345 0
9.28104 -0.0275087 0
0 0 0

-0.700669 -2.51337 0
8.89333 -0.830865 0
0 0 0

0.909645 -1.59698 0
7.99836 -0.742817 0
0 0 0

1.45739 -0.822053 0
7.80688 -0.890152 0
0 0 0

0.793532 -1.77746 0
8.65799 -1.12985 0
0 0 0

2.30821 -1.00507 0
9.08755 -1.49903 0
0 0 0

1.33892 -0.87834 0
7.4841 -1.29646 0
0 0 0

1.78976 -5.37672 0
7.50938 0.57378 0
0 0 0

1.8244 -1.43147 0
8.28393 -2.20774 0
0 0 0

1.33963 -1.81309 0
7.48527 -2.83646 0
0 0 0

2.88318 -4.42426 0
8.13501 1.11876 0
0 0 0

7.13829 -3.40651 0
9.15152 -0.155584 0
0 0 0

3.26119 -3.04617 0
10.7725 1.08338 0
0 0 0

4.90834 -1.8098 0
9.78585 0.342816 0
0 0 0

-1.21763 -3.23077 0
9.26742 0.230419 0
0 0 0

-0.447324 -2.42238 0
8.76524 -0.54359 0
0 0 0

0.0204144 -3.49441 0
9.38932 0.0993106 0
0 0 0

-0.209592 -3.68038 0
8.88681 -0.306981 0
0 0 0

0.706393 -0.656659 0
8.81636 -0.943245 0
0 0 0

1.83045 0.16254 0
9.16392 -0.68995 0
0 0 0

-0.129674 -0.90754 0
8.60171 -0.627475 0
0 0 0

1.05104 0.9995 0
9.34618 -0.714294 0
0 0 0

1.92732 -1.84336 0
8.85333 -2.85033 0
0 0 0

1.41734 -1.66021 0
9.51198 -2.3319 0
0 0 0

0.810248 0.874301 0
8.31521 -1.46443 0
0 0 0

0.939045 -1.01787 0
8.38749 -0.821746 0
0 0 0

2.01483 -1.20124 0
10.9167 -1.25287 0
0 0 0

3.22888 0.10435 0
10.7918 -0.803717 0
0 0 0

1.5496 -0.636702 0
8.76741 0.059659 0
0 0 0

1.43423 -0.0595159 0
5.88213 -0.4971 0
0 0 0

0.235607 -4.58422 0
9.24778 -1.77021 0
0 0 0

-0.0159888 -3.90008 0
9.30979 -0.786971 0
0 0 0

0.434534 -5.15651 0
7.87589 -0.344086 0
0 0 0

1.39696 -4.18228 0
10.1296 0.0117767 0
0 0 0

1.47425 -4.02398 0
10.6566 -0.934017 0
0 0 0

1.33507 0.555599 0
10.4128 -1.77063 0
0 0 0

1.53187 -4.09779 0
10.5225 -0.762208 0
0 0 0

1.45956 -4.15027 0
10.6908 -0.640057 0
0 0 0

1.05728 0.569541 0
9.30563 -2.68632 0
0 0 0

1.7506 0.316602 0
7.84391 -2.98958 0
0 0 0

3.09982 0.165195 0
5.29965 -2.78412 0
0 0 0

2.62165 -0.197392 0
6.61263 -1.78851 0
0 0 0

1.83096 -0.798096 0
7.53587 -0.429966 0
0 0 0

1.49138 -1.04025 0
6.60757 -1.09191 0
0 0 0

2.16498 -0.695836 0
7.75073 -0.855004 0
0 0 0

2.3471 -1.82796 0
9.33593 -0.759656 0
0 0 0

SCALARS active double 1
LOOKUP_TABLE default
1
1
1
1
1
1
1
1
1
1
1
1
1
1
1
1
1
1
1
1
1
1
1
1
1
1
1
1
1
1
1
1
1
1
1
1
1
1
1
1
1
1
1
1
1
1
1
1
1
1
1
1
1
1
1
1
1
1
1
1
1
1
1
1
SCALARS extent double 1
LOOKUP_TABLE default
0.0125
0.0125
0.0125
0.0125
0.0125
0.0125
0.0125
0.0125
0.0125
0.0125
0.0125
0.0125
0.0125
0.0125
0.0125
0.0125
0.0125
0.0125
0.0125
0.0125
0.0125
0.0125
0.0125
0.0125
0.0125
0.0125
0.0125
0.0125
0.0125
0.0125
0.0125
0.0125
0.0125
0.0125
0.0125
0.0125
0.0125
0.0125
0.0125
0.0125
0.0125
0.0125
0.0125
0.0125
0.0125
0.0125
0.0125
0.0125
0.0125
0.0125
0.0125
0.0125
0.0125
0.0125
0.0125
0.0125
0.0125
0.0125
0.0125
0.0125
0.0125
0.0125
0.0125
0.0125
SCALARS pressure double 1
LOOKUP_TABLE default
643.406
-1306.95
2795.97
-891.696
-3076.12
815.125
-3612.38
1578.18
-1103.24
-113.11
-3804.99
3503.6
-3162.32
1657.64
-3416.66
-998.169
792.342
470.222
2931.5
445.018
335.976
-1990.44
216.799
718.643
-1595.03
2202.88
3427.3
-823.215
-61.5739
18642.1
1536.89
18606.3
49.9977
453.042
-2499.53
1125.09
2018.34
-1980.1
232.777
-339.001
6389.94
5453.36
3834.77
2569.01
1174.81
12562.5
-3553.39
23133.3
-101.057
2650.95
-1131.13
467.908
-1229.01
2449.06
295.699
-900.727
2765.5
-405.586
4408.55
1109.2
1755.18
6422.63
169.466
4944.79
SCALARS density double 1
LOOKUP_TABLE default
1006.71
986.5
1029.51
990.769
968.515
1008.51
963.128
1016.55
988.592
998.824
961.201
1037.11
967.647
1017.39
965.091
989.673
1008.27
1004.9
1030.96
1004.64
1003.5
979.512
1002.26
1007.5
983.548
1023.17
1036.29
991.475
999.36
1213.95
1016.11
1213.5
1000.52
1004.72
974.34
1011.77
1021.21
979.618
1002.42
996.481
1068.71
1058.35
1040.69
1027.08
1012.29
1139.57
963.719
1271.99
998.95
1027.95
988.305
1004.88
987.3
1025.8
1003.08
990.676
1029.18
995.791
1046.92
1011.6
1018.42
1069.08
1001.76
1052.77
