# vtk DataFile Version 3.0
Frame: 24, Time: 0.408
ASCII
DATASET UNSTRUCTURED_GRID
POINTS 64 double
0.931919 0.0928248 0 
0.906579 0.0946556 0 
0.934771 0.118426 0 
0.909233 0.118896 0 
0.879098 0.0971922 0 
0.853574 0.0985576 0 
0.881755 0.121603 0 
0.855218 0.124532 0 
0.826315 0.102486 0 
0.799819 0.107505 0 
0.828412 0.127701 0 
0.801713 0.13212 0 
0.775835 0.109222 0 
0.751084 0.105533 0 
0.775629 0.134049 0 
0.749151 0.131015 0 
0.936652 0.144175 0 
0.910946 0.143413 0 
0.93861 0.168864 0 
0.912898 0.167823 0 
0.885114 0.145648 0 
0.857756 0.148598 0 
0.886486 0.169272 0 
0.859043 0.171219 0 
0.829613 0.151397 0 
0.803565 0.154371 0 
0.831617 0.174694 0 
0.804192 0.178318 0 
0.776829 0.156253 0 
0.749183 0.156398 0 
0.776888 0.179158 0 
0.7505 0.181018 0 
0.936031 0.19442 0 
0.909925 0.191186 0 
0.935023 0.21869 0 
0.907412 0.215145 0 
0.883281 0.192846 0 
0.856479 0.195319 0 
0.880023 0.215423 0 
0.852776 0.218959 0 
0.829043 0.199203 0 
0.802538 0.202889 0 
0.826969 0.222331 0 
0.801218 0.226083 0 
0.775602 0.203587 0 
0.749513 0.206024 0 
0.77514 0.228855 0 
0.749767 0.231496 0 
0.926583 0.241145 0 
0.903599 0.237738 0 
0.915993 0.26506 0 
0.898012 0.26162 0 
0.878516 0.237955 0 
0.853001 0.242317 0 
0.876666 0.262486 0 
0.85364 0.266529 0 
0.828128 0.245786 0 
0.802439 0.249943 0 
0.830677 0.269505 0 
0.806575 0.27413 0 
0.776801 0.254935 0 
0.751204 0.256544 0 
0.780775 0.280308 0 
0.755149 0.282163 0 
CELLS 64 128
1 0
1 1
1 2
1 3
1 4
1 5
1 6
1 7
1 8
1 9
1 10
1 11
1 12
1 13
1 14
1 15
1 16
1 17
1 18
1 19
1 20
1 21
1 22
1 23
1 24
1 25
1 26
1 27
1 28
1 29
1 30
1 31
1 32
1 33
1 34
1 35
1 36
1 37
1 38
1 39
1 40
1 41
1 42
1 43
1 44
1 45
1 46
1 47
1 48
1 49
1 50
1 51
1 52
1 53
1 54
1 55
1 56
1 57
1 58
1 59
1 60
1 61
1 62
1 63
CELL_TYPES 64
1
1
1
1
1
1
1
1
1
1
1
1
1
1
1
1
1
1
1
1
1
1
1
1
1
1
1
1
1
1
1
1
1
1
1
1
1
1
1
1
1
1
1
1
1
1
1
1
1
1
1
1
1
1
1
1
1
1
1
1
1
1
1
1
POINT_DATA 64
VECTORS displacement double
0.319419 -0.219675 0 
0.294079 -0.242844 0 
0.297271 -0.194074 0 
0.271733 -0.218604 0 
0.266598 -0.265308 0 
0.241074 -0.288942 0 
0.244255 -0.240897 0 
0.217718 -0.262968 0 
0.213815 -0.310014 0 
0.187319 -0.329995 0 
0.190912 -0.284799 0 
0.164213 -0.30538 0 
0.163335 -0.353278 0 
0.138584 -0.381967 0 
0.138129 -0.328451 0 
0.111651 -0.356485 0 
0.274152 -0.168325 0 
0.248446 -0.194087 0 
0.25111 -0.143636 0 
0.225398 -0.169677 0 
0.222614 -0.216852 0 
0.195256 -0.238902 0 
0.198986 -0.193228 0 
0.171543 -0.216281 0 
0.167113 -0.261103 0 
0.141065 -0.283129 0 
0.144117 -0.237806 0 
0.116692 -0.259182 0 
0.114329 -0.306247 0 
0.0866826 -0.331102 0 
0.0893877 -0.283342 0 
0.0630003 -0.306482 0 
0.223531 -0.11808 0 
0.197425 -0.146314 0 
0.197523 -0.0938098 0 
0.169912 -0.122355 0 
0.170781 -0.169654 0 
0.143979 -0.192181 0 
0.142523 -0.147077 0 
0.115276 -0.168541 0 
0.116543 -0.213297 0 
0.0900377 -0.234611 0 
0.0894688 -0.190169 0 
0.0637181 -0.211417 0 
0.063102 -0.258913 0 
0.0370132 -0.281476 0 
0.0376395 -0.233645 0 
0.0122673 -0.256004 0 
0.164083 -0.071355 0 
0.141099 -0.0997616 0 
0.128493 -0.0474404 0 
0.110512 -0.0758795 0 
0.116016 -0.124545 0 
0.0905013 -0.145183 0 
0.0891658 -0.100014 0 
0.0661402 -0.120971 0 
0.065628 -0.166714 0 
0.0399388 -0.187557 0 
0.0431769 -0.142995 0 
0.0190753 -0.16337 0 
0.0143014 -0.207565 0 
-0.0112956 -0.230956 0 
-0.00672528 -0.182192 0 
-0.0323508 -0.205337 0 
VECTORS velocity double
-2.33249 -0.209902 0 
-1.91095 0.235881 0 
-1.52151 -0.241207 0 
-1.68586 0.494724 0 
-2.13191 0.379565 0 
-2.15454 -0.19405 0 
-1.32717 0.0445915 0 
-1.49848 -0.281779 0 
-2.15719 -0.00702068 0 
-2.14986 0.155726 0 
-1.72219 0.275262 0 
-1.72505 0.535541 0 
-1.52782 0.176505 0 
-1.82319 0.500625 0 
-1.76931 0.772229 0 
-1.82099 0.90069 0 
-1.58284 -0.522945 0 
-2.01856 0.953988 0 
-1.67205 -0.241363 0 
-1.75015 0.731118 0 
-1.47056 0.128381 0 
-1.17224 -0.333789 0 
-1.7366 0.406831 0 
-1.70475 0.0867744 0 
-0.793538 -0.0594854 0 
-0.623736 -0.174623 0 
-1.44505 0.474301 0 
-1.08103 0.412871 0 
-0.983645 -0.37216 0 
-1.3419 0.639878 0 
-0.965283 -0.170728 0 
-1.31218 0.707109 0 
-1.58296 -0.504502 0 
-1.12386 0.450108 0 
-0.0178682 0.809067 0 
-0.99181 0.744514 0 
-0.75977 0.472643 0 
-0.906829 0.401762 0 
-0.904046 0.330284 0 
-1.12889 0.558673 0 
-1.16806 0.896882 0 
-1.13583 0.70345 0 
-1.05924 1.006 0 
-1.26377 0.562976 0 
-1.13703 0.457737 0 
-1.1779 0.612866 0 
-1.75096 0.693138 0 
-1.39553 0.330151 0 
0.0151669 0.427251 0 
-0.519623 0.731267 0 
-0.0552369 0.25544 0 
0.0305508 0.261347 0 
-1.06634 0.0833715 0 
-1.05581 0.708861 0 
-0.416718 0.173773 0 
-0.46332 0.370853 0 
-1.16363 1.1011 0 
-1.22431 0.911707 0 
-0.538824 0.764749 0 
-0.250547 0.538482 0 
-1.12905 1.27845 0 
-0.727437 0.880301 0 
-0.34178 0.640513 0 
-0.228957 1.02489 0 
SCALARS mass double 1
LOOKUP_TABLE default
0.625
0.625
0.625
0.625
0.625
0.625
0.625
0.625
0.625
0.625
0.625
0.625
0.625
0.625
0.625
0.625
0.625
0.625
0.625
0.625
0.625
0.625
0.625
0.625
0.625
0.625
0.625
0.625
0.625
0.625
0.625
0.625
0.625
0.625
0.625
0.625
0.625
0.625
0.625
0.625
0.625
0.625
0.625
0.625
0.625
0.625
0.625
0.625
0.625
0.625
0.625
0.625
0.625
0.625
0.625
0.625
0.625
0.625
0.625
0.625
0.625
0.625
0.625
0.625
SCALARS volume double 1
LOOKUP_TABLE default
0.000628303
0.000647545
0.000624024
0.000628664
0.00063756
0.000663912
0.000622651
0.000647502
0.000634199
0.000600556
0.000640909
0.000592629
0.000614028
0.000605354
0.000630359
0.000629555
0.00063372
0.000640381
0.000643944
0.000610492
0.000608101
0.000626428
0.000633458
0.00061832
0.000630866
0.000597629
0.000669627
0.000643578
0.00061347
0.000637639
0.000636849
0.000628509
0.000621275
0.000602791
0.000598936
0.00063558
0.00060275
0.000633259
0.000596057
0.000613306
0.000629112
0.000634285
0.000589413
0.000601394
0.00063566
0.000616338
0.000649504
0.000636982
0.000498854
0.000575917
0.000376111
0.00050222
0.000568828
0.000587846
0.000562237
0.000589589
0.000582742
0.000622396
0.00058201
0.000619308
0.000643014
0.00062199
0.000625753
0.000643803
VECTORS momentum double
-1.45781 -0.131189 0 
-1.19434 0.147425 0 
-0.950942 -0.150754 0 
-1.05366 0.309202 0 
-1.33244 0.237228 0 
-1.34659 -0.121281 0 
-0.829483 0.0278697 0 
-0.936551 -0.176112 0 
-1.34824 -0.00438793 0 
-1.34366 0.0973285 0 
-1.07637 0.172039 0 
-1.07816 0.334713 0 
-0.954885 0.110316 0 
-1.13949 0.31289 0 
-1.10582 0.482643 0 
-1.13812 0.562931 0 
-0.989278 -0.326841 0 
-1.2616 0.596242 0 
-1.04503 -0.150852 0 
-1.09384 0.456948 0 
-0.9191 0.0802382 0 
-0.732652 -0.208618 0 
-1.08537 0.254269 0 
-1.06547 0.054234 0 
-0.495961 -0.0371784 0 
-0.389835 -0.109139 0 
-0.903158 0.296438 0 
-0.675644 0.258044 0 
-0.614778 -0.2326 0 
-0.838689 0.399924 0 
-0.603302 -0.106705 0 
-0.820115 0.441943 0 
-0.989353 -0.315314 0 
-0.702412 0.281318 0 
-0.0111676 0.505667 0 
-0.619882 0.465321 0 
-0.474856 0.295402 0 
-0.566768 0.251101 0 
-0.565029 0.206428 0 
-0.705557 0.349171 0 
-0.730035 0.560551 0 
-0.709895 0.439656 0 
-0.662027 0.628748 0 
-0.789854 0.35186 0 
-0.710645 0.286085 0 
-0.736185 0.383041 0 
-1.09435 0.433211 0 
-0.872209 0.206344 0 
0.00947929 0.267032 0 
-0.324764 0.457042 0 
-0.0345231 0.15965 0 
0.0190943 0.163342 0 
-0.666463 0.0521072 0 
-0.659881 0.443038 0 
-0.260449 0.108608 0 
-0.289575 0.231783 0 
-0.727268 0.688185 0 
-0.765195 0.569817 0 
-0.336765 0.477968 0 
-0.156592 0.336552 0 
-0.705657 0.799033 0 
-0.454648 0.550188 0 
-0.213613 0.400321 0 
-0.143098 0.640558 0 
VECTORS body_force double
0 -9.81 0 
0 -9.81 0 
0 -9.81 0 
0 -9.81 0 
0 -9.81 0 
0 -9.81 0 
0 -9.81 0 
0 -9.81 0 
0 -9.81 0 
0 -9.81 0 
0 -9.81 0 
0 -9.81 0 
0 -9.81 0 
0 -9.81 0 
0 -9.81 0 
0 -9.81 0 
0 -9.81 0 
0 -9.81 0 
0 -9.81 0 
0 -9.81 0 
0 -9.81 0 
0 -9.81 0 
0 -9.81 0 
0 -9.81 0 
0 -9.81 0 
0 -9.81 0 
0 -9.81 0 
0 -9.81 0 
0 -9.81 0 
0 -9.81 0 
0 -9.81 0 
0 -9.81 0 
0 -9.81 0 
0 -9.81 0 
0 -9.81 0 
0 -9.81 0 
0 -9.81 0 
0 -9.81 0 
0 -9.81 0 
0 -9.81 0 
0 -9.81 0 
0 -9.81 0 
0 -9.81 0 
0 -9.81 0 
0 -9.81 0 
0 -9.81 0 
0 -9.81 0 
0 -9.81 0 
0 -9.81 0 
0 -9.81 0 
0 -9.81 0 
0 -9.81 0 
0 -9.81 0 
0 -9.81 0 
0 -9.81 0 
0 -9.81 0 
0 -9.81 0 
0 -9.81 0 
0 -9.81 0 
0 -9.81 0 
0 -9.81 0 
0 -9.81 0 
0 -9.81 0 
0 -9.81 0 
TENSORS cauchy_stress double
673.291 3517.97 0
3517.97 340.257 0
0 0 0

7239.14 -209.592 0
-209.592 -424.311 0
0 0 0

-754.174 -747.537 0
-747.537 453.505 0
0 0 0

2864 -1081.57 0
-1081.57 -1739.87 0
0 0 0

5144.68 2589 0
2589 -1318.52 0
0 0 0

8941.88 -683.992 0
-683.992 2673.1 0
0 0 0

905.449 -4397.92 0
-4397.92 -1629.68 0
0 0 0

3813.13 -3333.88 0
-3333.88 2988.91 0
0 0 0

1667.87 -4979.18 0
-4979.18 1141.89 0
0 0 0

-4429.05 -3285.18 0
-3285.18 -3243.28 0
0 0 0

4595.3 -6912.47 0
-6912.47 238.444 0
0 0 0

-1622.99 -2704.81 0
-2704.81 -8604.52 0
0 0 0

-1170.42 -1570.74 0
-1570.74 -2235.47 0
0 0 0

-5571.33 1.54292 0
1.54292 -570.671 0
0 0 0

5059.87 -333.09 0
-333.09 -3418.09 0
0 0 0

-489.753 -3301.59 0
-3301.59 1886.24 0
0 0 0

2544.14 3789.47 0
3789.47 120.361 0
0 0 0

6261.62 3853.01 0
3853.01 -1586.19 0
0 0 0

2377.79 -2619.28 0
-2619.28 3364.54 0
0 0 0

1065.84 -613.273 0
-613.273 -5582.53 0
0 0 0

45.5201 513.639 0
513.639 -5316.75 0
0 0 0

8886.75 2370.47 0
2370.47 -8447.96 0
0 0 0

4126.54 -7890.3 0
-7890.3 -1541.49 0
0 0 0

4357.63 -5803.72 0
-5803.72 -6424.13 0
0 0 0

5025.91 -1633.52 0
-1633.52 -3229.44 0
0 0 0

-897.08 -3272.66 0
-3272.66 -7714.83 0
0 0 0

12699.1 -5797.02 0
-5797.02 564.313 0
0 0 0

6024.68 -5832.85 0
-5832.85 -391.797 0
0 0 0

6664.41 299.057 0
299.057 -10245.4 0
0 0 0

3013.1 -2097.54 0
-2097.54 836.885 0
0 0 0

8246.13 224.074 0
224.074 -4634.41 0
0 0 0

753.246 -3482.7 0
-3482.7 323.408 0
0 0 0

-290.881 1116.26 0
1116.26 -858.799 0
0 0 0

-494.109 -3711.49 0
-3711.49 -6463.87 0
0 0 0

3986.99 2730.7 0
2730.7 -12178.8 0
0 0 0

7745.45 -976.538 0
-976.538 -4517.39 0
0 0 0

2553.89 -10659.7 0
-10659.7 -9524.76 0
0 0 0

4854.76 -12202.3 0
-12202.3 -2330.03 0
0 0 0

2061.99 -7469.65 0
-7469.65 -11180.4 0
0 0 0

2068.43 -6144.02 0
-6144.02 -5700.8 0
0 0 0

4453.49 -10167.5 0
-10167.5 -3192.34 0
0 0 0

5162.68 -11220.5 0
-11220.5 -2326.82 0
0 0 0

-5156.26 -6531.52 0
-6531.52 -6117.75 0
0 0 0

1465.16 -3729.94 0
-3729.94 -8869.12 0
0 0 0

2778.59 -4658.06 0
-4658.06 473.777 0
0 0 0

-624.669 -4058.74 0
-4058.74 -2059.17 0
0 0 0

2443.86 -3714.4 0
-3714.4 4951.72 0
0 0 0

222.161 1934.92 0
1934.92 3429.71 0
0 0 0

-25467.3 -12504.5 0
-12504.5 -17886.2 0
0 0 0

-3865.85 -2182.7 0
-2182.7 -11862.5 0
0 0 0

-56233 -23424.5 0
-23424.5 -41433.7 0
0 0 0

-25387.3 -8454.92 0
-8454.92 -16672.8 0
0 0 0

-7332.12 -10656.4 0
-10656.4 -10778.2 0
0 0 0

-2715.65 -5509.72 0
-5509.72 -9070.36 0
0 0 0

-15956.6 -8819.4 0
-8819.4 -4394.9 0
0 0 0

-10166.4 -1161.9 0
-1161.9 -1050.23 0
0 0 0

-4014.81 -4900.63 0
-4900.63 -9448.03 0
0 0 0

565.487 -4659.67 0
-4659.67 -1368.51 0
0 0 0

-8651.45 1781.24 0
1781.24 -5053.26 0
0 0 0

668.297 -2548.44 0
-2548.44 -2427.74 0
0 0 0

1403.97 -1998.42 0
-1998.42 4060.41 0
0 0 0

1825.16 2853.83 0
2853.83 -2753.69 0
0 0 0

1736.67 3649.29 0
3649.29 -1505.27 0
0 0 0

2323.46 4141.01 0
4141.01 3376.83 0
0 0 0

TENSORS velocity_gradient double
-2.39249 -0.17662 0
-6.46871 0.700713 0
0 0 0

-2.38632 0.20743 0
-6.49654 0.950906 0
0 0 0

-1.79642 4.9416 0
-7.5237 1.18815 0
0 0 0

-1.78687 4.06049 0
-7.539 2.59966 0
0 0 0

0.560532 3.05624 0
3.25516 -0.703825 0
0 0 0

0.475495 6.34996 0
2.99402 -2.90358 0
0 0 0

-2.25533 5.62818 0
5.07713 2.20307 0
0 0 0

-2.61623 8.76562 0
5.26332 0.584434 0
0 0 0

0.968993 10.9468 0
-3.01607 -0.560763 0
0 0 0

-0.254454 12.9093 0
-4.83974 -0.113697 0
0 0 0

-1.27269 11.1266 0
-3.23635 0.0588846 0
0 0 0

-0.890132 12.9288 0
-4.15101 -0.0989275 0
0 0 0

-1.03774 11.1584 0
-7.34802 -0.402157 0
0 0 0

1.89882 8.50675 0
-5.1362 -0.56658 0
0 0 0

1.50289 11.1091 0
-7.01796 -0.408562 0
0 0 0

3.00271 9.34564 0
-2.86856 -0.879361 0
0 0 0

-0.918659 5.25704 0
-8.93086 1.15512 0
0 0 0

-0.944278 4.11612 0
-8.88882 2.51054 0
0 0 0

-0.808372 12.4654 0
-9.19496 2.96401 0
0 0 0

-0.801689 12.6003 0
-9.19968 2.86874 0
0 0 0

-4.85957 5.95672 0
6.3862 2.66342 0
0 0 0

-4.80756 7.73473 0
6.29384 3.38383 0
0 0 0

-2.76265 10.8402 0
4.54258 4.27338 0
0 0 0

-2.45163 6.67578 0
4.29555 7.58093 0
0 0 0

-2.48423 6.45767 0
-2.98096 4.89751 0
0 0 0

-1.85744 3.17452 0
-3.28457 5.81429 0
0 0 0

-0.857639 3.60242 0
-2.16154 8.15293 0
0 0 0

-0.371042 1.23965 0
-2.09253 7.04087 0
0 0 0

2.90105 1.87682 0
-5.98541 3.80445 0
0 0 0

1.9837 2.74226 0
-1.46714 0.361239 0
0 0 0

1.98491 1.61093 0
-2.93393 3.92642 0
0 0 0

1.75285 2.5491 0
0.274452 0.523766 0
0 0 0

-0.886006 12.7433 0
-9.04795 3.08104 0
0 0 0

-0.923743 12.6175 0
-9.11348 2.85663 0
0 0 0

2.86909 18.4679 0
-5.2974 5.71798 0
0 0 0

2.09898 12.7329 0
-6.05568 0.0710534 0
0 0 0

0.788597 10.3173 0
1.72199 4.68865 0
0 0 0

1.1428 6.27687 0
1.42945 7.44566 0
0 0 0

3.56325 8.93874 0
-0.774118 0.395024 0
0 0 0

3.56509 6.07498 0
-1.34767 3.21074 0
0 0 0

1.15057 3.9745 0
-1.44566 6.73349 0
0 0 0

1.28639 3.18948 0
-1.21646 6.33908 0
0 0 0

2.14655 4.81279 0
-2.34609 4.87061 0
0 0 0

1.45845 4.1021 0
-1.54137 6.10769 0
0 0 0

0.915491 4.24442 0
-0.156616 5.24124 0
0 0 0

1.26221 6.2357 0
2.63657 5.29499 0
0 0 0

-0.456336 5.16539 0
0.705815 5.74036 0
0 0 0

0.280542 6.4709 0
1.07483 5.60459 0
0 0 0

7.52641 16.6347 0
-0.711609 3.91291 0
0 0 0

6.67625 11.9865 0
-1.70231 -0.443143 0
0 0 0

7.02494 6.69439 0
2.52371 -4.45596 0
0 0 0

7.77308 8.82341 0
-2.64077 -5.36008 0
0 0 0

6.01246 8.75407 0
-3.16027 0.57494 0
0 0 0

5.77953 6.081 0
-3.57819 3.20401 0
0 0 0

7.91157 8.3693 0
-5.57347 -3.86861 0
0 0 0

7.16077 7.45781 0
-5.49462 -1.93826 0
0 0 0

2.88678 5.24277 0
-3.54791 4.03884 0
0 0 0

1.85885 6.67865 0
-2.57277 2.00731 0
0 0 0

1.89564 8.37154 0
-2.98071 -2.30634 0
0 0 0

1.59779 9.94269 0
-2.76165 -3.46186 0
0 0 0

-1.4997 9.12525 0
0.447734 0.768921 0
0 0 0

-0.557846 9.23934 0
-0.921328 4.09168 0
0 0 0

-1.04569 10.0283 0
-3.4081 -0.84876 0
0 0 0

-0.874568 9.48154 0
-3.92274 3.27193 0
0 0 0

SCALARS active double 1
LOOKUP_TABLE default
1
1
1
1
1
1
1
1
1
1
1
1
1
1
1
1
1
1
1
1
1
1
1
1
1
1
1
1
1
1
1
1
1
1
1
1
1
1
1
1
1
1
1
1
1
1
1
1
1
1
1
1
1
1
1
1
1
1
1
1
1
1
1
1
SCALARS extent double 1
LOOKUP_TABLE default
0.0125
0.0125
0.0125
0.0125
0.0125
0.0125
0.0125
0.0125
0.0125
0.0125
0.0125
0.0125
0.0125
0.0125
0.0125
0.0125
0.0125
0.0125
0.0125
0.0125
0.0125
0.0125
0.0125
0.0125
0.0125
0.0125
0.0125
0.0125
0.0125
0.0125
0.0125
0.0125
0.0125
0.0125
0.0125
0.0125
0.0125
0.0125
0.0125
0.0125
0.0125
0.0125
0.0125
0.0125
0.0125
0.0125
0.0125
0.0125
0.0125
0.0125
0.0125
0.0125
0.0125
0.0125
0.0125
0.0125
0.0125
0.0125
0.0125
0.0125
0.0125
0.0125
0.0125
0.0125
SCALARS pressure double 1
LOOKUP_TABLE default
-506.774
-3407.41
150.334
-562.062
-1913.08
-5807.49
362.113
-3401.02
-1404.88
3836.17
-2416.87
5113.76
1702.95
3071
-820.892
-698.245
-1332.25
-2337.71
-2871.17
2258.34
2635.61
-219.396
-1292.52
1033.25
-898.235
4305.95
-6631.71
-2816.44
1790.48
-1924.99
-1805.86
-538.327
574.84
3478.99
4095.9
-1614.03
3485.44
-1262.37
4559.22
1816.19
-630.574
-1417.93
5637.01
3701.98
-1626.18
1341.92
-3697.79
-1825.93
21676.7
7864.18
48833.4
21030.1
9055.15
5893
10175.7
5608.3
6731.42
401.513
6852.35
879.72
-2732.19
464.268
-115.703
-2850.14
SCALARS density double 1
LOOKUP_TABLE default
994.743
965.183
1001.56
994.172
980.301
941.39
1003.77
965.248
985.495
1040.7
975.178
1054.62
1017.87
1032.45
991.499
992.765
986.24
975.981
970.581
1023.76
1027.79
997.721
986.648
1010.8
990.702
1045.8
933.355
971.134
1018.8
980.179
981.394
994.417
1006
1036.84
1043.52
983.354
1036.91
986.957
1048.56
1019.07
993.463
985.362
1060.38
1039.25
983.23
1014.05
962.273
981.189
1252.87
1085.23
1661.74
1244.47
1098.75
1063.2
1111.63
1060.06
1072.52
1004.18
1073.87
1009.19
971.985
1004.84
998.797
970.794
