# vtk DataFile Version 3.0
Frame: 39, Time: 0.663
ASCII
DATASET UNSTRUCTURED_GRID
POINTS 64 double
0.681687 0.160031 0 
0.66273 0.142449 0 
0.662252 0.180307 0 
0.644169 0.163555 0 
0.640464 0.126813 0 
0.622644 0.108358 0 
0.624249 0.147637 0 
0.605207 0.129843 0 
0.60075 0.0917767 0 
0.578586 0.0747836 0 
0.584448 0.112696 0 
0.564357 0.0965356 0 
0.557956 0.0596131 0 
0.533432 0.0449969 0 
0.543925 0.080899 0 
0.522108 0.0652424 0 
0.642143 0.200011 0 
0.624515 0.181126 0 
0.628063 0.220513 0 
0.609354 0.20232 0 
0.607479 0.164534 0 
0.588426 0.147586 0 
0.591877 0.18391 0 
0.571901 0.166162 0 
0.566858 0.131828 0 
0.549474 0.115731 0 
0.551546 0.152163 0 
0.532902 0.13517 0 
0.530108 0.0994745 0 
0.508207 0.0838347 0 
0.513589 0.117477 0 
0.493472 0.101721 0 
0.610635 0.239981 0 
0.591834 0.221589 0 
0.594091 0.260181 0 
0.573965 0.240707 0 
0.574557 0.204576 0 
0.555054 0.186527 0 
0.556449 0.221947 0 
0.536806 0.204298 0 
0.53429 0.170282 0 
0.514879 0.153335 0 
0.51769 0.187132 0 
0.497584 0.170154 0 
0.495422 0.135349 0 
0.475551 0.118643 0 
0.47794 0.153187 0 
0.458684 0.13652 0 
0.576513 0.277598 0 
0.556783 0.257885 0 
0.556581 0.296147 0 
0.53859 0.275939 0 
0.538691 0.240132 0 
0.519328 0.223527 0 
0.520781 0.25836 0 
0.501926 0.240508 0 
0.50033 0.206331 0 
0.480771 0.188526 0 
0.482446 0.223876 0 
0.463305 0.208051 0 
0.460876 0.172285 0 
0.441286 0.154401 0 
0.442965 0.191172 0 
0.424317 0.173542 0 
CELLS 64 128
1 0
1 1
1 2
1 3
1 4
1 5
1 6
1 7
1 8
1 9
1 10
1 11
1 12
1 13
1 14
1 15
1 16
1 17
1 18
1 19
1 20
1 21
1 22
1 23
1 24
1 25
1 26
1 27
1 28
1 29
1 30
1 31
1 32
1 33
1 34
1 35
1 36
1 37
1 38
1 39
1 40
1 41
1 42
1 43
1 44
1 45
1 46
1 47
1 48
1 49
1 50
1 51
1 52
1 53
1 54
1 55
1 56
1 57
1 58
1 59
1 60
1 61
1 62
1 63
CELL_TYPES 64
1
1
1
1
1
1
1
1
1
1
1
1
1
1
1
1
1
1
1
1
1
1
1
1
1
1
1
1
1
1
1
1
1
1
1
1
1
1
1
1
1
1
1
1
1
1
1
1
1
1
1
1
1
1
1
1
1
1
1
1
1
1
1
1
POINT_DATA 64
VECTORS displacement double
0.0691873 -0.152469 0 
0.0502301 -0.195051 0 
0.0247518 -0.132193 0 
0.00666902 -0.173945 0 
0.0279636 -0.235687 0 
0.0101442 -0.279142 0 
-0.0132507 -0.214863 0 
-0.0322931 -0.257657 0 
-0.0117503 -0.320723 0 
-0.0339137 -0.362716 0 
-0.0530516 -0.299804 0 
-0.0731432 -0.340964 0 
-0.0545441 -0.402887 0 
-0.079068 -0.442503 0 
-0.0935754 -0.381601 0 
-0.115392 -0.422258 0 
-0.020357 -0.112489 0 
-0.0379849 -0.156374 0 
-0.0594366 -0.0919869 0 
-0.0781456 -0.13518 0 
-0.0550212 -0.197966 0 
-0.0740739 -0.239914 0 
-0.0956225 -0.17859 0 
-0.115599 -0.221338 0 
-0.0956417 -0.280672 0 
-0.113026 -0.321769 0 
-0.135954 -0.260337 0 
-0.154598 -0.30233 0 
-0.132392 -0.363025 0 
-0.154293 -0.403665 0 
-0.173911 -0.345023 0 
-0.194028 -0.385779 0 
-0.101865 -0.0725194 0 
-0.120666 -0.115911 0 
-0.143409 -0.0523188 0 
-0.163535 -0.0967927 0 
-0.137943 -0.157924 0 
-0.157446 -0.200973 0 
-0.181051 -0.140553 0 
-0.200694 -0.183202 0 
-0.17821 -0.242218 0 
-0.197621 -0.284165 0 
-0.21981 -0.225368 0 
-0.239916 -0.267346 0 
-0.217078 -0.327151 0 
-0.236949 -0.368857 0 
-0.25956 -0.309313 0 
-0.278816 -0.35098 0 
-0.185987 -0.034902 0 
-0.205717 -0.0796154 0 
-0.230919 -0.016353 0 
-0.24891 -0.0615614 0 
-0.223809 -0.122368 0 
-0.243172 -0.163973 0 
-0.266719 -0.10414 0 
-0.285574 -0.146992 0 
-0.26217 -0.206169 0 
-0.281729 -0.248974 0 
-0.305054 -0.188624 0 
-0.324195 -0.229449 0 
-0.301624 -0.290215 0 
-0.321214 -0.333099 0 
-0.344535 -0.271328 0 
-0.363183 -0.313958 0 
VECTORS velocity double
-0.803551 1.00396 0 
-0.064994 1.02821 0 
-1.05162 1.31998 0 
-0.715116 1.00005 0 
-0.794341 0.609324 0 
-0.192343 0.981473 0 
-0.949542 0.559204 0 
-0.851558 0.477307 0 
-0.170473 0.457415 0 
-0.19928 0.400536 0 
-0.396621 0.141804 0 
-0.35281 -0.0741109 0 
0.151093 0.0453695 0 
0.373812 -0.371266 0 
-0.0804428 0.0885318 0 
-0.0157241 -0.319234 0 
-1.7512 0.295954 0 
-1.0398 0.206045 0 
-1.58639 1.52426 0 
-1.18405 0.380759 0 
-0.511286 0.500899 0 
-0.501663 0.384484 0 
-0.708577 0.126227 0 
-0.72257 0.0688134 0 
-0.701915 0.263734 0 
-0.23845 0.0846553 0 
-1.00749 0.299248 0 
-0.700177 0.0952032 0 
0.288378 0.0321335 0 
0.126002 -0.414218 0 
-0.133762 -0.0193417 0 
-0.247092 -0.823435 0 
-1.3085 0.651853 0 
-1.02005 0.742348 0 
-2.0883 0.203621 0 
-1.63622 -0.00867268 0 
-1.16518 0.247731 0 
-0.687686 -0.388792 0 
-1.92476 0.424954 0 
-1.37917 -0.274717 0 
-0.672369 -0.269595 0 
-0.779071 -0.53297 0 
-1.05611 -0.641122 0 
-1.29008 -0.720092 0 
-0.714373 -0.40207 0 
-0.0659642 -1.60404 0 
-1.47676 -0.42006 0 
-0.630427 -1.57965 0 
-2.44794 0.340614 0 
-1.69518 -0.338416 0 
-2.44856 0.512861 0 
-2.01574 -0.917318 0 
-0.952947 0.0139762 0 
-0.707544 -0.346766 0 
-2.0428 -0.701036 0 
-1.71484 -0.937073 0 
-1.23566 -0.786266 0 
-1.44237 -0.460875 0 
-1.45323 -0.680143 0 
-1.82445 -1.15931 0 
-0.850077 -0.320461 0 
-0.347186 -1.69725 0 
-1.88334 -1.43589 0 
-1.01811 -1.91256 0 
SCALARS mass double 1
LOOKUP_TABLE default
0.625
0.625
0.625
0.625
0.625
0.625
0.625
0.625
0.625
0.625
0.625
0.625
0.625
0.625
0.625
0.625
0.625
0.625
0.625
0.625
0.625
0.625
0.625
0.625
0.625
0.625
0.625
0.625
0.625
0.625
0.625
0.625
0.625
0.625
0.625
0.625
0.625
0.625
0.625
0.625
0.625
0.625
0.625
0.625
0.625
0.625
0.625
0.625
0.625
0.625
0.625
0.625
0.625
0.625
0.625
0.625
0.625
0.625
0.625
0.625
0.625
0.625
0.625
0.625
SCALARS volume double 1
LOOKUP_TABLE default
0.000639828
0.000657802
0.000624201
0.000647823
0.000658955
0.000639692
0.000590949
0.000658859
0.000660466
0.000607446
0.000665487
0.000623806
0.000663345
0.000579445
0.000636901
0.000617708
0.000626444
0.000646253
0.000642198
0.000645069
0.000528361
0.000614445
0.000665674
0.000656397
0.000602943
0.000604169
0.000616716
0.000647348
0.000592339
0.000581399
0.000621022
0.000629896
0.000614004
0.000611881
0.000636187
0.000646005
0.00066387
0.000638143
0.000605761
0.00062517
0.000629205
0.000629949
0.000621832
0.000615829
0.000617036
0.000608147
0.000618783
0.000621995
0.000626916
0.00062766
0.000633108
0.000620001
0.000642157
0.000636594
0.000629975
0.00061556
0.000634069
0.000632157
0.000638345
0.000625092
0.000629858
0.000635638
0.000638816
0.000614115
VECTORS momentum double
-0.50222 0.627477 0 
-0.0406212 0.642633 0 
-0.65726 0.824988 0 
-0.446947 0.625029 0 
-0.496463 0.380827 0 
-0.120214 0.61342 0 
-0.593464 0.349502 0 
-0.532224 0.298317 0 
-0.106546 0.285885 0 
-0.12455 0.250335 0 
-0.247888 0.0886274 0 
-0.220506 -0.0463193 0 
0.0944333 0.0283559 0 
0.233632 -0.232041 0 
-0.0502768 0.0553324 0 
-0.00982758 -0.199521 0 
-1.0945 0.184971 0 
-0.649872 0.128778 0 
-0.991491 0.952661 0 
-0.740031 0.237974 0 
-0.319553 0.313062 0 
-0.313539 0.240302 0 
-0.442861 0.0788917 0 
-0.451607 0.0430084 0 
-0.438697 0.164834 0 
-0.149031 0.0529096 0 
-0.629678 0.18703 0 
-0.437611 0.059502 0 
0.180236 0.0200834 0 
0.0787515 -0.258886 0 
-0.083601 -0.0120886 0 
-0.154433 -0.514647 0 
-0.81781 0.407408 0 
-0.637533 0.463967 0 
-1.30519 0.127263 0 
-1.02264 -0.00542042 0 
-0.728239 0.154832 0 
-0.429804 -0.242995 0 
-1.20297 0.265596 0 
-0.86198 -0.171698 0 
-0.420231 -0.168497 0 
-0.486919 -0.333106 0 
-0.660066 -0.400701 0 
-0.806297 -0.450058 0 
-0.446483 -0.251294 0 
-0.0412276 -1.00252 0 
-0.922973 -0.262537 0 
-0.394017 -0.987279 0 
-1.52996 0.212884 0 
-1.05949 -0.21151 0 
-1.53035 0.320538 0 
-1.25984 -0.573324 0 
-0.595592 0.00873511 0 
-0.442215 -0.216729 0 
-1.27675 -0.438148 0 
-1.07178 -0.585671 0 
-0.77229 -0.491416 0 
-0.901479 -0.288047 0 
-0.908269 -0.425089 0 
-1.14028 -0.724571 0 
-0.531298 -0.200288 0 
-0.216991 -1.06078 0 
-1.17709 -0.897432 0 
-0.636316 -1.19535 0 
VECTORS body_force double
0 -9.81 0 
0 -9.81 0 
0 -9.81 0 
0 -9.81 0 
0 -9.81 0 
0 -9.81 0 
0 -9.81 0 
0 -9.81 0 
0 -9.81 0 
0 -9.81 0 
0 -9.81 0 
0 -9.81 0 
0 -9.81 0 
0 -9.81 0 
0 -9.81 0 
0 -9.81 0 
0 -9.81 0 
0 -9.81 0 
0 -9.81 0 
0 -9.81 0 
0 -9.81 0 
0 -9.81 0 
0 -9.81 0 
0 -9.81 0 
0 -9.81 0 
0 -9.81 0 
0 -9.81 0 
0 -9.81 0 
0 -9.81 0 
0 -9.81 0 
0 -9.81 0 
0 -9.81 0 
0 -9.81 0 
0 -9.81 0 
0 -9.81 0 
0 -9.81 0 
0 -9.81 0 
0 -9.81 0 
0 -9.81 0 
0 -9.81 0 
0 -9.81 0 
0 -9.81 0 
0 -9.81 0 
0 -9.81 0 
0 -9.81 0 
0 -9.81 0 
0 -9.81 0 
0 -9.81 0 
0 -9.81 0 
0 -9.81 0 
0 -9.81 0 
0 -9.81 0 
0 -9.81 0 
0 -9.81 0 
0 -9.81 0 
0 -9.81 0 
0 -9.81 0 
0 -9.81 0 
0 -9.81 0 
0 -9.81 0 
0 -9.81 0 
0 -9.81 0 
0 -9.81 0 
0 -9.81 0 
TENSORS cauchy_stress double
-814.031 2793.46 0
2793.46 5323.19 0
0 0 0

5839.81 2134.74 0
2134.74 3997.28 0
0 0 0

-5398.75 -3828.24 0
-3828.24 5152.83 0
0 0 0

975.676 -3571.64 0
-3571.64 5921.63 0
0 0 0

5072.96 3135.03 0
3135.03 5100.78 0
0 0 0

-316.373 1774.51 0
1774.51 4784.82 0
0 0 0

-2337.73 -1297.88 0
-1297.88 -8435.6 0
0 0 0

4849 583.032 0
583.032 5296.75 0
0 0 0

5981.05 4541.69 0
4541.69 4633.11 0
0 0 0

-2019.42 2034.49 0
2034.49 -3459.08 0
0 0 0

8433.71 -2649.63 0
-2649.63 3636.83 0
0 0 0

-3568.76 1313.43 0
1313.43 3201.12 0
0 0 0

5890.64 2944.11 0
2944.11 5559.93 0
0 0 0

-730.793 10910.6 0
10910.6 -13823.2 0
0 0 0

3292.12 1452.48 0
1452.48 335.357 0
0 0 0

3695.52 -962.28 0
-962.28 -5952.49 0
0 0 0

4557.29 -1028.31 0
-1028.31 -4113.52 0
0 0 0

6763.13 4001.98 0
4001.98 -332.612 0
0 0 0

136.596 -564.962 0
-564.962 5083.47 0
0 0 0

-3242.64 -3064.75 0
-3064.75 9320.66 0
0 0 0

-13484.5 -3069.13 0
-3069.13 -18818 0
0 0 0

1833.89 3666.41 0
3666.41 -5109.17 0
0 0 0

2612.66 269.021 0
269.021 9512 0
0 0 0

4131.35 -2125.81 0
-2125.81 5294.52 0
0 0 0

-1032.8 -2413.05 0
-2413.05 -5876.76 0
0 0 0

-5385.44 -1055.99 0
-1055.99 -1133.41 0
0 0 0

-3557.23 -1484.56 0
-1484.56 991.142 0
0 0 0

3987.87 1050.77 0
1050.77 2768.32 0
0 0 0

-2761.29 2223.22 0
2223.22 -7560.26 0
0 0 0

-3098.46 3142.47 0
3142.47 -10808.3 0
0 0 0

-25.1928 1049.59 0
1049.59 -1202.78 0
0 0 0

3336.29 3697.59 0
3697.59 -1835.6 0
0 0 0

1234.9 2881.89 0
2881.89 -4648.33 0
0 0 0

-2512.85 -2224.69 0
-2224.69 -1566.82 0
0 0 0

4578.16 1597.24 0
1597.24 -1166.41 0
0 0 0

1384.83 1305.13 0
1305.13 4971.87 0
0 0 0

6118.07 -2856.17 0
-2856.17 5484.87 0
0 0 0

6505.36 -1077.93 0
-1077.93 -2503.31 0
0 0 0

-1764.7 541.487 0
541.487 -4247.94 0
0 0 0

232.032 91.1118 0
91.1118 -179.679 0
0 0 0

3078.65 791.581 0
791.581 -1789.22 0
0 0 0

9067.11 467.88 0
467.88 -7550.21 0
0 0 0

812.03 372.679 0
372.679 -1789.22 0
0 0 0

-561.909 2881.02 0
2881.02 -2280.83 0
0 0 0

3110.79 1063.19 0
1063.19 -5577.04 0
0 0 0

-462.363 4875.55 0
4875.55 -4794.52 0
0 0 0

-285.868 -219.345 0
-219.345 -1636.49 0
0 0 0

-41.6083 -291.623 0
-291.623 -885.173 0
0 0 0

2733.73 -1863.06 0
-1863.06 -2145.09 0
0 0 0

-1647.72 2645.17 0
2645.17 2464.43 0
0 0 0

964.129 -843.06 0
-843.06 1514.55 0
0 0 0

-3291.91 272.854 0
272.854 1747.56 0
0 0 0

6405.02 -3827.91 0
-3827.91 -1197.19 0
0 0 0

3279.76 709.087 0
709.087 255.013 0
0 0 0

2290.39 -129.429 0
-129.429 -765.605 0
0 0 0

-412.407 1528.7 0
1528.7 -2514.43 0
0 0 0

6747.61 2478.7 0
2478.7 -3977.17 0
0 0 0

6066.28 -373.234 0
-373.234 -3876.66 0
0 0 0

2466.14 -1588.88 0
-1588.88 1596.69 0
0 0 0

1059.17 -777.568 0
-777.568 -1030.72 0
0 0 0

4462.77 -786.696 0
-786.696 -2973.83 0
0 0 0

3045.27 1733.69 0
1733.69 200.423 0
0 0 0

900.251 1154.53 0
1154.53 3304.38 0
0 0 0

-2505.08 -304.803 0
-304.803 -873.539 0
0 0 0

TENSORS velocity_gradient double
2.87781 -5.19318 0
4.75075 -2.27182 0
0 0 0

1.6601 -5.88282 0
5.72316 -0.493534 0
0 0 0

7.34515 -9.39268 0
4.6985 -2.2227 0
0 0 0

-0.722518 -11.6228 0
8.16855 -1.68836 0
0 0 0

-0.975312 -5.02987 0
8.42157 0.528212 0
0 0 0

-1.69948 -5.73943 0
7.44314 -0.430486 0
0 0 0

-0.364511 -6.79149 0
9.30717 -0.231234 0
0 0 0

-0.860024 -6.43336 0
8.54909 -1.33634 0
0 0 0

-3.67665 -5.25769 0
6.56137 3.12807 0
0 0 0

-3.5677 -6.04113 0
8.03833 2.34942 0
0 0 0

-2.57637 -7.80762 0
7.79714 -1.18933 0
0 0 0

-3.42955 -6.76267 0
8.11634 1.6702 0
0 0 0

-3.59491 -6.07893 0
7.95099 2.22809 0
0 0 0

-0.924853 1.56942 0
5.06383 -2.97107 0
0 0 0

-0.922573 -6.12787 0
8.64043 1.58248 0
0 0 0

-0.956958 -6.25183 0
7.13599 -0.554498 0
0 0 0

-3.98539 -8.74542 0
5.83727 0.216057 0
0 0 0

-2.87905 -10.0006 0
6.97051 0.000261831 0
0 0 0

-1.91813 -7.03804 0
7.3637 0.986786 0
0 0 0

-3.92719 -9.29829 0
5.85984 -0.195823 0
0 0 0

-1.34315 -8.39216 0
8.44153 1.54079 0
0 0 0

-0.0526916 -7.51654 0
6.96496 -0.6653 0
0 0 0

0.239578 -7.60588 0
10.5759 1.43775 0
0 0 0

0.266815 -7.57468 0
8.50383 -0.935677 0
0 0 0

-1.10594 -9.13908 0
7.19112 -0.640579 0
0 0 0

-0.966596 -10.4552 0
9.24178 -0.229473 0
0 0 0

0.921838 -8.46895 0
8.36584 -2.11295 0
0 0 0

1.67611 -11.6053 0
10.9599 -0.300574 0
0 0 0

-0.576255 -8.85857 0
10.2307 -0.027603 0
0 0 0

-0.850713 -6.3301 0
8.97033 -1.90583 0
0 0 0

0.469344 -12.9512 0
10.7405 -0.545225 0
0 0 0

-0.0820196 -11.9763 0
16.4249 -1.60355 0
0 0 0

0.826154 -9.45545 0
9.47173 -0.870154 0
0 0 0

0.116442 -11.1242 0
11.592 -1.87787 0
0 0 0

-0.797127 -15.6528 0
9.66185 0.720237 0
0 0 0

0.027557 -11.0431 0
10.749 -1.1085 0
0 0 0

0.190979 -10.5348 0
12.177 -1.03894 0
0 0 0

0.285872 -7.55084 0
10.9077 -2.88891 0
0 0 0

0.112915 -10.9616 0
11.5585 -0.336261 0
0 0 0

2.96485 -9.25951 0
9.07531 -0.824946 0
0 0 0

3.07233 -7.81637 0
10.1925 -2.93225 0
0 0 0

2.69398 -9.13063 0
10.8969 -1.71983 0
0 0 0

3.39165 -8.12364 0
9.40023 -2.16984 0
0 0 0

1.80804 -8.80507 0
11.628 -1.11478 0
0 0 0

-0.140831 -13.6668 0
14.2553 -0.395424 0
0 0 0

-0.0195463 -13.1168 0
16.0072 0.745966 0
0 0 0

-0.492688 -11.0299 0
13.8195 0.379699 0
0 0 0

-0.622408 -12.5629 0
14.9014 1.76193 0
0 0 0

-2.39014 -13.9454 0
9.8608 1.3716 0
0 0 0

-0.702972 -12.212 0
10.2004 1.72046 0
0 0 0

-3.89266 -10.1938 0
9.38457 2.46243 0
0 0 0

-1.74953 -11.6871 0
13.0187 1.06822 0
0 0 0

-1.19089 -9.75919 0
10.4274 -0.386157 0
0 0 0

0.767154 -7.43294 0
9.77429 -1.16204 0
0 0 0

-2.13914 -12.0924 0
11.5538 -0.455658 0
0 0 0

-0.946919 -5.41281 0
9.30904 -1.62473 0
0 0 0

2.96677 -5.22749 0
9.23346 -1.55447 0
0 0 0

2.82393 -10.2413 0
11.1158 0.0909565 0
0 0 0

1.6675 -3.5198 0
7.36119 -0.0676375 0
0 0 0

3.06861 -1.80643 0
9.22226 2.2082 0
0 0 0

1.25447 -12.2075 0
12.3491 1.63597 0
0 0 0

-1.20113 -12.8962 0
10.8837 2.22731 0
0 0 0

-3.27546 -12.9572 0
12.1726 2.32319 0
0 0 0

-2.41862 -11.7428 0
11.6091 1.67498 0
0 0 0

SCALARS active double 1
LOOKUP_TABLE default
1
1
1
1
1
1
1
1
1
1
1
1
1
1
1
1
1
1
1
1
1
1
1
1
1
1
1
1
1
1
1
1
1
1
1
1
1
1
1
1
1
1
1
1
1
1
1
1
1
1
1
1
1
1
1
1
1
1
1
1
1
1
1
1
SCALARS extent double 1
LOOKUP_TABLE default
0.0125
0.0125
0.0125
0.0125
0.0125
0.0125
0.0125
0.0125
0.0125
0.0125
0.0125
0.0125
0.0125
0.0125
0.0125
0.0125
0.0125
0.0125
0.0125
0.0125
0.0125
0.0125
0.0125
0.0125
0.0125
0.0125
0.0125
0.0125
0.0125
0.0125
0.0125
0.0125
0.0125
0.0125
0.0125
0.0125
0.0125
0.0125
0.0125
0.0125
0.0125
0.0125
0.0125
0.0125
0.0125
0.0125
0.0125
0.0125
0.0125
0.0125
0.0125
0.0125
0.0125
0.0125
0.0125
0.0125
0.0125
0.0125
0.0125
0.0125
0.0125
0.0125
0.0125
0.0125
SCALARS pressure double 1
LOOKUP_TABLE default
-2254.58
-4918.54
122.955
-3448.65
-5086.87
-2234.22
5386.67
-5072.87
-5307.08
2739.25
-6035.27
183.82
-5725.28
7276.99
-1813.74
1128.48
-221.884
-3215.26
-2610.03
-3039.01
16151.2
1637.64
-6062.33
-4712.94
3454.78
3259.43
1283.04
-3378.09
5160.77
6953.36
613.988
-750.345
1706.71
2039.84
-1705.88
-3178.35
-5801.47
-2001.03
3006.32
-26.1767
-644.715
-758.45
488.595
1421.37
1233.12
2628.44
961.18
463.391
-294.324
-408.354
-1239.34
772.174
-2603.92
-1767.39
-762.392
1463.42
-1385.22
-1094.81
-2031.42
-14.2224
-744.474
-1622.85
-2102.32
1689.31
SCALARS density double 1
LOOKUP_TABLE default
976.825
950.133
1001.28
964.77
948.472
977.032
1057.62
948.61
946.302
1028.9
939.162
1001.91
942.195
1078.62
981.314
1011.81
997.695
967.114
973.221
968.889
1182.9
1017.18
938.898
952.167
1036.58
1034.48
1013.43
965.478
1055.14
1074.99
1006.41
992.227
1017.91
1021.44
982.415
967.485
941.449
979.404
1031.76
999.728
993.317
992.143
1005.09
1014.89
1012.91
1027.71
1010.05
1004.83
996.944
995.762
987.194
1008.06
973.283
981.787
992.102
1015.34
985.697
988.679
979.095
999.852
992.287
983.264
978.373
1017.72
