# vtk DataFile Version 3.0
Frame: 33, Time: 0.561
ASCII
DATASET UNSTRUCTURED_GRID
POINTS 64 double
0.709964 0.0379413 0 
0.676941 0.0402248 0 
0.701041 0.0582603 0 
0.676891 0.0623196 0 
0.644316 0.0470006 0 
0.617676 0.0518831 0 
0.651755 0.0686013 0 
0.627008 0.0756621 0 
0.592045 0.060844 0 
0.56632 0.0709703 0 
0.602371 0.0847598 0 
0.577357 0.0945935 0 
0.543139 0.0808137 0 
0.5188 0.0909405 0 
0.55346 0.104479 0 
0.528909 0.113665 0 
0.706762 0.0798948 0 
0.682331 0.0857144 0 
0.719797 0.0955905 0 
0.695149 0.106205 0 
0.658704 0.0919128 0 
0.634646 0.0994217 0 
0.670042 0.114667 0 
0.644809 0.121301 0 
0.610271 0.108517 0 
0.586801 0.116592 0 
0.621773 0.130515 0 
0.597193 0.139557 0 
0.562892 0.12606 0 
0.538832 0.13691 0 
0.57206 0.14851 0 
0.549729 0.160191 0 
0.730839 0.115065 0 
0.706099 0.126825 0 
0.743347 0.135957 0 
0.71785 0.148287 0 
0.682013 0.135818 0 
0.656323 0.142978 0 
0.691862 0.156558 0 
0.665834 0.165251 0 
0.631678 0.153209 0 
0.60738 0.162688 0 
0.64169 0.17485 0 
0.617299 0.183852 0 
0.582371 0.171649 0 
0.56002 0.183736 0 
0.593212 0.193845 0 
0.571118 0.206198 0 
0.752437 0.157289 0 
0.726888 0.168961 0 
0.762172 0.181 0 
0.736343 0.191254 0 
0.702307 0.178509 0 
0.677596 0.187652 0 
0.712114 0.201104 0 
0.686542 0.209465 0 
0.653634 0.196679 0 
0.628494 0.205449 0 
0.662642 0.21885 0 
0.639729 0.228214 0 
0.604838 0.216473 0 
0.581941 0.228232 0 
0.616189 0.23917 0 
0.593635 0.250426 0 
CELLS 64 128
1 0
1 1
1 2
1 3
1 4
1 5
1 6
1 7
1 8
1 9
1 10
1 11
1 12
1 13
1 14
1 15
1 16
1 17
1 18
1 19
1 20
1 21
1 22
1 23
1 24
1 25
1 26
1 27
1 28
1 29
1 30
1 31
1 32
1 33
1 34
1 35
1 36
1 37
1 38
1 39
1 40
1 41
1 42
1 43
1 44
1 45
1 46
1 47
1 48
1 49
1 50
1 51
1 52
1 53
1 54
1 55
1 56
1 57
1 58
1 59
1 60
1 61
1 62
1 63
CELL_TYPES 64
1
1
1
1
1
1
1
1
1
1
1
1
1
1
1
1
1
1
1
1
1
1
1
1
1
1
1
1
1
1
1
1
1
1
1
1
1
1
1
1
1
1
1
1
1
1
1
1
1
1
1
1
1
1
1
1
1
1
1
1
1
1
1
1
POINT_DATA 64
VECTORS displacement double
0.097464 -0.274559 0 
0.0644412 -0.297275 0 
0.0635406 -0.25424 0 
0.0393914 -0.27518 0 
0.0318164 -0.315499 0 
0.00517604 -0.335617 0 
0.0142551 -0.293899 0 
-0.0104924 -0.311838 0 
-0.0204546 -0.351656 0 
-0.0461805 -0.36653 0 
-0.0351287 -0.32774 0 
-0.0601431 -0.342906 0 
-0.0693605 -0.381686 0 
-0.0937005 -0.396559 0 
-0.08404 -0.358021 0 
-0.108591 -0.373835 0 
0.0442623 -0.232605 0 
0.0198312 -0.251786 0 
0.0322968 -0.216909 0 
0.00764931 -0.231295 0 
-0.00379595 -0.270587 0 
-0.0278539 -0.288078 0 
-0.0174576 -0.247833 0 
-0.042691 -0.266199 0 
-0.0522294 -0.303983 0 
-0.0756993 -0.320908 0 
-0.0657265 -0.281985 0 
-0.0903066 -0.297943 0 
-0.0996079 -0.33644 0 
-0.123668 -0.35059 0 
-0.11544 -0.31399 0 
-0.137771 -0.327309 0 
0.0183393 -0.197435 0 
-0.00640079 -0.210675 0 
0.00584674 -0.176543 0 
-0.0196504 -0.189213 0 
-0.0304867 -0.226682 0 
-0.0561767 -0.244522 0 
-0.0456382 -0.205942 0 
-0.0716657 -0.222249 0 
-0.0808225 -0.259291 0 
-0.10512 -0.274812 0 
-0.0958103 -0.23765 0 
-0.120201 -0.253648 0 
-0.130129 -0.290851 0 
-0.15248 -0.303764 0 
-0.144288 -0.268655 0 
-0.166382 -0.281302 0 
-0.0100629 -0.155211 0 
-0.0356115 -0.168539 0 
-0.0253277 -0.1315 0 
-0.0511566 -0.146246 0 
-0.0601928 -0.183991 0 
-0.0849039 -0.199848 0 
-0.0753861 -0.161396 0 
-0.100958 -0.178035 0 
-0.108866 -0.215821 0 
-0.134006 -0.232051 0 
-0.124858 -0.19365 0 
-0.147771 -0.209286 0 
-0.157662 -0.246027 0 
-0.180559 -0.259268 0 
-0.171311 -0.22333 0 
-0.193865 -0.237074 0 
VECTORS velocity double
-0.85678 0.713211 0 
-0.50224 -0.160923 0 
-0.352025 1.00551 0 
-0.45331 0.0947365 0 
-0.645838 0.543068 0 
-0.142024 0.143753 0 
-0.220217 0.0771333 0 
-0.229005 0.242258 0 
0.251382 -0.43783 0 
0.270646 -0.339736 0 
-0.23623 -0.0647773 0 
-0.637924 -0.22178 0 
0.276809 -0.746439 0 
-0.0795883 -1.03992 0 
-0.711838 -0.217042 0 
-0.592883 -1.11915 0 
-0.541486 0.768184 0 
-0.911782 0.390694 0 
-0.781521 1.30009 0 
-0.77232 0.806758 0 
-0.406967 0.43486 0 
-0.356923 0.571227 0 
-0.682013 0.562173 0 
-0.697044 0.547272 0 
-0.642238 0.394975 0 
-0.730816 0.0514042 0 
-0.859438 0.358743 0 
-0.94909 0.0449672 0 
-0.6163 -0.200341 0 
-0.756892 -0.630569 0 
-0.739967 -0.16564 0 
-1.29083 -0.475169 0 
-0.899261 0.958203 0 
-0.362902 1.15325 0 
-0.795915 1.72187 0 
-0.773992 1.15784 0 
-0.661792 0.605796 0 
-0.544054 0.502419 0 
-1.379 0.882311 0 
-1.46517 1.02361 0 
-0.564331 0.479395 0 
-0.725434 -0.0543153 0 
-1.11102 0.818108 0 
-1.09402 0.0866033 0 
-1.00762 -0.0601461 0 
-1.24657 -0.516474 0 
-1.69622 0.0735514 0 
-1.72432 -0.231853 0 
-1.18314 1.62472 0 
-1.49886 1.28144 0 
-1.54317 2.09329 0 
-1.71854 1.45255 0 
-1.38664 1.11226 0 
-1.27597 1.05954 0 
-1.85167 1.45104 0 
-1.88004 0.972854 0 
-1.41819 0.594387 0 
-1.41415 0.456008 0 
-1.88434 1.17117 0 
-2.18132 0.847837 0 
-1.54512 0.413109 0 
-2.11936 -0.172618 0 
-2.11683 0.35611 0 
-2.04206 0.132046 0 
SCALARS mass double 1
LOOKUP_TABLE default
0.625
0.625
0.625
0.625
0.625
0.625
0.625
0.625
0.625
0.625
0.625
0.625
0.625
0.625
0.625
0.625
0.625
0.625
0.625
0.625
0.625
0.625
0.625
0.625
0.625
0.625
0.625
0.625
0.625
0.625
0.625
0.625
0.625
0.625
0.625
0.625
0.625
0.625
0.625
0.625
0.625
0.625
0.625
0.625
0.625
0.625
0.625
0.625
0.625
0.625
0.625
0.625
0.625
0.625
0.625
0.625
0.625
0.625
0.625
0.625
0.625
0.625
0.625
0.625
SCALARS volume double 1
LOOKUP_TABLE default
0.000508584
0.000552549
0.000563012
0.000597622
0.000582965
0.000595654
0.000597626
0.000625796
0.000642052
0.000617069
0.000659992
0.000646217
0.000662135
0.000616908
0.000640333
0.000628394
0.000492778
0.000577658
0.000547246
0.000605637
0.000577114
0.000610305
0.000641063
0.000595719
0.000617362
0.000621518
0.000636391
0.000655153
0.000600872
0.000627902
0.000628943
0.000646159
0.000587016
0.000606341
0.000605968
0.000629878
0.000598957
0.000603985
0.000610522
0.000649461
0.00065146
0.000624675
0.000624879
0.000601635
0.00061775
0.00061424
0.000626212
0.000630902
0.00060723
0.000614221
0.0006413
0.000639258
0.000644491
0.000629598
0.000645745
0.000627934
0.000601287
0.000638445
0.000632329
0.000619591
0.000622668
0.000632814
0.000613227
0.000619181
VECTORS momentum double
-0.535487 0.445757 0 
-0.3139 -0.100577 0 
-0.220015 0.628441 0 
-0.283318 0.0592103 0 
-0.403649 0.339418 0 
-0.0887651 0.0898459 0 
-0.137636 0.0482083 0 
-0.143128 0.151412 0 
0.157114 -0.273644 0 
0.169154 -0.212335 0 
-0.147644 -0.0404858 0 
-0.398702 -0.138612 0 
0.173005 -0.466524 0 
-0.0497427 -0.649953 0 
-0.444899 -0.135651 0 
-0.370552 -0.699468 0 
-0.338429 0.480115 0 
-0.569864 0.244184 0 
-0.488451 0.812557 0 
-0.4827 0.504224 0 
-0.254355 0.271787 0 
-0.223077 0.357017 0 
-0.426258 0.351358 0 
-0.435652 0.342045 0 
-0.401399 0.246859 0 
-0.45676 0.0321276 0 
-0.537149 0.224214 0 
-0.593181 0.0281045 0 
-0.385187 -0.125213 0 
-0.473058 -0.394106 0 
-0.462479 -0.103525 0 
-0.80677 -0.296981 0 
-0.562038 0.598877 0 
-0.226814 0.720784 0 
-0.497447 1.07617 0 
-0.483745 0.723648 0 
-0.41362 0.378622 0 
-0.340034 0.314012 0 
-0.861878 0.551445 0 
-0.91573 0.639757 0 
-0.352707 0.299622 0 
-0.453396 -0.0339471 0 
-0.694388 0.511317 0 
-0.683763 0.0541271 0 
-0.629765 -0.0375913 0 
-0.779104 -0.322796 0 
-1.06014 0.0459696 0 
-1.0777 -0.144908 0 
-0.739465 1.01545 0 
-0.936788 0.8009 0 
-0.964479 1.3083 0 
-1.07408 0.907845 0 
-0.866651 0.695162 0 
-0.797479 0.662212 0 
-1.15729 0.906901 0 
-1.17502 0.608034 0 
-0.886366 0.371492 0 
-0.883847 0.285005 0 
-1.17771 0.731983 0 
-1.36332 0.529898 0 
-0.965698 0.258193 0 
-1.3246 -0.107886 0 
-1.32302 0.222569 0 
-1.27628 0.082529 0 
VECTORS body_force double
0 -9.81 0 
0 -9.81 0 
0 -9.81 0 
0 -9.81 0 
0 -9.81 0 
0 -9.81 0 
0 -9.81 0 
0 -9.81 0 
0 -9.81 0 
0 -9.81 0 
0 -9.81 0 
0 -9.81 0 
0 -9.81 0 
0 -9.81 0 
0 -9.81 0 
0 -9.81 0 
0 -9.81 0 
0 -9.81 0 
0 -9.81 0 
0 -9.81 0 
0 -9.81 0 
0 -9.81 0 
0 -9.81 0 
0 -9.81 0 
0 -9.81 0 
0 -9.81 0 
0 -9.81 0 
0 -9.81 0 
0 -9.81 0 
0 -9.81 0 
0 -9.81 0 
0 -9.81 0 
0 -9.81 0 
0 -9.81 0 
0 -9.81 0 
0 -9.81 0 
0 -9.81 0 
0 -9.81 0 
0 -9.81 0 
0 -9.81 0 
0 -9.81 0 
0 -9.81 0 
0 -9.81 0 
0 -9.81 0 
0 -9.81 0 
0 -9.81 0 
0 -9.81 0 
0 -9.81 0 
0 -9.81 0 
0 -9.81 0 
0 -9.81 0 
0 -9.81 0 
0 -9.81 0 
0 -9.81 0 
0 -9.81 0 
0 -9.81 0 
0 -9.81 0 
0 -9.81 0 
0 -9.81 0 
0 -9.81 0 
0 -9.81 0 
0 -9.81 0 
0 -9.81 0 
0 -9.81 0 
TENSORS cauchy_stress double
18314.5 -6412.47 0
-6412.47 -57953.2 0
0 0 0

13634.8 -14887.6 0
-14887.6 -37329 0
0 0 0

-8967.77 -516.332 0
-516.332 -11118.9 0
0 0 0

-5167.21 680.919 0
680.919 -3446.96 0
0 0 0

6733.59 -6967.58 0
-6967.58 -20122.8 0
0 0 0

2758.13 819.879 0
819.879 -12006.4 0
0 0 0

-4909.13 -2716.41 0
-2716.41 -3703.78 0
0 0 0

-1121.11 -1214.35 0
-1214.35 1365.78 0
0 0 0

5459.23 -1000.65 0
-1000.65 -282.637 0
0 0 0

-113.948 -1022.86 0
-1022.86 -2341.99 0
0 0 0

4110.02 -3698 0
-3698 6366.01 0
0 0 0

5063.94 110.75 0
110.75 1355.9 0
0 0 0

5206.67 -1646.38 0
-1646.38 5892.9 0
0 0 0

-545.969 -2319.35 0
-2319.35 -1960.11 0
0 0 0

2407.08 -1421.25 0
-1421.25 2253.86 0
0 0 0

-2949.23 -989.894 0
-989.894 3990.82 0
0 0 0

-12272.9 -2315.85 0
-2315.85 -33437.2 0
0 0 0

-174.307 -1248.18 0
-1248.18 -14973.8 0
0 0 0

-4316.86 -5224.85 0
-5224.85 -21231.9 0
0 0 0

3114.01 1381.45 0
1381.45 -9166.1 0
0 0 0

-7871.83 4324.48 0
4324.48 -7457.44 0
0 0 0

1578.03 2720.84 0
2720.84 -6153.51 0
0 0 0

7095.81 3390.99 0
3390.99 -2215.92 0
0 0 0

-308.354 5034.47 0
5034.47 -8918.94 0
0 0 0

-631.825 -188.838 0
-188.838 -1732.74 0
0 0 0

1522.1 941.541 0
941.541 -2596.33 0
0 0 0

6616.52 2401.25 0
2401.25 -3143.08 0
0 0 0

6524.71 57.802 0
57.802 2536.26 0
0 0 0

-2716.84 -2490.21 0
-2490.21 -4854.41 0
0 0 0

-833.81 -324.777 0
-324.777 1724.59 0
0 0 0

3357.61 -16.6728 0
-16.6728 -2148.14 0
0 0 0

1799.15 637.015 0
637.015 4603.49 0
0 0 0

-4533.59 -6944.1 0
-6944.1 -7523.89 0
0 0 0

286.734 539.36 0
539.36 -6115.3 0
0 0 0

-593.128 -4763.31 0
-4763.31 -5353.8 0
0 0 0

7242.28 -2780.7 0
-2780.7 -5747.07 0
0 0 0

3914.99 1275.79 0
1275.79 -12100.1 0
0 0 0

1467.85 -329.376 0
-329.376 -8045.28 0
0 0 0

4570.75 1385.69 0
1385.69 -9078.04 0
0 0 0

9193.08 2769.5 0
2769.5 -1810.24 0
0 0 0

5361.49 -324.809 0
-324.809 2612.51 0
0 0 0

1413.13 -2686.1 0
-2686.1 -1513.17 0
0 0 0

1704.91 1912.05 0
1912.05 -1742.07 0
0 0 0

4529.7 2279.07 0
2279.07 -11856.7 0
0 0 0

-1432.22 -1265 0
-1265 -811.508 0
0 0 0

-1917.22 -2674.86 0
-2674.86 -1422.36 0
0 0 0

1390.47 -221.363 0
-221.363 -1017.81 0
0 0 0

1058.9 1626.45 0
1626.45 748.679 0
0 0 0

-3368.14 -2059.06 0
-2059.06 -2178.92 0
0 0 0

3077.32 -4628.6 0
-4628.6 -6422.97 0
0 0 0

3639.92 -2287.41 0
-2287.41 1311.3 0
0 0 0

5966.88 -481.829 0
-481.829 -1629 0
0 0 0

2246.36 471.321 0
471.321 3659.15 0
0 0 0

5480.74 393.866 0
393.866 -4071.15 0
0 0 0

6815.25 -379.051 0
-379.051 -535.847 0
0 0 0

4139.17 1058.93 0
1058.93 -3238.56 0
0 0 0

-1252.35 -3810.25 0
-3810.25 -6185.94 0
0 0 0

4665.92 -1574.47 0
-1574.47 -572.904 0
0 0 0

1656.12 1101.59 0
1101.59 585.686 0
0 0 0

554.818 1102.53 0
1102.53 -2226.31 0
0 0 0

-2635.06 -669.012 0
-669.012 1916.28 0
0 0 0

1932.63 -3518.39 0
-3518.39 456.758 0
0 0 0

-157.398 809.383 0
809.383 -3499.48 0
0 0 0

-1958.25 904.793 0
904.793 159.496 0
0 0 0

TENSORS velocity_gradient double
-5.7515 -11.963 0
7.36546 13.0072 0
0 0 0

-1.54587 -9.48544 0
5.10108 8.06022 0
0 0 0

-4.92879 -2.99231 0
8.59526 4.96546 0
0 0 0

-2.41911 -2.7665 0
6.64239 4.55297 0
0 0 0

-5.90173 -6.35749 0
5.93257 3.88214 0
0 0 0

-6.23358 -5.31377 0
6.29632 2.49092 0
0 0 0

-3.29249 -2.10482 0
6.76253 4.04284 0
0 0 0

-3.57654 -4.78534 0
6.80379 3.74252 0
0 0 0

-4.18418 -8.92941 0
8.08534 2.7727 0
0 0 0

-3.72301 -10.0782 0
8.99477 0.507326 0
0 0 0

-2.52879 -8.03556 0
7.81908 3.3534 0
0 0 0

-2.66371 -9.50389 0
10.9899 1.44366 0
0 0 0

-0.57245 -10.0976 0
11.1168 -0.561388 0
0 0 0

-1.68178 -7.50527 0
10.5284 0.813469 0
0 0 0

-2.15887 -10.259 0
10.961 1.73741 0
0 0 0

-2.28971 -10.9347 0
9.98263 2.36977 0
0 0 0

-3.24142 -2.55611 0
9.71475 5.00039 0
0 0 0

-3.36399 -2.99095 0
7.13351 4.66963 0
0 0 0

-0.963077 -1.05809 0
9.66889 4.88336 0
0 0 0

-3.30372 -6.79217 0
7.78959 3.51411 0
0 0 0

-3.62169 -2.02801 0
7.26745 4.16913 0
0 0 0

-0.677159 -5.24952 0
7.24765 3.30872 0
0 0 0

-3.87217 -7.17043 0
7.28582 3.65541 0
0 0 0

-0.693682 -7.30389 0
8.61443 3.42351 0
0 0 0

-0.186221 -7.28649 0
7.77086 0.541511 0
0 0 0

-1.35375 -8.10176 0
10.6419 0.280147 0
0 0 0

-0.201325 -7.29455 0
9.64341 1.54011 0
0 0 0

0.0215413 -7.55057 0
9.77371 0.0139526 0
0 0 0

-0.719947 -9.6589 0
10.1291 1.53999 0
0 0 0

-1.85189 -10.7414 0
9.85518 2.31349 0
0 0 0

0.520619 -10.2308 0
9.13137 1.08567 0
0 0 0

-0.944076 -11.2678 0
9.27366 0.820996 0
0 0 0

-0.543456 -8.06405 0
10.1121 4.4145 0
0 0 0

-0.957664 -7.21024 0
10.5269 3.5594 0
0 0 0

-1.41571 -8.48619 0
10.824 4.8315 0
0 0 0

-1.59366 -8.39532 0
11.1216 3.63212 0
0 0 0

-3.72726 -7.08643 0
7.04325 3.5148 0
0 0 0

-3.67678 -7.26409 0
6.95874 3.81219 0
0 0 0

-3.43194 -10.9723 0
7.07608 3.40741 0
0 0 0

-3.15054 -12.032 0
7.36347 2.52146 0
0 0 0

-0.207644 -11.136 0
11.208 2.01336 0
0 0 0

-0.197978 -12.6424 0
11.3938 1.75049 0
0 0 0

-0.182027 -12.5956 0
11.4485 1.91097 0
0 0 0

-0.169448 -12.6285 0
11.4916 1.79792 0
0 0 0

0.330765 -12.2797 0
9.33164 1.3687 0
0 0 0

0.052091 -11.776 0
9.58691 0.907358 0
0 0 0

-0.16822 -12.518 0
9.91182 1.59226 0
0 0 0

-0.10808 -10.799 0
9.64158 2.28148 0
0 0 0

-3.18964 -9.22576 0
10.3171 1.4052 0
0 0 0

-1.36042 -10.26 0
10.4881 2.24965 0
0 0 0

-1.23626 -8.34911 0
10.218 1.22834 0
0 0 0

-0.817046 -10.0224 0
9.38842 1.76862 0
0 0 0

-1.45376 -10.8718 0
9.54755 3.35797 0
0 0 0

-2.42313 -11.6377 0
8.1216 2.93238 0
0 0 0

-0.951587 -10.0336 0
8.89044 1.85669 0
0 0 0

-1.63106 -8.54545 0
8.62718 1.28971 0
0 0 0

-1.93036 -11.9702 0
8.69616 1.95174 0
0 0 0

-0.176071 -10.3344 0
11.5619 1.14219 0
0 0 0

-1.22317 -9.56078 0
8.68773 1.13898 0
0 0 0

-0.285389 -10.1288 0
11.5518 1.05343 0
0 0 0

-0.228567 -9.95307 0
11.5586 1.07443 0
0 0 0

0.595494 -10.4437 0
8.67804 1.79491 0
0 0 0

-0.341662 -10.0112 0
11.545 1.06748 0
0 0 0

1.36665 -6.8776 0
7.66277 0.00375409 0
0 0 0

SCALARS active double 1
LOOKUP_TABLE default
1
1
1
1
1
1
1
1
1
1
1
1
1
1
1
1
1
1
1
1
1
1
1
1
1
1
1
1
1
1
1
1
1
1
1
1
1
1
1
1
1
1
1
1
1
1
1
1
1
1
1
1
1
1
1
1
1
1
1
1
1
1
1
1
SCALARS extent double 1
LOOKUP_TABLE default
0.0125
0.0125
0.0125
0.0125
0.0125
0.0125
0.0125
0.0125
0.0125
0.0125
0.0125
0.0125
0.0125
0.0125
0.0125
0.0125
0.0125
0.0125
0.0125
0.0125
0.0125
0.0125
0.0125
0.0125
0.0125
0.0125
0.0125
0.0125
0.0125
0.0125
0.0125
0.0125
0.0125
0.0125
0.0125
0.0125
0.0125
0.0125
0.0125
0.0125
0.0125
0.0125
0.0125
0.0125
0.0125
0.0125
0.0125
0.0125
0.0125
0.0125
0.0125
0.0125
0.0125
0.0125
0.0125
0.0125
0.0125
0.0125
0.0125
0.0125
0.0125
0.0125
0.0125
0.0125
SCALARS pressure double 1
LOOKUP_TABLE default
19819.3
11847.1
10043.3
4307.09
6694.61
4624.15
4306.45
-122.335
-2588.3
1227.97
-5238.01
-3209.92
-5549.79
1253.04
-2330.47
-520.794
22855
7574.06
12774.4
3026.05
7664.64
2287.74
-2439.95
4613.65
1182.28
537.116
-1736.72
-4530.49
3785.63
-445.39
-604.735
-3201.32
6028.74
2914.28
2973.47
-747.605
4092.56
3288.71
2253.64
-3691.42
-3987
50.0196
18.5824
3663.5
1121.86
1669.79
-186.334
-903.788
2773.53
1672.83
-2475.61
-2168.94
-2952.76
-704.794
-3139.7
-450.306
3719.15
-2046.51
-1120.9
835.746
359.394
-1194.69
1828.44
899.378
SCALARS density double 1
LOOKUP_TABLE default
1228.9
1131.12
1110.1
1045.81
1072.1
1049.27
1045.81
998.729
973.441
1012.85
946.982
967.168
943.916
1013.12
976.054
994.598
1268.32
1081.96
1142.08
1031.97
1082.98
1024.08
974.944
1049.15
1012.37
1005.6
982.1
953.976
1040.16
995.379
993.73
967.254
1064.71
1030.77
1031.41
992.255
1043.48
1034.79
1023.71
962.337
959.383
1000.52
1000.19
1038.84
1011.74
1017.52
998.064
990.645
1029.26
1017.55
974.582
977.696
969.758
992.697
967.874
995.328
1039.44
978.941
988.41
1008.73
1003.74
987.652
1019.2
1009.4
