# vtk DataFile Version 3.0
Frame: 42, Time: 0.714
ASCII
DATASET UNSTRUCTURED_GRID
POINTS 64 double
0.144053 0.396043 0 
0.160021 0.377375 0 
0.124453 0.380444 0 
0.141266 0.361986 0 
0.175923 0.357935 0 
0.193735 0.3386 0 
0.157031 0.341942 0 
0.17397 0.322825 0 
0.208376 0.318707 0 
0.224634 0.298805 0 
0.189664 0.302563 0 
0.206319 0.28247 0 
0.241034 0.280623 0 
0.25767 0.260147 0 
0.222121 0.263668 0 
0.240092 0.244229 0 
0.10502 0.365428 0 
0.12119 0.345216 0 
0.0859364 0.348932 0 
0.10245 0.3296 0 
0.137385 0.325939 0 
0.153926 0.306303 0 
0.118564 0.309587 0 
0.135191 0.290601 0 
0.16952 0.287381 0 
0.186059 0.267737 0 
0.150692 0.270375 0 
0.166879 0.250948 0 
0.201449 0.24773 0 
0.21814 0.227893 0 
0.183288 0.230503 0 
0.199205 0.212687 0 
0.0663074 0.332694 0 
0.0830679 0.313372 0 
0.0475243 0.31655 0 
0.063827 0.297012 0 
0.0991388 0.293438 0 
0.115943 0.274045 0 
0.0796254 0.277992 0 
0.0963678 0.258133 0 
0.131703 0.25528 0 
0.147482 0.235716 0 
0.112794 0.239244 0 
0.128172 0.21964 0 
0.163728 0.215684 0 
0.18005 0.197593 0 
0.144827 0.199314 0 
0.161031 0.180881 0 
0.0275515 0.300593 0 
0.0448106 0.281849 0 
0.00828665 0.284599 0 
0.0255889 0.264795 0 
0.0602837 0.261995 0 
0.0774091 0.242421 0 
0.0407475 0.24486 0 
0.0584641 0.226557 0 
0.0932058 0.223217 0 
0.108875 0.204454 0 
0.0733359 0.207244 0 
0.0887811 0.18758 0 
0.124996 0.184197 0 
0.14218 0.16514 0 
0.104322 0.167765 0 
0.120833 0.149691 0 
CELLS 64 128
1 0
1 1
1 2
1 3
1 4
1 5
1 6
1 7
1 8
1 9
1 10
1 11
1 12
1 13
1 14
1 15
1 16
1 17
1 18
1 19
1 20
1 21
1 22
1 23
1 24
1 25
1 26
1 27
1 28
1 29
1 30
1 31
1 32
1 33
1 34
1 35
1 36
1 37
1 38
1 39
1 40
1 41
1 42
1 43
1 44
1 45
1 46
1 47
1 48
1 49
1 50
1 51
1 52
1 53
1 54
1 55
1 56
1 57
1 58
1 59
1 60
1 61
1 62
1 63
CELL_TYPES 64
1
1
1
1
1
1
1
1
1
1
1
1
1
1
1
1
1
1
1
1
1
1
1
1
1
1
1
1
1
1
1
1
1
1
1
1
1
1
1
1
1
1
1
1
1
1
1
1
1
1
1
1
1
1
1
1
1
1
1
1
1
1
1
1
POINT_DATA 64
VECTORS displacement double
-0.0684474 0.183543 0 
-0.0524787 0.139875 0 
-0.113047 0.167944 0 
-0.0962339 0.124486 0 
-0.0365775 0.0954349 0 
-0.0187648 0.0511003 0 
-0.080469 0.0794416 0 
-0.06353 0.0353247 0 
-0.00412368 0.00620694 0 
0.0121343 -0.0386946 0 
-0.0478364 -0.00993679 0 
-0.0311805 -0.0550298 0 
0.0285335 -0.0818772 0 
0.0451701 -0.127353 0 
-0.0153787 -0.0988321 0 
0.0025918 -0.143271 0 
-0.15748 0.152928 0 
-0.14131 0.107716 0 
-0.201564 0.136432 0 
-0.18505 0.0921002 0 
-0.125115 0.063439 0 
-0.108574 0.0188033 0 
-0.168936 0.0470865 0 
-0.152309 0.0031014 0 
-0.0929796 -0.0251192 0 
-0.076441 -0.0697629 0 
-0.136808 -0.0421247 0 
-0.120621 -0.0865515 0 
-0.0610506 -0.11477 0 
-0.0443604 -0.159607 0 
-0.104212 -0.131997 0 
-0.0882954 -0.174813 0 
-0.246193 0.120194 0 
-0.229432 0.0758723 0 
-0.289976 0.10405 0 
-0.273673 0.0595117 0 
-0.213361 0.0309381 0 
-0.196557 -0.0134548 0 
-0.257875 0.0154922 0 
-0.241132 -0.029367 0 
-0.180797 -0.0572202 0 
-0.165018 -0.101784 0 
-0.224706 -0.0732562 0 
-0.209328 -0.11786 0 
-0.148772 -0.146816 0 
-0.13245 -0.189907 0 
-0.192673 -0.163186 0 
-0.176469 -0.206619 0 
-0.334949 0.0880928 0 
-0.317689 0.0443488 0 
-0.379213 0.0720994 0 
-0.361911 0.0272954 0 
-0.302216 -0.000504681 0 
-0.285091 -0.0450787 0 
-0.346752 -0.0176397 0 
-0.329036 -0.0609426 0 
-0.269294 -0.0892827 0 
-0.253625 -0.133046 0 
-0.314164 -0.105256 0 
-0.298719 -0.14992 0 
-0.237504 -0.178303 0 
-0.22032 -0.22236 0 
-0.283178 -0.194735 0 
-0.266667 -0.237809 0 
VECTORS velocity double
-0.252242 -1.66378 0 
-0.0518531 -1.61357 0 
-0.233121 -1.90434 0 
0.110565 -1.68654 0 
-0.161903 -1.18758 0 
0.161243 -1.60907 0 
0.0733987 -1.82933 0 
0.12559 -1.59166 0 
-0.00120378 -1.00967 0 
0.253802 -1.41155 0 
0.409353 -1.43237 0 
0.353169 -1.3633 0 
0.258245 -1.222 0 
0.358339 -1.2338 0 
0.316845 -1.37503 0 
0.563038 -1.29476 0 
-0.0891775 -1.74656 0 
0.423808 -1.63725 0 
-0.170777 -2.05898 0 
0.0955584 -1.96393 0 
0.0157303 -1.66452 0 
0.270795 -1.73332 0 
-0.0543634 -1.79228 0 
0.303736 -1.67358 0 
0.404446 -1.71901 0 
0.369693 -1.91547 0 
0.555856 -1.29643 0 
0.329507 -1.55066 0 
0.418315 -1.27214 0 
0.597671 -1.25007 0 
0.338268 -1.39868 0 
0.664342 -1.4066 0 
0.010071 -1.95416 0 
0.348031 -1.851 0 
0.0147952 -2.34213 0 
0.363615 -1.9382 0 
0.366104 -1.9129 0 
0.502489 -1.97872 0 
0.269407 -1.90937 0 
0.456219 -1.91687 0 
0.522496 -1.56595 0 
0.547216 -1.67925 0 
0.527352 -1.83595 0 
0.58556 -1.85172 0 
0.680968 -1.56654 0 
0.772784 -1.3828 0 
0.549897 -1.81798 0 
0.765375 -1.50516 0 
0.0676484 -2.19266 0 
0.561165 -2.10891 0 
0.331356 -2.47031 0 
0.601622 -2.27127 0 
0.308544 -1.93923 0 
0.522357 -1.89897 0 
0.601134 -2.31258 0 
0.66434 -2.1204 0 
0.56285 -1.77392 0 
0.577111 -1.69721 0 
0.672993 -2.0443 0 
0.863703 -2.12804 0 
0.663435 -1.5872 0 
1.0018 -1.58861 0 
1.0025 -2.04614 0 
1.11347 -1.75 0 
SCALARS mass double 1
LOOKUP_TABLE default
0.625
0.625
0.625
0.625
0.625
0.625
0.625
0.625
0.625
0.625
0.625
0.625
0.625
0.625
0.625
0.625
0.625
0.625
0.625
0.625
0.625
0.625
0.625
0.625
0.625
0.625
0.625
0.625
0.625
0.625
0.625
0.625
0.625
0.625
0.625
0.625
0.625
0.625
0.625
0.625
0.625
0.625
0.625
0.625
0.625
0.625
0.625
0.625
0.625
0.625
0.625
0.625
0.625
0.625
0.625
0.625
0.625
0.625
0.625
0.625
0.625
0.625
0.625
0.625
SCALARS volume double 1
LOOKUP_TABLE default
0.000626337
0.000616474
0.000620473
0.000621427
0.000622614
0.000634124
0.00063256
0.000607564
0.000628093
0.000620946
0.000639271
0.000620148
0.00061796
0.000627471
0.000637153
0.000630319
0.000636557
0.000612463
0.000627066
0.000636244
0.000629308
0.000628374
0.000623699
0.000616788
0.00061873
0.000616123
0.000621482
0.000640849
0.000618408
0.00062768
0.000631676
0.000625612
0.000624603
0.000625901
0.000622681
0.000615811
0.00061613
0.000631611
0.000632436
0.000615495
0.000619571
0.000623264
0.000628692
0.000627223
0.00061768
0.000629483
0.000629174
0.000625554
0.000630699
0.000618006
0.000628778
0.000623301
0.000625351
0.000620683
0.000624506
0.000622847
0.000622948
0.000624504
0.000623254
0.000629258
0.000619973
0.00063224
0.000622696
0.000621629
VECTORS momentum double
-0.157651 -1.03986 0 
-0.0324082 -1.00848 0 
-0.1457 -1.19021 0 
0.0691033 -1.05409 0 
-0.10119 -0.742239 0 
0.100777 -1.00567 0 
0.0458742 -1.14333 0 
0.0784935 -0.994787 0 
-0.000752364 -0.631046 0 
0.158626 -0.882217 0 
0.255846 -0.895229 0 
0.22073 -0.85206 0 
0.161403 -0.763752 0 
0.223962 -0.771128 0 
0.198028 -0.859395 0 
0.351899 -0.809226 0 
-0.0557359 -1.0916 0 
0.26488 -1.02328 0 
-0.106736 -1.28686 0 
0.059724 -1.22746 0 
0.00983143 -1.04032 0 
0.169247 -1.08332 0 
-0.0339771 -1.12017 0 
0.189835 -1.04599 0 
0.252779 -1.07438 0 
0.231058 -1.19717 0 
0.34741 -0.810267 0 
0.205942 -0.96916 0 
0.261447 -0.795085 0 
0.373544 -0.781295 0 
0.211417 -0.874172 0 
0.415214 -0.879126 0 
0.00629438 -1.22135 0 
0.217519 -1.15688 0 
0.00924699 -1.46383 0 
0.227259 -1.21137 0 
0.228815 -1.19556 0 
0.314056 -1.2367 0 
0.168379 -1.19336 0 
0.285137 -1.19804 0 
0.32656 -0.978721 0 
0.34201 -1.04953 0 
0.329595 -1.14747 0 
0.365975 -1.15732 0 
0.425605 -0.979085 0 
0.48299 -0.86425 0 
0.343686 -1.13624 0 
0.478359 -0.940726 0 
0.0422803 -1.37041 0 
0.350728 -1.31807 0 
0.207098 -1.54394 0 
0.376014 -1.41954 0 
0.19284 -1.21202 0 
0.326473 -1.18686 0 
0.375709 -1.44536 0 
0.415212 -1.32525 0 
0.351781 -1.1087 0 
0.360694 -1.06075 0 
0.420621 -1.27769 0 
0.539814 -1.33002 0 
0.414647 -0.991999 0 
0.626123 -0.992879 0 
0.626562 -1.27884 0 
0.695917 -1.09375 0 
VECTORS body_force double
0 -9.81 0 
0 -9.81 0 
0 -9.81 0 
0 -9.81 0 
0 -9.81 0 
0 -9.81 0 
0 -9.81 0 
0 -9.81 0 
0 -9.81 0 
0 -9.81 0 
0 -9.81 0 
0 -9.81 0 
0 -9.81 0 
0 -9.81 0 
0 -9.81 0 
0 -9.81 0 
0 -9.81 0 
0 -9.81 0 
0 -9.81 0 
0 -9.81 0 
0 -9.81 0 
0 -9.81 0 
0 -9.81 0 
0 -9.81 0 
0 -9.81 0 
0 -9.81 0 
0 -9.81 0 
0 -9.81 0 
0 -9.81 0 
0 -9.81 0 
0 -9.81 0 
0 -9.81 0 
0 -9.81 0 
0 -9.81 0 
0 -9.81 0 
0 -9.81 0 
0 -9.81 0 
0 -9.81 0 
0 -9.81 0 
0 -9.81 0 
0 -9.81 0 
0 -9.81 0 
0 -9.81 0 
0 -9.81 0 
0 -9.81 0 
0 -9.81 0 
0 -9.81 0 
0 -9.81 0 
0 -9.81 0 
0 -9.81 0 
0 -9.81 0 
0 -9.81 0 
0 -9.81 0 
0 -9.81 0 
0 -9.81 0 
0 -9.81 0 
0 -9.81 0 
0 -9.81 0 
0 -9.81 0 
0 -9.81 0 
0 -9.81 0 
0 -9.81 0 
0 -9.81 0 
0 -9.81 0 
TENSORS cauchy_stress double
529.99 279.531 0
279.531 -119.185 0
0 0 0

-356.286 297.952 0
297.952 -2285.23 0
0 0 0

-1652.51 -663.664 0
-663.664 254.511 0
0 0 0

54.1087 1809.89 0
1809.89 -1156.72 0
0 0 0

-1727.44 485.981 0
485.981 991.901 0
0 0 0

2919.18 1373.92 0
1373.92 -132.06 0
0 0 0

-292.984 -1816.7 0
-1816.7 2605.05 0
0 0 0

-2116.36 985.597 0
985.597 -3324.9 0
0 0 0

437.307 -69.5325 0
-69.5325 512.096 0
0 0 0

-1886.7 780.906 0
780.906 635.311 0
0 0 0

3670.31 -2268.93 0
-2268.93 671.468 0
0 0 0

-2312.77 -906.824 0
-906.824 814.011 0
0 0 0

-235.065 153.926 0
153.926 -1943.51 0
0 0 0

-191.069 -401.589 0
-401.589 949.899 0
0 0 0

3231.2 1608.88 0
1608.88 472.263 0
0 0 0

311.609 -127.465 0
-127.465 1318.2 0
0 0 0

1809.54 312.047 0
312.047 1713.9 0
0 0 0

-1392.89 -2156.8 0
-2156.8 -2503.88 0
0 0 0

427.619 -497.872 0
-497.872 207.014 0
0 0 0

2347.79 108.375 0
108.375 1081.09 0
0 0 0

1527.11 -732.303 0
-732.303 -206.055 0
0 0 0

-236.081 1084.52 0
1084.52 1271.48 0
0 0 0

-760.969 160.057 0
160.057 360.212 0
0 0 0

-1572.8 -1268.41 0
-1268.41 -970.664 0
0 0 0

-2654.09 98.7986 0
98.7986 715.097 0
0 0 0

-1511.73 -785.795 0
-785.795 -1239.18 0
0 0 0

747.301 -275.947 0
-275.947 -1832.91 0
0 0 0

60.7587 -858.244 0
-858.244 4754.92 0
0 0 0

-566.419 -1031.07 0
-1031.07 -1472.62 0
0 0 0

303.35 -145.49 0
-145.49 519.65 0
0 0 0

1327.02 -285.45 0
-285.45 716.144 0
0 0 0

-1265.51 1889.43 0
1889.43 1453.73 0
0 0 0

-1037.71 -464.076 0
-464.076 915.639 0
0 0 0

576.864 -382.747 0
-382.747 -299.751 0
0 0 0

-1.47946 -237.344 0
-237.344 -713.444 0
0 0 0

-215.3 433.824 0
433.824 -2633.01 0
0 0 0

-3257.32 -1992.15 0
-1992.15 508.686 0
0 0 0

3313.68 1493.41 0
1493.41 -1290.19 0
0 0 0

966.133 -287.862 0
-287.862 1308.31 0
0 0 0

-634.841 -912.871 0
-912.871 -2312.11 0
0 0 0

-4092.44 -401.601 0
-401.601 2414.78 0
0 0 0

1308.41 944.811 0
944.811 -1843.17 0
0 0 0

962.359 -65.4394 0
-65.4394 170.308 0
0 0 0

-147.746 -1147.89 0
-1147.89 830.508 0
0 0 0

-1510.12 -1259.48 0
-1259.48 -755.494 0
0 0 0

557.793 -572.909 0
-572.909 816.552 0
0 0 0

977.745 -1149.53 0
-1149.53 302.226 0
0 0 0

-68.5878 1747.89 0
1747.89 238.855 0
0 0 0

658.226 120.211 0
120.211 1087.45 0
0 0 0

-1446.61 -1339.39 0
-1339.39 -717.416 0
0 0 0

783.051 63.9089 0
63.9089 375.784 0
0 0 0

728.019 -86.2365 0
-86.2365 -1251.65 0
0 0 0

-111.525 820.419 0
820.419 219.642 0
0 0 0

-234.953 -1259.27 0
-1259.27 -1098.04 0
0 0 0

194.119 347.63 0
347.63 -346.135 0
0 0 0

179.574 -141.259 0
-141.259 -843.14 0
0 0 0

-348.957 592.496 0
592.496 -283.534 0
0 0 0

-1586.53 1362.17 0
1362.17 1433.97 0
0 0 0

612.014 -14.9658 0
-14.9658 -1150.13 0
0 0 0

382.704 -273.798 0
-273.798 923.017 0
0 0 0

-337.775 -452.657 0
-452.657 -1215.39 0
0 0 0

-251.046 -1434.24 0
-1434.24 2465.9 0
0 0 0

556.8 255.138 0
255.138 -1267.08 0
0 0 0

-736.142 1123.59 0
1123.59 -304.023 0
0 0 0

TENSORS velocity_gradient double
-0.222607 -3.83579 0
3.2826 0.302247 0
0 0 0

0.897673 -4.18813 0
4.45871 0.0775283 0
0 0 0

-0.0543003 -4.23721 0
3.47558 0.319901 0
0 0 0

0.16232 -4.43301 0
3.53042 0.270333 0
0 0 0

0.225449 -3.6433 0
4.78195 -0.184461 0
0 0 0

-0.142542 -4.24442 0
4.90025 0.184616 0
0 0 0

-0.127846 -4.39758 0
4.91395 0.0418522 0
0 0 0

-0.207977 -4.32721 0
4.83926 0.107441 0
0 0 0

-0.081878 -4.36238 0
3.61686 0.502662 0
0 0 0

0.178062 -3.79157 0
2.99885 0.559756 0
0 0 0

-0.306995 -4.10576 0
4.74176 0.0836229 0
0 0 0

0.0566451 -3.1212 0
2.86116 -0.0699878 0
0 0 0

0.0454846 -2.68346 0
2.8206 0.078631 0
0 0 0

-0.101242 -2.05527 0
2.41568 -0.227476 0
0 0 0

-0.167417 -2.9223 0
2.74924 -0.00142277 0
0 0 0

-0.407302 -3.62057 0
2.73887 -1.00088 0
0 0 0

0.0652743 -3.98119 0
3.63224 0.374519 0
0 0 0

0.306435 -4.35347 0
3.60284 0.266044 0
0 0 0

0.307487 -3.75769 0
4.63245 0.349713 0
0 0 0

0.327122 -4.42223 0
3.97608 0.366343 0
0 0 0

0.336696 -4.41837 0
3.74797 0.116084 0
0 0 0

-0.147595 -4.405 0
4.59584 0.0443727 0
0 0 0

0.347089 -4.40632 0
3.87693 0.265708 0
0 0 0

0.301234 -4.15078 0
4.08374 -0.891389 0
0 0 0

-0.497557 -3.71978 0
4.51724 -0.726551 0
0 0 0

-0.832881 -3.43965 0
4.11166 -0.387728 0
0 0 0

-0.334616 -4.01111 0
4.27547 -1.00872 0
0 0 0

-1.0569 -3.75407 0
3.85547 -0.529379 0
0 0 0

-0.655648 -3.73778 0
3.20577 -0.499845 0
0 0 0

-0.596201 -4.02945 0
2.87696 -0.97796 0
0 0 0

-0.886645 -3.97157 0
4.18863 -0.363576 0
0 0 0

-0.676056 -4.14692 0
4.01842 -0.737889 0
0 0 0

0.352713 -4.82229 0
4.55606 0.226938 0
0 0 0

0.107337 -4.61141 0
4.45047 0.317688 0
0 0 0

-0.340932 -4.98028 0
4.96421 0.102334 0
0 0 0

-0.0823583 -4.75989 0
4.41362 0.0687899 0
0 0 0

0.0570773 -4.40949 0
4.26676 -0.275019 0
0 0 0

0.187138 -4.28442 0
4.33433 -0.597862 0
0 0 0

-0.250005 -4.56133 0
4.54575 -0.176554 0
0 0 0

-0.327611 -4.42677 0
4.69763 -0.331778 0
0 0 0

0.0566982 -4.17593 0
4.62082 -0.836147 0
0 0 0

-0.362421 -3.55889 0
4.51005 0.432175 0
0 0 0

-0.106803 -3.95969 0
4.68587 0.322183 0
0 0 0

-0.359513 -3.76304 0
4.59554 0.392472 0
0 0 0

-0.663287 -3.67397 0
4.57494 0.151141 0
0 0 0

-0.631963 -3.87662 0
4.73156 0.59797 0
0 0 0

-0.605505 -4.34763 0
4.56878 0.064216 0
0 0 0

-1.33085 -4.85661 0
3.92194 0.0441285 0
0 0 0

-0.448039 -4.8257 0
5.01317 -0.0625609 0
0 0 0

-0.306263 -4.75113 0
4.90637 0.0660677 0
0 0 0

-0.334495 -4.47144 0
4.93755 -0.0222601 0
0 0 0

-0.179117 -4.60595 0
4.88725 0.0212832 0
0 0 0

-0.379803 -4.71979 0
4.68747 -0.00353168 0
0 0 0

-0.422857 -3.88601 0
4.80273 0.218652 0
0 0 0

-0.0163996 -3.77863 0
4.82934 0.138893 0
0 0 0

-0.246001 -3.62815 0
4.78736 0.216247 0
0 0 0

-0.205294 -4.03152 0
4.78323 0.257141 0
0 0 0

-0.553423 -4.01184 0
4.52623 0.303543 0
0 0 0

-0.0209566 -3.80004 0
4.76454 0.233673 0
0 0 0

0.277367 -5.52788 0
4.47799 -0.00614777 0
0 0 0

-0.730772 -5.57899 0
4.75386 -0.13417 0
0 0 0

-0.862517 -5.46138 0
5.10331 -0.446121 0
0 0 0

-0.511847 -5.68694 0
4.80697 0.182935 0
0 0 0

-0.855394 -6.00407 0
4.988 0.216136 0
0 0 0

SCALARS active double 1
LOOKUP_TABLE default
1
1
1
1
1
1
1
1
1
1
1
1
1
1
1
1
1
1
1
1
1
1
1
1
1
1
1
1
1
1
1
1
1
1
1
1
1
1
1
1
1
1
1
1
1
1
1
1
1
1
1
1
1
1
1
1
1
1
1
1
1
1
1
1
SCALARS extent double 1
LOOKUP_TABLE default
0.0125
0.0125
0.0125
0.0125
0.0125
0.0125
0.0125
0.0125
0.0125
0.0125
0.0125
0.0125
0.0125
0.0125
0.0125
0.0125
0.0125
0.0125
0.0125
0.0125
0.0125
0.0125
0.0125
0.0125
0.0125
0.0125
0.0125
0.0125
0.0125
0.0125
0.0125
0.0125
0.0125
0.0125
0.0125
0.0125
0.0125
0.0125
0.0125
0.0125
0.0125
0.0125
0.0125
0.0125
0.0125
0.0125
0.0125
0.0125
0.0125
0.0125
0.0125
0.0125
0.0125
0.0125
0.0125
0.0125
0.0125
0.0125
0.0125
0.0125
0.0125
0.0125
0.0125
0.0125
SCALARS pressure double 1
LOOKUP_TABLE default
-205.402
1320.76
699.001
551.307
367.771
-1393.56
-1156.03
2720.63
-474.702
625.696
-2170.89
749.378
1089.29
-379.415
-1851.73
-814.906
-1761.72
1948.39
-317.317
-1714.44
-660.529
-517.698
200.379
1271.73
969.494
1375.46
542.805
-2407.84
1019.52
-411.5
-1021.58
-94.1091
61.0362
-138.557
357.462
1424.16
1374.32
-1011.75
-1137.22
1473.48
838.831
267.382
-566.334
-341.381
1132.81
-687.173
-639.986
-85.1335
-872.839
1082.01
-579.417
261.817
-54.0586
666.497
76.008
331.783
316.246
76.2781
269.059
-652.861
776.58
-1107.43
355.139
520.083
SCALARS density double 1
LOOKUP_TABLE default
997.866
1013.83
1007.3
1005.75
1003.83
985.612
988.049
1028.7
995.075
1006.53
977.676
1007.82
1011.39
996.062
980.926
991.561
981.845
1020.47
996.705
982.328
993.154
994.63
1002.09
1013.31
1010.13
1014.41
1005.66
975.269
1010.66
995.73
989.432
999.022
1000.63
998.56
1003.72
1014.92
1014.4
989.533
988.243
1015.44
1008.76
1002.78
994.127
996.456
1011.85
992.879
993.366
999.115
990.964
1011.32
993.992
1002.73
999.438
1006.96
1000.79
1003.46
1003.29
1000.79
1002.8
993.233
1008.11
988.549
1003.7
1005.42
