# vtk DataFile Version 3.0
Frame: 12, Time: 0.204
ASCII
DATASET UNSTRUCTURED_GRID
POINTS 64 double
0.314419 0.0351412 0 
0.291467 0.0420014 0 
0.325928 0.0559542 0 
0.301483 0.0640787 0 
0.26739 0.0503321 0 
0.24578 0.0567306 0 
0.277627 0.0730263 0 
0.255148 0.0824272 0 
0.223631 0.0654861 0 
0.201368 0.0773434 0 
0.233384 0.0905276 0 
0.210943 0.100688 0 
0.179558 0.0875427 0 
0.157335 0.0977949 0 
0.189192 0.111763 0 
0.165875 0.120499 0 
0.334968 0.0775205 0 
0.310941 0.0879798 0 
0.343132 0.101087 0 
0.319967 0.110799 0 
0.288916 0.0951104 0 
0.266605 0.10514 0 
0.297599 0.119369 0 
0.275063 0.127233 0 
0.244245 0.113544 0 
0.221264 0.123686 0 
0.252364 0.137526 0 
0.230203 0.14728 0 
0.198519 0.134959 0 
0.175522 0.144654 0 
0.207684 0.157662 0 
0.184938 0.16808 0 
0.351375 0.125677 0 
0.328268 0.134554 0 
0.360946 0.14903 0 
0.337477 0.15803 0 
0.3056 0.143512 0 
0.282276 0.151757 0 
0.315127 0.167019 0 
0.291929 0.175913 0 
0.260759 0.160852 0 
0.238676 0.171373 0 
0.269527 0.185001 0 
0.24788 0.195329 0 
0.21572 0.18109 0 
0.193466 0.19123 0 
0.225158 0.205162 0 
0.202438 0.214401 0 
0.371072 0.17141 0 
0.347302 0.180483 0 
0.380494 0.194397 0 
0.356508 0.203969 0 
0.324599 0.190114 0 
0.301234 0.199764 0 
0.333551 0.214593 0 
0.310442 0.22283 0 
0.279311 0.208689 0 
0.257197 0.217818 0 
0.288367 0.232742 0 
0.265952 0.241646 0 
0.234091 0.228466 0 
0.21085 0.237626 0 
0.244211 0.251863 0 
0.220713 0.261227 0 
CELLS 64 128
1 0
1 1
1 2
1 3
1 4
1 5
1 6
1 7
1 8
1 9
1 10
1 11
1 12
1 13
1 14
1 15
1 16
1 17
1 18
1 19
1 20
1 21
1 22
1 23
1 24
1 25
1 26
1 27
1 28
1 29
1 30
1 31
1 32
1 33
1 34
1 35
1 36
1 37
1 38
1 39
1 40
1 41
1 42
1 43
1 44
1 45
1 46
1 47
1 48
1 49
1 50
1 51
1 52
1 53
1 54
1 55
1 56
1 57
1 58
1 59
1 60
1 61
1 62
1 63
CELL_TYPES 64
1
1
1
1
1
1
1
1
1
1
1
1
1
1
1
1
1
1
1
1
1
1
1
1
1
1
1
1
1
1
1
1
1
1
1
1
1
1
1
1
1
1
1
1
1
1
1
1
1
1
1
1
1
1
1
1
1
1
1
1
1
1
1
1
POINT_DATA 64
VECTORS displacement double
0.101919 -0.177359 0 
0.0789672 -0.195499 0 
0.0884275 -0.156546 0 
0.0639829 -0.173421 0 
0.0548898 -0.212168 0 
0.0332799 -0.230769 0 
0.040127 -0.189474 0 
0.0176476 -0.205073 0 
0.0111307 -0.247014 0 
-0.0111319 -0.260157 0 
-0.00411604 -0.221972 0 
-0.0265569 -0.236812 0 
-0.0329418 -0.274957 0 
-0.055165 -0.289705 0 
-0.0483077 -0.250737 0 
-0.0716254 -0.267001 0 
0.0724679 -0.13498 0 
0.0484409 -0.14952 0 
0.0556319 -0.111413 0 
0.0324671 -0.126701 0 
0.0264165 -0.16739 0 
0.00410517 -0.18236 0 
0.0100989 -0.143131 0 
-0.0124367 -0.160267 0 
-0.0182554 -0.198956 0 
-0.0412364 -0.213814 0 
-0.0351357 -0.174974 0 
-0.0572972 -0.19022 0 
-0.0639811 -0.227541 0 
-0.0869778 -0.242846 0 
-0.0798156 -0.204838 0 
-0.102562 -0.21942 0 
0.0388753 -0.0868233 0 
0.0157681 -0.102946 0 
0.0234456 -0.0634704 0 
-2.34584e-05 -0.0794698 0 
-0.00689989 -0.118988 0 
-0.0302241 -0.135743 0 
-0.0223731 -0.0954805 0 
-0.0455711 -0.111587 0 
-0.0517407 -0.151648 0 
-0.0738237 -0.166127 0 
-0.0679725 -0.127499 0 
-0.0896203 -0.142171 0 
-0.0967803 -0.18141 0 
-0.119034 -0.19627 0 
-0.112342 -0.157338 0 
-0.135062 -0.173099 0 
0.00857221 -0.0410898 0 
-0.0151979 -0.057017 0 
-0.00700563 -0.018103 0 
-0.0309924 -0.0335307 0 
-0.0379011 -0.0723861 0 
-0.0612656 -0.0877357 0 
-0.0539492 -0.0479067 0 
-0.0770585 -0.0646698 0 
-0.0831885 -0.103811 0 
-0.105303 -0.119682 0 
-0.0991335 -0.0797577 0 
-0.121548 -0.0958544 0 
-0.128409 -0.134034 0 
-0.15165 -0.149874 0 
-0.143289 -0.110637 0 
-0.166787 -0.126273 0 
VECTORS velocity double
0.100781 0.523229 0 
-0.191611 0.558318 0 
-0.31961 2.23605 0 
-0.410326 1.89795 0 
-0.361083 0.802121 0 
-0.486055 0.555131 0 
-0.385474 1.16379 0 
-0.645668 1.18498 0 
-1.05287 1.34588 0 
-1.28075 1.82204 0 
-1.01968 1.47025 0 
-0.987995 1.80289 0 
-0.839979 1.65856 0 
-0.776231 1.13851 0 
-0.717053 1.83044 0 
-1.43615 1.00813 0 
-1.04375 2.42835 0 
-1.09833 1.73001 0 
-1.4963 3.15514 0 
-1.56653 1.9204 0 
-0.76148 1.12536 0 
-0.89616 0.745046 0 
-1.37573 1.28787 0 
-1.3703 0.951137 0 
-0.84166 0.913888 0 
-0.636092 1.17177 0 
-0.979547 1.50457 0 
-0.950875 1.84612 0 
-0.632173 1.55498 0 
-1.31635 0.797841 0 
-0.95333 1.76985 0 
-1.28094 1.12335 0 
-0.970904 3.25224 0 
-1.80515 2.32212 0 
-1.33188 2.7252 0 
-2.03133 2.27927 0 
-1.67365 1.69735 0 
-1.71203 1.49196 0 
-2.10807 2.18018 0 
-2.10708 2.30842 0 
-1.52106 1.95021 0 
-1.34274 2.30659 0 
-1.94271 2.39513 0 
-1.71545 2.47185 0 
-1.1093 1.75456 0 
-1.77786 0.924376 0 
-1.2414 2.38719 0 
-1.86216 1.20355 0 
-1.81563 2.86918 0 
-2.04388 2.12793 0 
-2.37059 3.22163 0 
-2.44226 2.85046 0 
-2.09701 2.03378 0 
-1.86289 2.17939 0 
-2.21332 2.6846 0 
-2.13278 2.47644 0 
-1.60146 2.12535 0 
-1.92904 1.95551 0 
-1.94916 2.73896 0 
-2.23089 2.26925 0 
-2.02358 2.53823 0 
-2.50542 1.09068 0 
-2.05228 2.76427 0 
-2.08404 1.76494 0 
SCALARS mass double 1
LOOKUP_TABLE default
0.625
0.625
0.625
0.625
0.625
0.625
0.625
0.625
0.625
0.625
0.625
0.625
0.625
0.625
0.625
0.625
0.625
0.625
0.625
0.625
0.625
0.625
0.625
0.625
0.625
0.625
0.625
0.625
0.625
0.625
0.625
0.625
0.625
0.625
0.625
0.625
0.625
0.625
0.625
0.625
0.625
0.625
0.625
0.625
0.625
0.625
0.625
0.625
0.625
0.625
0.625
0.625
0.625
0.625
0.625
0.625
0.625
0.625
0.625
0.625
0.625
0.625
0.625
0.625
SCALARS volume double 1
LOOKUP_TABLE default
0.00047527
0.00057904
0.000641458
0.000629868
0.000594944
0.000607363
0.000617527
0.000590082
0.000675689
0.000619103
0.000616857
0.000609471
0.000604606
0.000610561
0.000626816
0.000623617
0.000637791
0.000591279
0.000653244
0.000610766
0.000588019
0.000601555
0.000612446
0.000599925
0.000605664
0.000630807
0.000587843
0.000630417
0.00060443
0.000645511
0.000606428
0.000625969
0.000613336
0.0006294
0.000614952
0.000603064
0.000609001
0.000623172
0.000604881
0.00063067
0.000612592
0.0006321
0.000602858
0.00060272
0.000622317
0.000635532
0.000632537
0.000617103
0.000630314
0.000614721
0.000627888
0.000634167
0.000627326
0.000610441
0.000616201
0.000612293
0.000624673
0.000611598
0.000619055
0.000622761
0.00060893
0.00061527
0.000641432
0.0006292
VECTORS momentum double
0.0629883 0.327018 0 
-0.119757 0.348949 0 
-0.199756 1.39753 0 
-0.256454 1.18622 0 
-0.225677 0.501326 0 
-0.303784 0.346957 0 
-0.240921 0.727368 0 
-0.403543 0.74061 0 
-0.658041 0.841173 0 
-0.800468 1.13877 0 
-0.637297 0.918905 0 
-0.617497 1.1268 0 
-0.524987 1.0366 0 
-0.485144 0.711571 0 
-0.448158 1.14403 0 
-0.897592 0.630084 0 
-0.652345 1.51772 0 
-0.686459 1.08126 0 
-0.935189 1.97196 0 
-0.979078 1.20025 0 
-0.475925 0.703349 0 
-0.5601 0.465654 0 
-0.85983 0.804919 0 
-0.856438 0.59446 0 
-0.526037 0.57118 0 
-0.397558 0.732356 0 
-0.612217 0.940358 0 
-0.594297 1.15382 0 
-0.395108 0.971863 0 
-0.822717 0.49865 0 
-0.595831 1.10616 0 
-0.800585 0.702093 0 
-0.606815 2.03265 0 
-1.12822 1.45132 0 
-0.832426 1.70325 0 
-1.26958 1.42455 0 
-1.04603 1.06084 0 
-1.07002 0.932477 0 
-1.31754 1.36262 0 
-1.31693 1.44276 0 
-0.950663 1.21888 0 
-0.839213 1.44162 0 
-1.21419 1.49695 0 
-1.07216 1.54491 0 
-0.693311 1.0966 0 
-1.11116 0.577735 0 
-0.775877 1.49199 0 
-1.16385 0.752216 0 
-1.13477 1.79324 0 
-1.27742 1.32996 0 
-1.48162 2.01352 0 
-1.52642 1.78154 0 
-1.31063 1.27111 0 
-1.16431 1.36212 0 
-1.38333 1.67788 0 
-1.33299 1.54777 0 
-1.00091 1.32835 0 
-1.20565 1.22219 0 
-1.21822 1.71185 0 
-1.39431 1.41828 0 
-1.26474 1.5864 0 
-1.56589 0.681678 0 
-1.28268 1.72767 0 
-1.30253 1.10309 0 
VECTORS body_force double
0 -9.81 0 
0 -9.81 0 
0 -9.81 0 
0 -9.81 0 
0 -9.81 0 
0 -9.81 0 
0 -9.81 0 
0 -9.81 0 
0 -9.81 0 
0 -9.81 0 
0 -9.81 0 
0 -9.81 0 
0 -9.81 0 
0 -9.81 0 
0 -9.81 0 
0 -9.81 0 
0 -9.81 0 
0 -9.81 0 
0 -9.81 0 
0 -9.81 0 
0 -9.81 0 
0 -9.81 0 
0 -9.81 0 
0 -9.81 0 
0 -9.81 0 
0 -9.81 0 
0 -9.81 0 
0 -9.81 0 
0 -9.81 0 
0 -9.81 0 
0 -9.81 0 
0 -9.81 0 
0 -9.81 0 
0 -9.81 0 
0 -9.81 0 
0 -9.81 0 
0 -9.81 0 
0 -9.81 0 
0 -9.81 0 
0 -9.81 0 
0 -9.81 0 
0 -9.81 0 
0 -9.81 0 
0 -9.81 0 
0 -9.81 0 
0 -9.81 0 
0 -9.81 0 
0 -9.81 0 
0 -9.81 0 
0 -9.81 0 
0 -9.81 0 
0 -9.81 0 
0 -9.81 0 
0 -9.81 0 
0 -9.81 0 
0 -9.81 0 
0 -9.81 0 
0 -9.81 0 
0 -9.81 0 
0 -9.81 0 
0 -9.81 0 
0 -9.81 0 
0 -9.81 0 
0 -9.81 0 
TENSORS cauchy_stress double
-19986.1 11169 0
11169 -32681.2 0
0 0 0

1603.19 1445.78 0
1445.78 -16291.6 0
0 0 0

4728.74 -4294.5 0
-4294.5 269.719 0
0 0 0

-315.008 4569.68 0
4569.68 1807.14 0
0 0 0

-10388 3029.7 0
3029.7 910.368 0
0 0 0

-9580.96 210.034 0
210.034 4076.06 0
0 0 0

1964.88 -3179.98 0
-3179.98 -4278.26 0
0 0 0

-6666.41 10506.3 0
10506.3 -4389.38 0
0 0 0

935.202 1437.02 0
1437.02 14061.1 0
0 0 0

-5889.68 -5921.39 0
-5921.39 4066.51 0
0 0 0

-1161.76 1117.74 0
1117.74 -1360.12 0
0 0 0

-6220.66 -787.008 0
-787.008 1382.19 0
0 0 0

-5759.31 3664.92 0
3664.92 -620.308 0
0 0 0

-3125.28 -2095.34 0
-2095.34 -1369.7 0
0 0 0

-793.164 1550.45 0
1550.45 1351.12 0
0 0 0

-3.14879 -1777.16 0
-1777.16 -422.899 0
0 0 0

723.115 -4013.19 0
-4013.19 3172.84 0
0 0 0

-1659.42 1288.24 0
1288.24 -9006.67 0
0 0 0

3134.13 -2914.35 0
-2914.35 5365.67 0
0 0 0

-4699.96 466.438 0
466.438 269.673 0
0 0 0

-7841.97 4702.87 0
4702.87 -3887.22 0
0 0 0

-1685.7 -1386.16 0
-1386.16 -5666.95 0
0 0 0

-5615.58 1616.62 0
1616.62 1713.37 0
0 0 0

-6820.49 -3591.05 0
-3591.05 -1053.93 0
0 0 0

-5517.78 2700.95 0
2700.95 -525.718 0
0 0 0

943.805 -1267.49 0
-1267.49 834.698 0
0 0 0

-8614.69 -1404.8 0
-1404.8 -3172.06 0
0 0 0

-3317.13 -2133.86 0
-2133.86 4976.62 0
0 0 0

-3980.3 -2627.54 0
-2627.54 -2455.56 0
0 0 0

2232.24 1639.02 0
1639.02 3977.48 0
0 0 0

-4698.07 -1798.82 0
-1798.82 -1102.99 0
0 0 0

-149.977 -3220.03 0
-3220.03 447.989 0
0 0 0

-5673.77 220.288 0
220.288 2050.96 0
0 0 0

665.201 615.495 0
615.495 683.941 0
0 0 0

30.2737 -479.981 0
-479.981 -3147.13 0
0 0 0

-1322.41 3131.87 0
3131.87 -5548.46 0
0 0 0

-4227.79 -436.018 0
-436.018 -758.973 0
0 0 0

-3966.82 2256.2 0
2256.2 3403.63 0
0 0 0

-4265.04 400.432 0
400.432 -2027.33 0
0 0 0

1088.38 2643.59 0
2643.59 648.335 0
0 0 0

-7529.19 -1873.83 0
-1873.83 3673.02 0
0 0 0

-2507.93 -19.5789 0
-19.5789 4680.34 0
0 0 0

-4443.35 695.198 0
695.198 -2493.12 0
0 0 0

-6195.09 -882.926 0
-882.926 -785.549 0
0 0 0

-1856.79 -1920.51 0
-1920.51 1029.5 0
0 0 0

-2942.74 -1625.39 0
-1625.39 6156.46 0
0 0 0

-319.564 1525.59 0
1525.59 2624.67 0
0 0 0

-1237.6 -2028.13 0
-2028.13 -1207.64 0
0 0 0

361.354 -2497.37 0
-2497.37 1266.96 0
0 0 0

-755.957 1247.57 0
1247.57 -2433.11 0
0 0 0

-817.694 -34.606 0
-34.606 1704.32 0
0 0 0

2414.31 -946.403 0
-946.403 385.901 0
0 0 0

-1395.97 108.898 0
108.898 2110.34 0
0 0 0

-4796.76 -666.329 0
-666.329 263.958 0
0 0 0

-2491.98 664.055 0
664.055 -234.77 0
0 0 0

-4118.57 -146.977 0
-146.977 168.312 0
0 0 0

-3615.79 2883.33 0
2883.33 3515.29 0
0 0 0

-4284.63 -2746.29 0
-2746.29 116.201 0
0 0 0

-2444.66 -309.409 0
-309.409 606.747 0
0 0 0

-1740.32 46.1938 0
46.1938 1050.28 0
0 0 0

-2834.77 -2154.21 0
-2154.21 -2174.6 0
0 0 0

-2778.18 -976.336 0
-976.336 -239.301 0
0 0 0

-197.421 -984.461 0
-984.461 5188.05 0
0 0 0

1238.94 535.16 0
535.16 49.1701 0
0 0 0

TENSORS velocity_gradient double
-3.66624 -8.62988 0
10.5318 30.5348 0
0 0 0

2.9028 -7.63022 0
5.5509 24.8772 0
0 0 0

-5.19481 -13.2831 0
15.9716 12.2174 0
0 0 0

-2.81768 -13.9664 0
13.8909 4.41846 0
0 0 0

2.9304 -9.65983 0
6.31628 13.6097 0
0 0 0

8.98764 -6.87174 0
-8.92904 3.73033 0
0 0 0

0.678412 -11.4503 0
6.87852 3.6591 0
0 0 0

-0.446563 -8.48938 0
6.48033 3.53062 0
0 0 0

8.63426 -1.17926 0
-12.2156 0.35538 0
0 0 0

3.93223 3.86315 0
-5.76462 -2.11237 0
0 0 0

2.18168 -3.6866 0
-9.098 1.56682 0
0 0 0

0.170907 -0.725375 0
-7.44527 0.267656 0
0 0 0

0.905675 3.68355 0
5.09744 -2.30861 0
0 0 0

1.61041 0.540939 0
5.07177 -2.70374 0
0 0 0

2.24846 -3.90898 0
5.95437 -2.19169 0
0 0 0

2.52686 -4.6341 0
6.92778 -4.72703 0
0 0 0

-5.02298 -13.8028 0
19.5141 9.50804 0
0 0 0

-4.87223 -14.1357 0
21.2542 5.66565 0
0 0 0

-3.87155 -11.702 0
21.707 5.30108 0
0 0 0

-3.83374 -11.219 0
21.4501 2.20119 0
0 0 0

-2.2017 -12.9698 0
6.98529 3.71543 0
0 0 0

-3.55211 -9.09864 0
6.44076 9.31656 0
0 0 0

-4.42094 -12.5198 0
10.9365 6.86009 0
0 0 0

-6.5094 -10.0534 0
4.1176 9.70335 0
0 0 0

-1.68048 -6.26584 0
-3.20392 11.0728 0
0 0 0

-1.85103 -4.88453 0
-1.6392 5.02785 0
0 0 0

-6.76456 -7.06929 0
2.78181 11.7497 0
0 0 0

-3.12638 -6.11095 0
4.74249 7.28719 0
0 0 0

0.435412 -3.87273 0
5.23373 -0.682158 0
0 0 0

3.2817 -4.33037 0
9.567 -3.66507 0
0 0 0

-3.31748 -10.4308 0
7.18094 1.63712 0
0 0 0

2.70543 -10.0367 0
11.6173 -1.13199 0
0 0 0

4.24991 -9.79771 0
11.421 -3.65358 0
0 0 0

-1.56059 -10.3914 0
16.0923 0.250727 0
0 0 0

0.950594 -11.2754 0
10.2825 -2.24899 0
0 0 0

-0.389176 -8.10162 0
11.3922 3.7922 0
0 0 0

-0.666242 -12.5702 0
13.9844 5.38603 0
0 0 0

-9.08083 -8.71514 0
1.69759 9.00103 0
0 0 0

-1.11269 -6.15734 0
10.2065 6.86928 0
0 0 0

-7.47581 -5.34295 0
1.15549 9.06187 0
0 0 0

-8.93285 -8.42928 0
1.28863 9.34388 0
0 0 0

-3.03943 -9.83268 0
9.7272 7.56853 0
0 0 0

-6.59192 -7.54547 0
1.07473 9.26312 0
0 0 0

-3.95022 -9.41028 0
8.08659 8.7904 0
0 0 0

-2.83006 -10.3171 0
11.6084 3.21645 0
0 0 0

1.21622 -10.4034 0
13.4592 -0.370945 0
0 0 0

-2.00521 -9.2506 0
15.0841 2.56274 0
0 0 0

-1.15593 -10.7525 0
14.8639 2.51169 0
0 0 0

-1.15552 -10.0324 0
10.1538 2.10514 0
0 0 0

-1.94194 -8.78028 0
9.15531 3.07038 0
0 0 0

-2.2375 -10.4905 0
9.56041 1.85388 0
0 0 0

-3.09271 -3.84803 0
9.10538 1.20943 0
0 0 0

-3.04026 -6.97014 0
7.3237 5.6537 0
0 0 0

-3.98611 -4.10297 0
4.97122 6.8646 0
0 0 0

-3.479 0.348672 0
5.19046 1.76666 0
0 0 0

-3.06862 -0.793023 0
4.78498 2.89475 0
0 0 0

-4.21041 -3.4843 0
1.23409 2.58474 0
0 0 0

-3.19994 -5.9328 0
1.68028 1.50357 0
0 0 0

-1.56119 -2.4727 0
2.40389 3.03143 0
0 0 0

-0.573135 -4.949 0
2.84018 1.93798 0
0 0 0

-0.0593554 -8.1728 0
14.6912 1.49865 0
0 0 0

0.779335 -10.2208 0
14.3955 2.22083 0
0 0 0

1.39422 -3.38823 0
11.2779 -3.22121 0
0 0 0

1.68361 1.62958 0
11.5118 -2.47253 0
0 0 0

SCALARS active double 1
LOOKUP_TABLE default
1
1
1
1
1
1
1
1
1
1
1
1
1
1
1
1
1
1
1
1
1
1
1
1
1
1
1
1
1
1
1
1
1
1
1
1
1
1
1
1
1
1
1
1
1
1
1
1
1
1
1
1
1
1
1
1
1
1
1
1
1
1
1
1
SCALARS extent double 1
LOOKUP_TABLE default
0.0125
0.0125
0.0125
0.0125
0.0125
0.0125
0.0125
0.0125
0.0125
0.0125
0.0125
0.0125
0.0125
0.0125
0.0125
0.0125
0.0125
0.0125
0.0125
0.0125
0.0125
0.0125
0.0125
0.0125
0.0125
0.0125
0.0125
0.0125
0.0125
0.0125
0.0125
0.0125
0.0125
0.0125
0.0125
0.0125
0.0125
0.0125
0.0125
0.0125
0.0125
0.0125
0.0125
0.0125
0.0125
0.0125
0.0125
0.0125
0.0125
0.0125
0.0125
0.0125
0.0125
0.0125
0.0125
0.0125
0.0125
0.0125
0.0125
0.0125
0.0125
0.0125
0.0125
0.0125
SCALARS pressure double 1
LOOKUP_TABLE default
26333.6
7344.2
-2499.23
-746.067
4738.81
2752.45
1156.69
5527.89
-7498.18
911.587
1260.94
2419.24
3189.81
2247.49
-278.979
213.024
-1947.98
5333.05
-4249.9
2215.14
5864.6
3676.32
1951.11
3937.21
3021.75
-889.251
5893.37
-829.743
3217.93
-3104.86
2900.53
-149.006
1811.4
-674.571
1558.43
3435.43
2493.38
281.595
3146.19
-868.356
1928.08
-1086.2
3468.23
3490.32
413.645
-1606.86
-1152.56
1222.62
-814.155
1594.53
-443.315
-1400.11
-357.186
2266.4
1363.37
1975.13
50.2485
2084.21
918.956
345.02
2504.68
1508.74
-2495.31
-644.056
SCALARS density double 1
LOOKUP_TABLE default
1315.04
1079.37
974.343
992.271
1050.52
1029.04
1012.1
1059.17
924.982
1009.53
1013.2
1025.48
1033.73
1023.65
997.103
1002.22
979.945
1057.03
956.764
1023.3
1062.89
1038.97
1020.5
1041.8
1031.93
990.794
1063.21
991.408
1034.03
968.225
1030.63
998.452
1019.02
993.009
1016.34
1036.37
1026.27
1002.93
1033.26
991.01
1020.25
988.767
1036.73
1036.97
1004.31
983.428
988.085
1012.8
991.569
1016.72
995.4
985.544
996.292
1023.85
1014.28
1020.75
1000.52
1021.91
1009.6
1003.59
1026.39
1015.81
974.383
993.324
