# vtk DataFile Version 3.0
Frame: 28, Time: 0.476
ASCII
DATASET UNSTRUCTURED_GRID
POINTS 64 double
0.794366 0.0560841 0 
0.771038 0.0644903 0 
0.804091 0.0809271 0 
0.781254 0.0882213 0 
0.746811 0.0741932 0 
0.724071 0.0828033 0 
0.757317 0.0975966 0 
0.733796 0.108267 0 
0.700675 0.0935494 0 
0.677268 0.104248 0 
0.710902 0.11899 0 
0.688156 0.128827 0 
0.655422 0.113512 0 
0.631325 0.121762 0 
0.665258 0.137472 0 
0.640958 0.145299 0 
0.813006 0.105407 0 
0.789437 0.112834 0 
0.825447 0.128195 0 
0.801344 0.136774 0 
0.766768 0.121885 0 
0.742962 0.132461 0 
0.777711 0.145248 0 
0.753274 0.153936 0 
0.719841 0.143356 0 
0.697976 0.151664 0 
0.730739 0.165592 0 
0.707364 0.176109 0 
0.674387 0.159654 0 
0.650557 0.1688 0 
0.682507 0.183758 0 
0.659663 0.193042 0 
0.832591 0.15494 0 
0.808871 0.162472 0 
0.843493 0.179905 0 
0.818088 0.188284 0 
0.786219 0.169963 0 
0.762463 0.177813 0 
0.794365 0.194517 0 
0.770592 0.202963 0 
0.738904 0.190111 0 
0.715418 0.200835 0 
0.74756 0.213177 0 
0.724008 0.222884 0 
0.69056 0.208921 0 
0.667731 0.218901 0 
0.699857 0.232773 0 
0.676892 0.244239 0 
0.852251 0.203497 0 
0.826399 0.211837 0 
0.860519 0.228939 0 
0.835131 0.236194 0 
0.803797 0.219317 0 
0.781406 0.22754 0 
0.812588 0.244054 0 
0.788724 0.251128 0 
0.757993 0.236331 0 
0.733711 0.245518 0 
0.765251 0.2597 0 
0.743933 0.269264 0 
0.710164 0.256775 0 
0.687441 0.268183 0 
0.722391 0.280419 0 
0.700136 0.291679 0 
CELLS 64 128
1 0
1 1
1 2
1 3
1 4
1 5
1 6
1 7
1 8
1 9
1 10
1 11
1 12
1 13
1 14
1 15
1 16
1 17
1 18
1 19
1 20
1 21
1 22
1 23
1 24
1 25
1 26
1 27
1 28
1 29
1 30
1 31
1 32
1 33
1 34
1 35
1 36
1 37
1 38
1 39
1 40
1 41
1 42
1 43
1 44
1 45
1 46
1 47
1 48
1 49
1 50
1 51
1 52
1 53
1 54
1 55
1 56
1 57
1 58
1 59
1 60
1 61
1 62
1 63
CELL_TYPES 64
1
1
1
1
1
1
1
1
1
1
1
1
1
1
1
1
1
1
1
1
1
1
1
1
1
1
1
1
1
1
1
1
1
1
1
1
1
1
1
1
1
1
1
1
1
1
1
1
1
1
1
1
1
1
1
1
1
1
1
1
1
1
1
1
POINT_DATA 64
VECTORS displacement double
0.181866 -0.256416 0 
0.158538 -0.27301 0 
0.166591 -0.231573 0 
0.143754 -0.249279 0 
0.134311 -0.288307 0 
0.111571 -0.304697 0 
0.119817 -0.264903 0 
0.0962955 -0.279233 0 
0.0881754 -0.318951 0 
0.0647679 -0.333252 0 
0.0734024 -0.29351 0 
0.0506558 -0.308673 0 
0.0429223 -0.348988 0 
0.0188253 -0.365738 0 
0.0277584 -0.325028 0 
0.00345833 -0.342201 0 
0.150506 -0.207093 0 
0.126937 -0.224666 0 
0.137947 -0.184305 0 
0.113844 -0.200726 0 
0.104268 -0.240615 0 
0.0804619 -0.255039 0 
0.0902112 -0.217252 0 
0.0657743 -0.233564 0 
0.0573405 -0.269144 0 
0.0354757 -0.285836 0 
0.0432386 -0.246908 0 
0.0198635 -0.261391 0 
0.0118871 -0.302846 0 
-0.0119428 -0.3187 0 
-0.00499263 -0.278742 0 
-0.0278373 -0.294458 0 
0.120091 -0.15756 0 
0.0963706 -0.175028 0 
0.105993 -0.132595 0 
0.0805885 -0.149216 0 
0.0737186 -0.192537 0 
0.0499631 -0.209687 0 
0.0568654 -0.167983 0 
0.0330917 -0.184537 0 
0.0264036 -0.222389 0 
0.0029177 -0.236665 0 
0.0100596 -0.199323 0 
-0.013492 -0.214616 0 
-0.0219404 -0.253579 0 
-0.0447692 -0.268599 0 
-0.037643 -0.229727 0 
-0.0606076 -0.243261 0 
0.0897509 -0.109003 0 
0.063899 -0.125663 0 
0.0730187 -0.0835612 0 
0.0476314 -0.101306 0 
0.0412966 -0.143183 0 
0.018906 -0.15996 0 
0.0250877 -0.118446 0 
0.0012237 -0.136372 0 
-0.00450669 -0.176169 0 
-0.0287892 -0.191982 0 
-0.0222491 -0.1528 0 
-0.0435665 -0.168236 0 
-0.0523364 -0.205725 0 
-0.0750587 -0.219317 0 
-0.0651089 -0.182081 0 
-0.0873636 -0.195821 0 
VECTORS velocity double
-2.37071 -0.998862 0 
-2.23104 -0.400911 0 
-2.04061 -0.84768 0 
-1.73018 -0.65019 0 
-2.35436 -0.319833 0 
-2.40089 -0.595929 0 
-1.2186 -0.954168 0 
-1.7244 -0.841556 0 
-1.90672 -0.703989 0 
-1.54588 -0.698626 0 
-1.99611 -0.406885 0 
-1.8298 -0.203051 0 
-1.61721 -0.527945 0 
-1.86681 -0.28631 0 
-1.87078 0.0364011 0 
-1.41884 -0.234328 0 
-1.97541 -0.933233 0 
-1.91198 -0.460551 0 
-2.11207 -0.347807 0 
-2.07824 -0.53704 0 
-1.41982 -0.668345 0 
-1.80187 -0.542532 0 
-2.29776 -0.681773 0 
-2.43784 -0.444903 0 
-1.75292 -0.361511 0 
-1.36756 -0.595102 0 
-2.04506 -0.0133626 0 
-1.51534 -0.187661 0 
-1.33179 -1.02541 0 
-0.853641 -0.584514 0 
-1.26281 -0.718679 0 
-1.32252 -0.175478 0 
-1.77482 -1.00378 0 
-1.15273 -0.738137 0 
-0.995776 -0.527025 0 
-1.08106 -0.720798 0 
-1.57166 -1.10186 0 
-1.41324 -0.790977 0 
-1.31543 -1.12938 0 
-1.18848 -0.843649 0 
-1.18427 0.0656919 0 
-1.15419 -0.0179248 0 
-1.05507 -0.234101 0 
-1.14835 -0.389222 0 
-1.16447 -0.0442854 0 
-0.754932 -0.0810809 0 
-1.41411 -0.183547 0 
-0.624029 -0.224443 0 
-1.7782 -1.43471 0 
-1.83196 -0.689005 0 
-0.90611 -1.20446 0 
-0.961686 -0.836733 0 
-1.22573 -0.781644 0 
-0.886244 -0.720941 0 
-0.760624 -0.729265 0 
-0.964351 -1.17146 0 
-1.39591 -0.600484 0 
-1.1897 -0.211925 0 
-1.01101 -0.591448 0 
-0.316615 -0.323668 0 
-0.723523 0.0983824 0 
-0.62545 0.185541 0 
0.0198837 -0.727972 0 
-0.653161 0.0648412 0 
SCALARS mass double 1
LOOKUP_TABLE default
0.625
0.625
0.625
0.625
0.625
0.625
0.625
0.625
0.625
0.625
0.625
0.625
0.625
0.625
0.625
0.625
0.625
0.625
0.625
0.625
0.625
0.625
0.625
0.625
0.625
0.625
0.625
0.625
0.625
0.625
0.625
0.625
0.625
0.625
0.625
0.625
0.625
0.625
0.625
0.625
0.625
0.625
0.625
0.625
0.625
0.625
0.625
0.625
0.625
0.625
0.625
0.625
0.625
0.625
0.625
0.625
0.625
0.625
0.625
0.625
0.625
0.625
0.625
0.625
SCALARS volume double 1
LOOKUP_TABLE default
0.000652674
0.000641227
0.000619686
0.000616472
0.000625018
0.000622783
0.000634336
0.000661832
0.00061176
0.000619084
0.000648704
0.000614347
0.000627687
0.000643487
0.000611477
0.000626968
0.000607115
0.000641391
0.000678087
0.000659704
0.000620785
0.00062046
0.000657917
0.000615806
0.000598896
0.000612619
0.000644928
0.000661575
0.00062557
0.000599663
0.000658379
0.000626653
0.000648916
0.000626195
0.000623916
0.000645659
0.000623879
0.000655006
0.000622842
0.000671258
0.000667435
0.000633115
0.000619425
0.000604036
0.000629078
0.00063481
0.000661912
0.000668647
0.000622671
0.000625851
0.000643985
0.000632675
0.000610968
0.000632607
0.000617874
0.000622018
0.000620019
0.000638353
0.000608534
0.000588838
0.000658682
0.00063529
0.000619462
0.000622242
VECTORS momentum double
-1.4817 -0.624289 0 
-1.3944 -0.25057 0 
-1.27538 -0.5298 0 
-1.08136 -0.406369 0 
-1.47148 -0.199896 0 
-1.50056 -0.372456 0 
-0.761627 -0.596355 0 
-1.07775 -0.525973 0 
-1.1917 -0.439993 0 
-0.966175 -0.436641 0 
-1.24757 -0.254303 0 
-1.14363 -0.126907 0 
-1.01076 -0.329966 0 
-1.16676 -0.178944 0 
-1.16924 0.0227507 0 
-0.886777 -0.146455 0 
-1.23463 -0.583271 0 
-1.19498 -0.287844 0 
-1.32005 -0.21738 0 
-1.2989 -0.33565 0 
-0.887387 -0.417716 0 
-1.12617 -0.339083 0 
-1.4361 -0.426108 0 
-1.52365 -0.278064 0 
-1.09558 -0.225944 0 
-0.854723 -0.371939 0 
-1.27817 -0.00835165 0 
-0.947086 -0.117288 0 
-0.832371 -0.640881 0 
-0.533526 -0.365321 0 
-0.789257 -0.449175 0 
-0.826572 -0.109674 0 
-1.10926 -0.627359 0 
-0.720457 -0.461335 0 
-0.62236 -0.329391 0 
-0.675662 -0.450499 0 
-0.982288 -0.688661 0 
-0.883278 -0.494361 0 
-0.822141 -0.705861 0 
-0.7428 -0.52728 0 
-0.740169 0.0410574 0 
-0.72137 -0.011203 0 
-0.659417 -0.146313 0 
-0.717718 -0.243264 0 
-0.727794 -0.0276784 0 
-0.471832 -0.0506756 0 
-0.883818 -0.114717 0 
-0.390018 -0.140277 0 
-1.11137 -0.896695 0 
-1.14497 -0.430628 0 
-0.566319 -0.752791 0 
-0.601054 -0.522958 0 
-0.766084 -0.488528 0 
-0.553902 -0.450588 0 
-0.47539 -0.455791 0 
-0.602719 -0.732162 0 
-0.872446 -0.375302 0 
-0.743562 -0.132453 0 
-0.631878 -0.369655 0 
-0.197884 -0.202293 0 
-0.452202 0.061489 0 
-0.390906 0.115963 0 
0.0124273 -0.454983 0 
-0.408226 0.0405257 0 
VECTORS body_force double
0 -9.81 0 
0 -9.81 0 
0 -9.81 0 
0 -9.81 0 
0 -9.81 0 
0 -9.81 0 
0 -9.81 0 
0 -9.81 0 
0 -9.81 0 
0 -9.81 0 
0 -9.81 0 
0 -9.81 0 
0 -9.81 0 
0 -9.81 0 
0 -9.81 0 
0 -9.81 0 
0 -9.81 0 
0 -9.81 0 
0 -9.81 0 
0 -9.81 0 
0 -9.81 0 
0 -9.81 0 
0 -9.81 0 
0 -9.81 0 
0 -9.81 0 
0 -9.81 0 
0 -9.81 0 
0 -9.81 0 
0 -9.81 0 
0 -9.81 0 
0 -9.81 0 
0 -9.81 0 
0 -9.81 0 
0 -9.81 0 
0 -9.81 0 
0 -9.81 0 
0 -9.81 0 
0 -9.81 0 
0 -9.81 0 
0 -9.81 0 
0 -9.81 0 
0 -9.81 0 
0 -9.81 0 
0 -9.81 0 
0 -9.81 0 
0 -9.81 0 
0 -9.81 0 
0 -9.81 0 
0 -9.81 0 
0 -9.81 0 
0 -9.81 0 
0 -9.81 0 
0 -9.81 0 
0 -9.81 0 
0 -9.81 0 
0 -9.81 0 
0 -9.81 0 
0 -9.81 0 
0 -9.81 0 
0 -9.81 0 
0 -9.81 0 
0 -9.81 0 
0 -9.81 0 
0 -9.81 0 
TENSORS cauchy_stress double
4004.47 2539.33 0
2539.33 4327.4 0
0 0 0

3239.21 430.386 0
430.386 1689.89 0
0 0 0

-3415.26 1954.31 0
1954.31 1773.14 0
0 0 0

-3830.07 1619.48 0
1619.48 1187.89 0
0 0 0

2026.04 1901.07 0
1901.07 -2020.6 0
0 0 0

110.494 196.844 0
196.844 -793.975 0
0 0 0

-4194.41 -2932.55 0
-2932.55 7045.85 0
0 0 0

-1300.66 -2204.29 0
-2204.29 12312.3 0
0 0 0

-5370.64 -388.794 0
-388.794 1253.05 0
0 0 0

-3408.74 1336.21 0
1336.21 1579.8 0
0 0 0

-2746.05 -1398.5 0
-1398.5 9904.72 0
0 0 0

-2217.25 3007.59 0
3007.59 -1088.86 0
0 0 0

-2179.08 -409.408 0
-409.408 3004.06 0
0 0 0

3690.67 7.92878 0
7.92878 1915.2 0
0 0 0

-1946.3 770.155 0
770.155 -2260.25 0
0 0 0

-2056.29 -853.007 0
-853.007 2660.81 0
0 0 0

-831.036 1620.59 0
1620.59 -4752.38 0
0 0 0

3171.77 867.559 0
867.559 1806.67 0
0 0 0

6259.1 2297.48 0
2297.48 9418.73 0
0 0 0

3355.69 1230.96 0
1230.96 7036.41 0
0 0 0

-2124.95 2081.72 0
2081.72 823.734 0
0 0 0

3355.1 -14.9054 0
-14.9054 -4757.23 0
0 0 0

2110.76 717.348 0
717.348 7759.77 0
0 0 0

-383.112 -342.117 0
-342.117 -2466.98 0
0 0 0

-6258.2 1671.08 0
1671.08 -1946.37 0
0 0 0

-3692.85 2652.68 0
2652.68 -155.023 0
0 0 0

2091.38 -2531.17 0
-2531.17 3944.46 0
0 0 0

3359.93 -408.649 0
-408.649 7577.02 0
0 0 0

1375.03 288.752 0
288.752 -1199.71 0
0 0 0

-8648.48 -864.847 0
-864.847 690.11 0
0 0 0

6176.03 1547.81 0
1547.81 3829.51 0
0 0 0

-5038.51 1321.99 0
1321.99 5546.36 0
0 0 0

-958.413 -1284.4 0
-1284.4 8179.8 0
0 0 0

-6641.92 1913.03 0
1913.03 7009.35 0
0 0 0

2283.89 1801.9 0
1801.9 -2617.67 0
0 0 0

3182.48 3648.81 0
3648.81 3071.47 0
0 0 0

-2618.21 683.77 0
683.77 2272.87 0
0 0 0

497.104 -2725.67 0
-2725.67 8520.76 0
0 0 0

-2004.07 4721.08 0
4721.08 1338.81 0
0 0 0

6245.19 2805.76 0
2805.76 7485.98 0
0 0 0

1563.66 -4467.78 0
-4467.78 11069.2 0
0 0 0

-1022.33 -4769.53 0
-4769.53 3503.16 0
0 0 0

-2928.99 1306.53 0
1306.53 1205.96 0
0 0 0

2608.42 995.398 0
995.398 -9169.49 0
0 0 0

-1946.3 -713.735 0
-713.735 3196.89 0
0 0 0

-1720.23 333.212 0
333.212 4715.11 0
0 0 0

4264.63 -1423.51 0
-1423.51 6770.17 0
0 0 0

5044.3 3756.15 0
3756.15 7937.45 0
0 0 0

-1369.9 3402.94 0
3402.94 651.977 0
0 0 0

2314.18 970.467 0
970.467 -2052.4 0
0 0 0

2080.37 -626.588 0
-626.588 3674.12 0
0 0 0

2415.02 3380.15 0
3380.15 -67.8681 0
0 0 0

-10713 2605.71 0
2605.71 6346.42 0
0 0 0

536.108 2032.66 0
2032.66 1790.27 0
0 0 0

-2754.12 3469.52 0
3469.52 548.756 0
0 0 0

350.138 1773.33 0
1773.33 -1269.79 0
0 0 0

-2120.16 -6168.29 0
-6168.29 581.523 0
0 0 0

538.75 -4137.14 0
-4137.14 3526.51 0
0 0 0

-4578.97 -760.631 0
-760.631 -555.432 0
0 0 0

-7744.27 4406.09 0
4406.09 -3717.29 0
0 0 0

841.111 -241.231 0
-241.231 9252.84 0
0 0 0

891.286 406.619 0
406.619 2249.09 0
0 0 0

975.83 4588.34 0
4588.34 -2687.35 0
0 0 0

-3547.61 1225.43 0
1225.43 2697.13 0
0 0 0

TENSORS velocity_gradient double
0.0947936 6.18377 0
-6.14253 1.73221 0
0 0 0

-1.42552 6.85199 0
-4.82834 -1.15795 0
0 0 0

0.563638 5.27278 0
-2.91823 3.14398 0
0 0 0

-1.8903 6.65512 0
-1.96911 0.0531327 0
0 0 0

-0.145496 7.27034 0
-1.2642 -3.33296 0
0 0 0

0.816848 7.40495 0
-0.329766 -1.99039 0
0 0 0

-1.78744 4.18201 0
-1.31054 -0.697095 0
0 0 0

-0.458462 -0.0991073 0
-1.44395 3.53149 0
0 0 0

-0.117827 7.35169 0
-1.76926 -0.0617778 0
0 0 0

-2.18947 5.51553 0
-3.17319 1.52587 0
0 0 0

-1.90743 3.01876 0
-1.16007 2.92065 0
0 0 0

-2.82074 5.02011 0
-2.06832 2.09543 0
0 0 0

-2.40052 5.9148 0
-2.8056 0.525691 0
0 0 0

1.22934 3.55447 0
-1.30442 -1.41079 0
0 0 0

-3.05549 5.64903 0
-1.65646 0.991988 0
0 0 0

4.8763 4.92718 0
0.98267 -0.33911 0
0 0 0

-1.89125 4.84823 0
0.187864 -0.547332 0
0 0 0

-0.653516 2.38886 0
-1.80599 0.333193 0
0 0 0

0.434943 6.13041 0
-0.0901303 -0.770939 0
0 0 0

1.46921 3.63985 0
-1.1201 -0.346169 0
0 0 0

0.313705 -0.0517778 0
-2.58555 2.30031 0
0 0 0

-3.29595 -1.22017 0
-1.03097 3.7162 0
0 0 0

2.64543 2.72418 0
-4.61292 0.921474 0
0 0 0

2.06883 10.1193 0
-4.922 1.2805 0
0 0 0

-5.20178 1.85565 0
-0.515602 3.15487 0
0 0 0

-4.23179 6.73997 0
-0.829999 3.07635 0
0 0 0

-4.50058 10.8027 0
-1.05616 2.16928 0
0 0 0

-3.4886 8.52195 0
-1.51839 3.21104 0
0 0 0

-3.18749 7.192 0
-0.750666 2.81767 0
0 0 0

1.71554 6.17493 0
1.33564 1.72855 0
0 0 0

-2.71135 7.34986 0
0.0275674 3.07569 0
0 0 0

-2.52786 6.89483 0
0.327483 2.33195 0
0 0 0

2.14117 6.77553 0
-0.552433 -3.98184 0
0 0 0

1.63845 8.51024 0
-0.793611 -3.35307 0
0 0 0

0.608184 5.94559 0
-1.92826 -4.45639 0
0 0 0

-0.259392 7.85115 0
-1.64141 -3.6475 0
0 0 0

1.93791 10.0662 0
-6.78772 -1.93635 0
0 0 0

1.44113 11.6041 0
-7.46423 0.158081 0
0 0 0

0.202017 9.00359 0
-7.76062 -2.17035 0
0 0 0

-0.101925 7.30283 0
-9.01593 -0.420025 0
0 0 0

-2.13149 11.5688 0
-2.13826 1.81935 0
0 0 0

-1.4746 8.18701 0
-2.79685 2.19187 0
0 0 0

-1.0008 7.18696 0
-5.79338 -0.964866 0
0 0 0

-1.31049 7.39412 0
-4.7629 0.925987 0
0 0 0

-2.7614 7.83249 0
0.605637 3.25442 0
0 0 0

-3.15896 8.74939 0
0.673718 3.09741 0
0 0 0

-2.37507 7.59408 0
-2.88917 2.95623 0
0 0 0

-4.09602 8.07517 0
0.804558 3.12154 0
0 0 0

-0.028569 5.38988 0
-5.84372 -1.11918 0
0 0 0

-0.871106 5.34036 0
-2.46256 -0.043068 0
0 0 0

-0.871616 5.20583 0
-5.55616 -0.246982 0
0 0 0

-0.520375 5.46413 0
-3.35365 -0.357546 0
0 0 0

-0.778684 5.0533 0
-3.30784 0.731211 0
0 0 0

-1.28296 5.76241 0
-8.01044 0.125081 0
0 0 0

-0.440565 4.77081 0
-3.63674 0.512856 0
0 0 0

-2.88978 4.17203 0
-6.92113 0.847081 0
0 0 0

-1.68688 6.86475 0
-7.59554 -1.00722 0
0 0 0

-1.31729 7.63305 0
-6.81748 -0.0510981 0
0 0 0

-4.04761 7.50108 0
-6.59156 0.19937 0
0 0 0

-0.260222 9.69555 0
-7.22309 -0.369175 0
0 0 0

-0.864926 7.09865 0
-7.30709 -0.406895 0
0 0 0

-0.993566 4.01437 0
-1.43115 1.08619 0
0 0 0

1.04567 8.06808 0
-7.29179 -0.39913 0
0 0 0

2.57738 5.98249 0
-6.01663 -0.0617419 0
0 0 0

SCALARS active double 1
LOOKUP_TABLE default
1
1
1
1
1
1
1
1
1
1
1
1
1
1
1
1
1
1
1
1
1
1
1
1
1
1
1
1
1
1
1
1
1
1
1
1
1
1
1
1
1
1
1
1
1
1
1
1
1
1
1
1
1
1
1
1
1
1
1
1
1
1
1
1
SCALARS extent double 1
LOOKUP_TABLE default
0.0125
0.0125
0.0125
0.0125
0.0125
0.0125
0.0125
0.0125
0.0125
0.0125
0.0125
0.0125
0.0125
0.0125
0.0125
0.0125
0.0125
0.0125
0.0125
0.0125
0.0125
0.0125
0.0125
0.0125
0.0125
0.0125
0.0125
0.0125
0.0125
0.0125
0.0125
0.0125
0.0125
0.0125
0.0125
0.0125
0.0125
0.0125
0.0125
0.0125
0.0125
0.0125
0.0125
0.0125
0.0125
0.0125
0.0125
0.0125
0.0125
0.0125
0.0125
0.0125
0.0125
0.0125
0.0125
0.0125
0.0125
0.0125
0.0125
0.0125
0.0125
0.0125
0.0125
0.0125
SCALARS pressure double 1
LOOKUP_TABLE default
-4165.94
-2464.55
821.058
1321.09
-2.72104
341.741
-1425.72
-5505.81
2058.8
914.471
-3579.34
1653.06
-412.489
-2802.94
2103.28
-302.26
2791.71
-2489.22
-7838.91
-5196.05
650.606
701.067
-4935.26
1425.04
4102.29
1923.93
-3017.92
-5468.47
-87.6589
3979.18
-5002.77
-253.923
-3610.69
-183.713
166.889
-3126.98
172.674
-4508.93
332.629
-6865.58
-6316.41
-1240.42
861.516
3280.54
-625.294
-1497.44
-5517.4
-6490.88
358.959
-130.889
-2877.24
-1173.58
2183.3
-1163.19
1102.68
459.824
769.318
-2032.63
2567.2
5730.78
-5046.97
-1570.19
855.762
425.24
SCALARS density double 1
LOOKUP_TABLE default
957.599
974.694
1008.58
1013.83
999.972
1003.56
985.282
944.348
1021.64
1009.56
963.459
1017.34
995.719
971.27
1022.12
996.861
1029.46
974.444
921.71
947.395
1006.79
1007.32
949.968
1014.93
1043.59
1020.21
969.101
944.715
999.089
1042.25
949.302
997.363
963.145
998.091
1001.74
968.003
1001.8
954.19
1003.47
931.087
936.421
987.183
1009
1034.71
993.518
984.547
944.234
934.723
1003.74
998.64
970.52
987.869
1022.97
987.976
1011.53
1004.79
1008.03
979.083
1027.06
1061.41
948.865
983.803
1008.94
1004.43
