# vtk DataFile Version 3.0
Frame: 47, Time: 0.799
ASCII
DATASET UNSTRUCTURED_GRID
POINTS 64 double
0.121024 0.220003 0 
0.14266 0.208496 0 
0.108243 0.198199 0 
0.130671 0.187409 0 
0.164322 0.196865 0 
0.187388 0.18628 0 
0.152303 0.175165 0 
0.174589 0.164389 0 
0.207803 0.174751 0 
0.228965 0.163753 0 
0.196275 0.15215 0 
0.217541 0.14081 0 
0.247727 0.153003 0 
0.264987 0.13881 0 
0.237714 0.129393 0 
0.258029 0.117789 0 
0.0954352 0.177503 0 
0.117692 0.164936 0 
0.0830814 0.155716 0 
0.105249 0.143936 0 
0.139574 0.153542 0 
0.161799 0.142203 0 
0.127337 0.13239 0 
0.14976 0.122303 0 
0.183279 0.131167 0 
0.205894 0.119893 0 
0.172193 0.110453 0 
0.195646 0.099327 0 
0.227797 0.107186 0 
0.251804 0.0939983 0 
0.219927 0.0864756 0 
0.243569 0.0744923 0 
0.0695644 0.134054 0 
0.0919704 0.122562 0 
0.0566839 0.112475 0 
0.0786813 0.100993 0 
0.114021 0.111373 0 
0.137066 0.101846 0 
0.0999592 0.0907347 0 
0.123236 0.0814819 0 
0.159668 0.0922434 0 
0.183232 0.0812945 0 
0.146638 0.0742521 0 
0.169772 0.0644359 0 
0.207829 0.0695049 0 
0.231932 0.0575073 0 
0.195558 0.053024 0 
0.219401 0.0413335 0 
0.0429803 0.0902368 0 
0.065388 0.0799488 0 
0.0301313 0.0685094 0 
0.0526248 0.056526 0 
0.0862708 0.0690708 0 
0.10929 0.0607737 0 
0.0730684 0.0459551 0 
0.095301 0.0395262 0 
0.131979 0.0546493 0 
0.1545 0.0492948 0 
0.116232 0.0343627 0 
0.137355 0.0308504 0 
0.178455 0.0386432 0 
0.201758 0.0292889 0 
0.157469 0.0258758 0 
0.177397 0.0196229 0 
CELLS 64 128
1 0
1 1
1 2
1 3
1 4
1 5
1 6
1 7
1 8
1 9
1 10
1 11
1 12
1 13
1 14
1 15
1 16
1 17
1 18
1 19
1 20
1 21
1 22
1 23
1 24
1 25
1 26
1 27
1 28
1 29
1 30
1 31
1 32
1 33
1 34
1 35
1 36
1 37
1 38
1 39
1 40
1 41
1 42
1 43
1 44
1 45
1 46
1 47
1 48
1 49
1 50
1 51
1 52
1 53
1 54
1 55
1 56
1 57
1 58
1 59
1 60
1 61
1 62
1 63
CELL_TYPES 64
1
1
1
1
1
1
1
1
1
1
1
1
1
1
1
1
1
1
1
1
1
1
1
1
1
1
1
1
1
1
1
1
1
1
1
1
1
1
1
1
1
1
1
1
1
1
1
1
1
1
1
1
1
1
1
1
1
1
1
1
1
1
1
1
POINT_DATA 64
VECTORS displacement double
-0.0914762 0.00750281 0 
-0.0698396 -0.0290041 0 
-0.129257 -0.0143012 0 
-0.106829 -0.0500914 0 
-0.0481775 -0.0656348 0 
-0.0251116 -0.10122 0 
-0.0851974 -0.0873352 0 
-0.0629108 -0.123111 0 
-0.00469687 -0.137749 0 
0.0164646 -0.173747 0 
-0.0412251 -0.16035 0 
-0.0199589 -0.19669 0 
0.0352266 -0.209497 0 
0.0524871 -0.24869 0 
0.000214011 -0.233107 0 
0.0205292 -0.269711 0 
-0.167065 -0.0349972 0 
-0.144808 -0.0725638 0 
-0.204419 -0.056784 0 
-0.182251 -0.0935643 0 
-0.122926 -0.108958 0 
-0.100701 -0.145297 0 
-0.160163 -0.13011 0 
-0.13774 -0.165197 0 
-0.0792213 -0.181333 0 
-0.0566059 -0.217607 0 
-0.115307 -0.202047 0 
-0.091854 -0.238173 0 
-0.0347034 -0.255314 0 
-0.0106959 -0.293502 0 
-0.0675727 -0.276024 0 
-0.0439306 -0.313008 0 
-0.242936 -0.0784463 0 
-0.22053 -0.114938 0 
-0.280816 -0.100025 0 
-0.258819 -0.136507 0 
-0.198479 -0.151127 0 
-0.175434 -0.185654 0 
-0.237541 -0.171765 0 
-0.214264 -0.206018 0 
-0.152832 -0.220257 0 
-0.129268 -0.256205 0 
-0.190862 -0.238248 0 
-0.167728 -0.273064 0 
-0.104671 -0.292995 0 
-0.0805679 -0.329993 0 
-0.141942 -0.309476 0 
-0.118099 -0.346167 0 
-0.31952 -0.122263 0 
-0.297112 -0.157551 0 
-0.357369 -0.143991 0 
-0.334875 -0.180974 0 
-0.276229 -0.193429 0 
-0.25321 -0.226726 0 
-0.314432 -0.216545 0 
-0.292199 -0.247974 0 
-0.230521 -0.257851 0 
-0.208 -0.288205 0 
-0.271268 -0.278137 0 
-0.250145 -0.30665 0 
-0.184045 -0.323857 0 
-0.160742 -0.358211 0 
-0.230031 -0.336624 0 
-0.210103 -0.367877 0 
VECTORS velocity double
-1.38065 -1.6388 0 
-1.17712 -1.38069 0 
-1.21316 -2.00163 0 
-0.878747 -1.57918 0 
-1.20888 -1.09293 0 
-0.874272 -1.38854 0 
-0.868283 -1.58677 0 
-0.762807 -1.27703 0 
-0.818235 -0.601447 0 
-0.145107 -0.649253 0 
-0.452633 -1.0557 0 
-0.177213 -0.729388 0 
-0.260987 -0.735134 0 
-0.68493 -0.619843 0 
0.0878195 -1.01995 0 
-0.655347 -0.238843 0 
-1.11559 -1.61798 0 
-0.577226 -1.35531 0 
-1.19833 -1.91116 0 
-0.980116 -1.64093 0 
-0.834907 -1.25304 0 
-0.486521 -1.18757 0 
-0.925772 -1.28825 0 
-0.450524 -0.987087 0 
-0.411301 -1.06453 0 
-0.192045 -0.989878 0 
-0.282314 -0.491636 0 
-0.134496 -0.511943 0 
0.314825 -0.70328 0 
0.400785 -0.59379 0 
0.134106 -0.664065 0 
0.50946 -0.803257 0 
-1.0774 -1.74268 0 
-0.873553 -1.49067 0 
-1.04599 -1.87782 0 
-0.869037 -1.47323 0 
-0.739001 -1.39551 0 
-0.525673 -1.15483 0 
-0.925955 -1.3219 0 
-0.52034 -0.98892 0 
-0.437962 -0.565125 0 
-0.0285114 -0.500553 0 
-0.175845 -0.623933 0 
0.162422 -0.360612 0 
0.0863872 -0.532327 0 
0.0435247 -0.460262 0 
-0.102373 -0.407719 0 
0.203745 -0.394564 0 
-1.20281 -1.88106 0 
-0.781823 -1.55903 0 
-0.776345 -2.08133 0 
-0.666194 -1.76268 0 
-0.999884 -1.10767 0 
-0.524522 -0.748616 0 
-0.55091 -1.49572 0 
-0.417412 -1.14318 0 
-0.133029 -0.35208 0 
0.165299 0.311922 0 
-0.207844 -0.952423 0 
0.116565 -0.25462 0 
0.0608353 0.301582 0 
0.659236 -0.184741 0 
0.197309 -0.0619511 0 
0.604178 -0.492452 0 
SCALARS mass double 1
LOOKUP_TABLE default
0.625
0.625
0.625
0.625
0.625
0.625
0.625
0.625
0.625
0.625
0.625
0.625
0.625
0.625
0.625
0.625
0.625
0.625
0.625
0.625
0.625
0.625
0.625
0.625
0.625
0.625
0.625
0.625
0.625
0.625
0.625
0.625
0.625
0.625
0.625
0.625
0.625
0.625
0.625
0.625
0.625
0.625
0.625
0.625
0.625
0.625
0.625
0.625
0.625
0.625
0.625
0.625
0.625
0.625
0.625
0.625
0.625
0.625
0.625
0.625
0.625
0.625
0.625
0.625
SCALARS volume double 1
LOOKUP_TABLE default
0.000622198
0.00061737
0.000620581
0.000609615
0.000608386
0.000607126
0.000604993
0.000589644
0.000616317
0.000604005
0.000613921
0.000569543
0.00052209
0.000448166
0.000606285
0.000402878
0.000619092
0.000601701
0.000622442
0.000618405
0.000603452
0.000594508
0.000588488
0.000563487
0.000579188
0.000544474
0.000575226
0.000592035
0.000584265
0.000519216
0.00058447
0.000613166
0.000617604
0.000604404
0.000626546
0.000598621
0.000581912
0.000586582
0.000603177
0.000567684
0.000561195
0.000555537
0.000536263
0.000527252
0.00054507
0.000579547
0.000561056
0.000492015
0.000622733
0.000604442
0.000621331
0.000614597
0.000590265
0.000599635
0.000555719
0.000489033
0.000542271
0.000512647
0.000447049
0.00040132
0.000509019
0.000418493
0.000366335
0.000281792
VECTORS momentum double
-0.862905 -1.02425 0 
-0.735699 -0.862934 0 
-0.758228 -1.25102 0 
-0.549217 -0.986985 0 
-0.755551 -0.683078 0 
-0.54642 -0.867839 0 
-0.542677 -0.991734 0 
-0.476754 -0.798141 0 
-0.511397 -0.375904 0 
-0.0906921 -0.405783 0 
-0.282896 -0.659813 0 
-0.110758 -0.455867 0 
-0.163117 -0.459458 0 
-0.428081 -0.387402 0 
0.0548872 -0.637471 0 
-0.409592 -0.149277 0 
-0.697246 -1.01124 0 
-0.360766 -0.84707 0 
-0.748954 -1.19448 0 
-0.612573 -1.02558 0 
-0.521817 -0.783152 0 
-0.304075 -0.742231 0 
-0.578608 -0.805155 0 
-0.281578 -0.616929 0 
-0.257063 -0.665332 0 
-0.120028 -0.618674 0 
-0.176446 -0.307272 0 
-0.08406 -0.319965 0 
0.196766 -0.43955 0 
0.250491 -0.371119 0 
0.0838164 -0.415041 0 
0.318412 -0.502036 0 
-0.673374 -1.08918 0 
-0.545971 -0.931671 0 
-0.653744 -1.17364 0 
-0.543148 -0.920771 0 
-0.461875 -0.872194 0 
-0.328546 -0.721767 0 
-0.578722 -0.82619 0 
-0.325213 -0.618075 0 
-0.273726 -0.353203 0 
-0.0178196 -0.312846 0 
-0.109903 -0.389958 0 
0.101514 -0.225383 0 
0.053992 -0.332704 0 
0.0272029 -0.287664 0 
-0.0639832 -0.254824 0 
0.127341 -0.246602 0 
-0.751758 -1.17566 0 
-0.488639 -0.974392 0 
-0.485216 -1.30083 0 
-0.416371 -1.10167 0 
-0.624927 -0.692296 0 
-0.327827 -0.467885 0 
-0.344318 -0.934823 0 
-0.260882 -0.714484 0 
-0.0831432 -0.22005 0 
0.103312 0.194951 0 
-0.129903 -0.595264 0 
0.0728529 -0.159137 0 
0.0380221 0.188489 0 
0.412022 -0.115463 0 
0.123318 -0.0387194 0 
0.377611 -0.307782 0 
VECTORS body_force double
0 -9.81 0 
0 -9.81 0 
0 -9.81 0 
0 -9.81 0 
0 -9.81 0 
0 -9.81 0 
0 -9.81 0 
0 -9.81 0 
0 -9.81 0 
0 -9.81 0 
0 -9.81 0 
0 -9.81 0 
0 -9.81 0 
0 -9.81 0 
0 -9.81 0 
0 -9.81 0 
0 -9.81 0 
0 -9.81 0 
0 -9.81 0 
0 -9.81 0 
0 -9.81 0 
0 -9.81 0 
0 -9.81 0 
0 -9.81 0 
0 -9.81 0 
0 -9.81 0 
0 -9.81 0 
0 -9.81 0 
0 -9.81 0 
0 -9.81 0 
0 -9.81 0 
0 -9.81 0 
0 -9.81 0 
0 -9.81 0 
0 -9.81 0 
0 -9.81 0 
0 -9.81 0 
0 -9.81 0 
0 -9.81 0 
0 -9.81 0 
0 -9.81 0 
0 -9.81 0 
0 -9.81 0 
0 -9.81 0 
0 -9.81 0 
0 -9.81 0 
0 -9.81 0 
0 -9.81 0 
0 -9.81 0 
0 -9.81 0 
0 -9.81 0 
0 -9.81 0 
0 -9.81 0 
0 -9.81 0 
0 -9.81 0 
0 -9.81 0 
0 -9.81 0 
0 -9.81 0 
0 -9.81 0 
0 -9.81 0 
0 -9.81 0 
0 -9.81 0 
0 -9.81 0 
0 -9.81 0 
TENSORS cauchy_stress double
-452.562 579.107 0
579.107 -411.468 0
0 0 0

-292.756 1946.07 0
1946.07 -2069.41 0
0 0 0

-880.697 -646.847 0
-646.847 -483.919 0
0 0 0

-2215.08 2020.72 0
2020.72 -2578.05 0
0 0 0

-3592.64 1664.1 0
1664.1 -1588.67 0
0 0 0

-2290.82 4138.79 0
4138.79 -3289.09 0
0 0 0

-2544.99 -575.644 0
-575.644 -3711.7 0
0 0 0

-5441.05 2397.8 0
2397.8 -5757.67 0
0 0 0

-1598.5 4355.96 0
4355.96 -1092.04 0
0 0 0

-7277.15 5708.47 0
5708.47 706.208 0
0 0 0

-147.64 1626.33 0
1626.33 -3291.82 0
0 0 0

-12843.2 148.649 0
148.649 -5025.65 0
0 0 0

-25141.9 2565.78 0
2565.78 -9456.68 0
0 0 0

-42536.5 1170.75 0
1170.75 -21422.6 0
0 0 0

-7165.58 -1055.54 0
-1055.54 1319.18 0
0 0 0

-60584.8 -5457.61 0
-5457.61 -23860.8 0
0 0 0

-17.5761 456.904 0
456.904 -1809.01 0
0 0 0

-811.135 69.6027 0
69.6027 -6494.92 0
0 0 0

574.118 454.049 0
454.049 -1362.74 0
0 0 0

1160.65 2675.31 0
2675.31 -3200.59 0
0 0 0

-786.464 1559.44 0
1559.44 -5960.57 0
0 0 0

-3931.5 1134.75 0
1134.75 -5687.14 0
0 0 0

-3132.77 2177.51 0
2177.51 -8443.35 0
0 0 0

-5038.47 -280.381 0
-280.381 -14886 0
0 0 0

-5567.2 -1187.21 0
-1187.21 -9072.27 0
0 0 0

-13156.7 -2958.81 0
-2958.81 -13368.7 0
0 0 0

-1296.1 -620.978 0
-620.978 -14663.2 0
0 0 0

-289.758 -5011.58 0
-5011.58 -10130.5 0
0 0 0

-4564.3 -7686.56 0
-7686.56 -8396.69 0
0 0 0

-23371.4 -8344.71 0
-8344.71 -12288.7 0
0 0 0

-1055.88 -6725.91 0
-6725.91 -11837.5 0
0 0 0

2090.86 -9149.2 0
-9149.2 -5767 0
0 0 0

-97.5767 631.06 0
631.06 -2191.55 0
0 0 0

-175.025 2347.2 0
2347.2 -6268.87 0
0 0 0

1333.07 2370.56 0
2370.56 -858.023 0
0 0 0

-1648.59 4469.66 0
4469.66 -6644.4 0
0 0 0

-2961.33 1143.05 0
1143.05 -10775.8 0
0 0 0

631.268 6489.17 0
6489.17 -12831 0
0 0 0

688.953 4765.26 0
4765.26 -7523.74 0
0 0 0

-741.133 5963.35 0
5963.35 -17756.3 0
0 0 0

-3651.56 -3329.07 0
-3329.07 -17056.6 0
0 0 0

-861.25 -503.993 0
-503.993 -21795.7 0
0 0 0

-2288.3 5868.16 0
5868.16 -27159.2 0
0 0 0

-1014.38 -2880.87 0
-2880.87 -31692 0
0 0 0

-2908.28 -7817 0
-7817 -23406.6 0
0 0 0

864.285 -9085.79 0
-9085.79 -15384.3 0
0 0 0

6142.9 -5103.03 0
-5103.03 -26898.8 0
0 0 0

-10699.4 -4163.27 0
-4163.27 -35308.8 0
0 0 0

-785.443 946.568 0
946.568 86.61 0
0 0 0

-1890.95 3038.83 0
3038.83 -4541.03 0
0 0 0

-1048.71 1333.76 0
1333.76 -83.6415 0
0 0 0

-896.178 5382.17 0
5382.17 -2331.67 0
0 0 0

-4874.67 6197.16 0
6197.16 -6121.42 0
0 0 0

3332.28 9496.46 0
9496.46 -11299.8 0
0 0 0

-8560.55 6562.77 0
6562.77 -14033.5 0
0 0 0

-14521.4 8878.14 0
8878.14 -32655.8 0
0 0 0

-4417.4 12983.2 0
12983.2 -22887.6 0
0 0 0

-4915.31 3896.15 0
3896.15 -33193 0
0 0 0

-15660.4 17000.1 0
17000.1 -48778.7 0
0 0 0

-23129.5 19282.5 0
19282.5 -62061.4 0
0 0 0

1054.5 522.634 0
522.634 -40528.7 0
0 0 0

-12119.5 3258.81 0
3258.81 -65013.6 0
0 0 0

-20623.3 6606.17 0
6606.17 -82108.2 0
0 0 0

-35877 7751.48 0
7751.48 -117312 0
0 0 0

TENSORS velocity_gradient double
0.833543 -5.12998 0
4.784 -0.289055 0
0 0 0

1.16357 -5.73999 0
5.21852 -1.09252 0
0 0 0

1.61078 -4.21001 0
5.54984 -1.30135 0
0 0 0

2.31904 -5.44034 0
5.84652 -3.24124 0
0 0 0

3.36118 -6.9991 0
7.09495 -2.49847 0
0 0 0

3.75664 -8.64614 0
6.88113 -3.03014 0
0 0 0

4.02172 -6.98006 0
6.55946 -3.55205 0
0 0 0

4.76531 -8.05004 0
6.51677 -3.24546 0
0 0 0

6.13147 -8.19583 0
6.52522 -2.46016 0
0 0 0

4.81036 -5.71165 0
6.0297 -1.52841 0
0 0 0

4.92268 -8.41744 0
6.0454 -3.63059 0
0 0 0

2.98861 -7.30013 0
4.50977 -3.97586 0
0 0 0

-0.688366 -4.48612 0
2.27332 -1.4082 0
0 0 0

-8.89495 -6.80819 0
-0.942886 -3.11497 0
0 0 0

2.85447 -7.06706 0
3.30883 -1.8892 0
0 0 0

-9.05696 -6.8633 0
2.48364 -1.94946 0
0 0 0

1.71504 -2.86855 0
2.27468 -2.1379 0
0 0 0

4.08918 -4.41212 0
6.36724 -2.93877 0
0 0 0

2.15165 -2.34648 0
3.00235 -1.20198 0
0 0 0

5.60097 -3.00536 0
7.11671 -5.17649 0
0 0 0

4.98622 -5.98625 0
6.67212 -3.96523 0
0 0 0

5.75985 -5.93976 0
5.84667 -8.15117 0
0 0 0

6.31199 -4.17959 0
7.99158 -7.24446 0
0 0 0

6.73871 -5.39159 0
6.59714 -8.48536 0
0 0 0

6.22815 -6.82658 0
5.15452 -6.84045 0
0 0 0

2.80206 -7.4322 0
2.35593 -5.1978 0
0 0 0

7.09554 -6.36199 0
3.87252 -7.52711 0
0 0 0

6.35709 -5.57389 0
2.68396 -6.43663 0
0 0 0

2.59572 -7.18397 0
0.992187 -2.93594 0
0 0 0

-4.84812 -2.35692 0
3.65932 -1.6778 0
0 0 0

2.09017 -2.70077 0
-1.25028 -4.38346 0
0 0 0

1.7068 -1.94623 0
-2.56894 -1.78808 0
0 0 0

2.58288 -2.26905 0
4.94552 -2.34912 0
0 0 0

2.70854 -2.50971 0
6.03742 -4.44027 0
0 0 0

2.81513 -2.13003 0
6.96365 -1.14113 0
0 0 0

3.02963 -3.53266 0
8.13439 -3.83488 0
0 0 0

7.50608 -3.42455 0
9.59323 -6.23171 0
0 0 0

8.01227 -5.74893 0
10.2738 -8.38401 0
0 0 0

6.21775 -7.37076 0
10.1939 -7.83802 0
0 0 0

8.69601 -8.0763 0
11.2053 -8.96034 0
0 0 0

6.79734 -7.69922 0
2.70462 -9.26365 0
0 0 0

5.5886 -5.15602 0
1.95886 -7.69457 0
0 0 0

7.88395 -8.4873 0
8.9929 -9.65417 0
0 0 0

3.7393 -6.62614 0
0.817893 -8.60159 0
0 0 0

1.54327 -3.08894 0
-3.13145 -5.71867 0
0 0 0

1.16043 -2.31941 0
-4.44832 -3.0717 0
0 0 0

2.36983 -2.44379 0
-0.509001 -6.73927 0
0 0 0

0.75342 2.96829 0
-4.44442 -8.38425 0
0 0 0

0.565935 -4.64234 0
5.39316 -1.13013 0
0 0 0

4.04159 -5.47771 0
10.7832 -3.53328 0
0 0 0

0.173673 -4.84665 0
6.1528 -0.635166 0
0 0 0

4.15229 -4.83985 0
12.2474 -1.94498 0
0 0 0

4.68979 -6.68013 0
12.2875 -6.32374 0
0 0 0

9.25362 -7.70009 0
11.9721 -8.443 0
0 0 0

5.2367 -10.4529 0
13.4292 -20.4776 0
0 0 0

5.19536 -9.50212 0
11.7909 -19.8988 0
0 0 0

9.31545 -7.86162 0
12.0648 -9.37917 0
0 0 0

3.21726 -3.54177 0
1.63177 -7.86576 0
0 0 0

6.6721 -5.92153 0
8.65002 -14.4733 0
0 0 0

5.95867 -1.90761 0
7.72509 -9.26947 0
0 0 0

1.64808 1.70392 0
-0.141323 -6.25033 0
0 0 0

0.794932 2.59474 0
-2.03427 -6.74344 0
0 0 0

1.10349 0.816417 0
-0.0946236 -6.17423 0
0 0 0

0.836891 1.66051 0
-0.0717632 -6.24661 0
0 0 0

SCALARS active double 1
LOOKUP_TABLE default
1
1
1
1
1
1
1
1
1
1
1
1
1
1
1
1
1
1
1
1
1
1
1
1
1
1
1
1
1
1
1
1
1
1
1
1
1
1
1
1
1
1
1
1
1
1
1
1
1
1
1
1
1
1
1
1
1
1
1
1
1
1
1
1
SCALARS extent double 1
LOOKUP_TABLE default
0.0125
0.0125
0.0125
0.0125
0.0125
0.0125
0.0125
0.0125
0.0125
0.0125
0.0125
0.0125
0.0125
0.0125
0.0125
0.0125
0.0125
0.0125
0.0125
0.0125
0.0125
0.0125
0.0125
0.0125
0.0125
0.0125
0.0125
0.0125
0.0125
0.0125
0.0125
0.0125
0.0125
0.0125
0.0125
0.0125
0.0125
0.0125
0.0125
0.0125
0.0125
0.0125
0.0125
0.0125
0.0125
0.0125
0.0125
0.0125
0.0125
0.0125
0.0125
0.0125
0.0125
0.0125
0.0125
0.0125
0.0125
0.0125
0.0125
0.0125
0.0125
0.0125
0.0125
0.0125
SCALARS pressure double 1
LOOKUP_TABLE default
432.015
1181.08
682.308
2396.56
2590.65
2789.95
3128.34
5599.36
1345.27
3285.47
1719.73
8934.41
17299.3
31979.6
2923.2
42222.8
913.292
3653.03
394.31
1019.97
3373.52
4809.32
5788.06
9962.23
7319.74
13262.7
7979.65
5210.13
6480.49
17830
6446.68
1838.07
1144.57
3221.95
-237.525
4146.49
6868.58
6099.85
3417.39
9248.71
10354.1
11328.5
14723.7
16353.2
13157.5
7260.01
10378
23004.1
349.416
3215.99
566.173
1613.93
5498.05
3983.74
11297
23588.6
13652.5
19054.2
32219.5
42595.4
19737.1
38566.5
51365.8
76594.3
SCALARS density double 1
LOOKUP_TABLE default
1004.5
1012.36
1007.12
1025.24
1027.31
1029.44
1033.07
1059.96
1014.09
1034.76
1018.05
1097.37
1197.11
1394.57
1030.87
1551.34
1009.54
1038.72
1004.11
1010.66
1035.71
1051.29
1062.04
1109.16
1079.1
1147.9
1086.53
1055.68
1069.72
1203.74
1069.34
1019.3
1011.97
1034.08
997.533
1044.07
1074.05
1065.49
1036.18
1100.96
1113.69
1125.04
1165.47
1185.39
1146.64
1078.43
1113.97
1270.29
1003.64
1034.01
1005.91
1016.93
1058.85
1042.3
1124.67
1278.03
1152.56
1219.16
1398.06
1557.36
1227.85
1493.45
1706.09
2217.95
