# vtk DataFile Version 3.0
Frame: 40, Time: 0.68
ASCII
DATASET UNSTRUCTURED_GRID
POINTS 64 double
0.664021 0.174322 0 
0.647105 0.156395 0 
0.642018 0.192539 0 
0.626117 0.174565 0 
0.627802 0.138044 0 
0.61366 0.117258 0 
0.608681 0.155656 0 
0.592946 0.135186 0 
0.595469 0.0977213 0 
0.577277 0.0771422 0 
0.57589 0.115562 0 
0.559485 0.0963025 0 
0.559891 0.0586686 0 
0.536261 0.0414399 0 
0.542385 0.0777193 0 
0.523255 0.0596954 0 
0.619343 0.210282 0 
0.60446 0.189804 0 
0.603465 0.229509 0 
0.586933 0.20964 0 
0.589905 0.170382 0 
0.573569 0.150409 0 
0.572022 0.188137 0 
0.554772 0.167031 0 
0.555328 0.132022 0 
0.541545 0.11332 0 
0.536866 0.150395 0 
0.521784 0.13056 0 
0.525814 0.0944645 0 
0.506782 0.0763643 0 
0.50649 0.110215 0 
0.489928 0.0917997 0 
0.583964 0.246129 0 
0.567277 0.225475 0 
0.563686 0.263577 0 
0.54692 0.241405 0 
0.552293 0.205702 0 
0.535578 0.18461 0 
0.532089 0.220002 0 
0.515117 0.199519 0 
0.517399 0.165575 0 
0.500951 0.145809 0 
0.498635 0.179784 0 
0.481556 0.16022 0 
0.485442 0.125267 0 
0.469535 0.105409 0 
0.465409 0.140645 0 
0.450002 0.120843 0 
0.543305 0.278528 0 
0.527263 0.256033 0 
0.52105 0.294009 0 
0.50651 0.270988 0 
0.512168 0.235606 0 
0.495339 0.216266 0 
0.492089 0.251083 0 
0.476393 0.231189 0 
0.478941 0.196789 0 
0.462539 0.176651 0 
0.45955 0.212617 0 
0.44281 0.194214 0 
0.445902 0.15763 0 
0.430055 0.136176 0 
0.425373 0.173301 0 
0.41024 0.151959 0 
CELLS 64 128
1 0
1 1
1 2
1 3
1 4
1 5
1 6
1 7
1 8
1 9
1 10
1 11
1 12
1 13
1 14
1 15
1 16
1 17
1 18
1 19
1 20
1 21
1 22
1 23
1 24
1 25
1 26
1 27
1 28
1 29
1 30
1 31
1 32
1 33
1 34
1 35
1 36
1 37
1 38
1 39
1 40
1 41
1 42
1 43
1 44
1 45
1 46
1 47
1 48
1 49
1 50
1 51
1 52
1 53
1 54
1 55
1 56
1 57
1 58
1 59
1 60
1 61
1 62
1 63
CELL_TYPES 64
1
1
1
1
1
1
1
1
1
1
1
1
1
1
1
1
1
1
1
1
1
1
1
1
1
1
1
1
1
1
1
1
1
1
1
1
1
1
1
1
1
1
1
1
1
1
1
1
1
1
1
1
1
1
1
1
1
1
1
1
1
1
1
1
POINT_DATA 64
VECTORS displacement double
0.0515207 -0.138178 0 
0.034605 -0.181105 0 
0.00451821 -0.119961 0 
-0.0113826 -0.162935 0 
0.0153023 -0.224456 0 
0.00115999 -0.270242 0 
-0.0288189 -0.206844 0 
-0.044554 -0.252314 0 
-0.0170315 -0.314779 0 
-0.0352232 -0.360358 0 
-0.0616103 -0.296938 0 
-0.0780151 -0.341197 0 
-0.0526088 -0.403831 0 
-0.0762393 -0.44606 0 
-0.0951148 -0.384781 0 
-0.114245 -0.427805 0 
-0.0431571 -0.102218 0 
-0.0580402 -0.147696 0 
-0.084035 -0.0829913 0 
-0.100567 -0.12786 0 
-0.0725953 -0.192118 0 
-0.0889309 -0.237091 0 
-0.115478 -0.174363 0 
-0.132728 -0.220469 0 
-0.107172 -0.280478 0 
-0.120955 -0.32418 0 
-0.150634 -0.262105 0 
-0.165716 -0.30694 0 
-0.136686 -0.368035 0 
-0.155718 -0.411136 0 
-0.18101 -0.352285 0 
-0.197572 -0.3957 0 
-0.128536 -0.066371 0 
-0.145223 -0.112025 0 
-0.173814 -0.0489235 0 
-0.19058 -0.0960946 0 
-0.160207 -0.156798 0 
-0.176922 -0.20289 0 
-0.205411 -0.142498 0 
-0.222383 -0.187981 0 
-0.195101 -0.246925 0 
-0.211549 -0.291691 0 
-0.238865 -0.232716 0 
-0.255944 -0.27728 0 
-0.227058 -0.337233 0 
-0.242965 -0.382091 0 
-0.272091 -0.321855 0 
-0.287498 -0.366657 0 
-0.219195 -0.0339718 0 
-0.235237 -0.0814675 0 
-0.26645 -0.0184907 0 
-0.28099 -0.0665119 0 
-0.250332 -0.126894 0 
-0.267161 -0.171234 0 
-0.295411 -0.111417 0 
-0.311107 -0.156311 0 
-0.283559 -0.215711 0 
-0.299961 -0.260849 0 
-0.32795 -0.199883 0 
-0.34469 -0.243286 0 
-0.316598 -0.30487 0 
-0.332445 -0.351324 0 
-0.362127 -0.289199 0 
-0.37726 -0.335541 0 
VECTORS velocity double
-1.42093 0.697882 0 
-0.95253 0.982582 0 
-1.35665 0.947281 0 
-1.21833 0.785026 0 
-0.974389 0.512573 0 
-0.0232428 0.96573 0 
-1.37937 0.136436 0 
-1.09261 0.0439583 0 
-0.0475645 0.496196 0 
0.273973 0.478629 0 
-0.605762 -0.174154 0 
-0.508926 -0.513568 0 
0.412834 0.148392 0 
0.481331 -0.408109 0 
-0.248681 -0.255825 0 
0.0189137 -0.548556 0 
-1.83356 0.188231 0 
-1.28938 0.258005 0 
-1.62516 1.22047 0 
-1.43833 0.677191 0 
-0.810374 0.257912 0 
-0.766192 -0.0106276 0 
-1.05483 0.159514 0 
-1.00314 -0.128828 0 
-0.916752 0.00906878 0 
-0.486773 -0.343944 0 
-1.14613 0.233173 0 
-0.776968 -0.1261 0 
-0.086176 -0.359107 0 
-0.11342 -0.658402 0 
-0.4695 -0.241475 0 
-0.450485 -0.683083 0 
-1.39193 -0.116993 0 
-1.19214 0.530721 0 
-2.17676 0.0542289 0 
-1.53659 -0.258105 0 
-1.50962 -0.0351168 0 
-1.00001 -0.77572 0 
-2.06191 0.156852 0 
-1.71297 -0.482217 0 
-0.720281 -0.443539 0 
-0.495002 -0.78467 0 
-1.21801 -0.673788 0 
-1.06525 -0.813532 0 
-0.661435 -0.460381 0 
-0.0616646 -0.956707 0 
-1.27343 -0.380013 0 
-0.450504 -0.864527 0 
-2.12774 0.329382 0 
-1.43795 -0.331874 0 
-1.95949 -0.0669353 0 
-2.04984 -1.08205 0 
-0.978043 0.139106 0 
-0.980357 -0.170655 0 
-2.20788 -0.480979 0 
-1.92678 -0.696912 0 
-1.43156 -0.557844 0 
-1.14784 -0.327599 0 
-1.32717 -0.475717 0 
-1.08159 -0.997216 0 
-0.506808 -0.170809 0 
-0.0846349 -1.1077 0 
-1.35132 -1.30392 0 
-0.762412 -1.41853 0 
SCALARS mass double 1
LOOKUP_TABLE default
0.625
0.625
0.625
0.625
0.625
0.625
0.625
0.625
0.625
0.625
0.625
0.625
0.625
0.625
0.625
0.625
0.625
0.625
0.625
0.625
0.625
0.625
0.625
0.625
0.625
0.625
0.625
0.625
0.625
0.625
0.625
0.625
0.625
0.625
0.625
0.625
0.625
0.625
0.625
0.625
0.625
0.625
0.625
0.625
0.625
0.625
0.625
0.625
0.625
0.625
0.625
0.625
0.625
0.625
0.625
0.625
0.625
0.625
0.625
0.625
0.625
0.625
0.625
0.625
SCALARS volume double 1
LOOKUP_TABLE default
0.000622847
0.000624342
0.000621808
0.000630717
0.00064311
0.000615222
0.000595672
0.000634268
0.000653188
0.000604952
0.000645986
0.000615428
0.000663434
0.000542799
0.000633151
0.000618646
0.000624644
0.000657217
0.000631878
0.000625957
0.000556246
0.000612004
0.000687104
0.000652826
0.000602876
0.000606281
0.000606509
0.000646211
0.000581997
0.000571871
0.000610047
0.000606526
0.000609144
0.00060525
0.000636816
0.000656896
0.000662921
0.000622978
0.000609344
0.000629771
0.000621194
0.000621296
0.000621613
0.000604956
0.000603021
0.000609526
0.00061209
0.000625877
0.000616083
0.000627977
0.000633631
0.000612201
0.000639045
0.000632414
0.000614737
0.000600051
0.000624302
0.000626822
0.000633355
0.000632801
0.000628981
0.000627689
0.000641745
0.000609784
VECTORS momentum double
-0.888081 0.436176 0 
-0.595331 0.614114 0 
-0.847908 0.592051 0 
-0.761454 0.490641 0 
-0.608993 0.320358 0 
-0.0145267 0.603581 0 
-0.862103 0.0852724 0 
-0.68288 0.0274739 0 
-0.0297278 0.310122 0 
0.171233 0.299143 0 
-0.378601 -0.108846 0 
-0.318079 -0.32098 0 
0.258021 0.0927452 0 
0.300832 -0.255068 0 
-0.155426 -0.159891 0 
0.0118211 -0.342848 0 
-1.14598 0.117644 0 
-0.805859 0.161253 0 
-1.01573 0.762794 0 
-0.898955 0.423244 0 
-0.506484 0.161195 0 
-0.47887 -0.00664225 0 
-0.659266 0.0996961 0 
-0.626961 -0.0805175 0 
-0.57297 0.00566799 0 
-0.304233 -0.214965 0 
-0.716334 0.145733 0 
-0.485605 -0.0788125 0 
-0.05386 -0.224442 0 
-0.0708875 -0.411501 0 
-0.293437 -0.150922 0 
-0.281553 -0.426927 0 
-0.869956 -0.0731204 0 
-0.74509 0.331701 0 
-1.36047 0.0338931 0 
-0.960367 -0.161316 0 
-0.943514 -0.021948 0 
-0.625005 -0.484825 0 
-1.28869 0.0980326 0 
-1.0706 -0.301386 0 
-0.450176 -0.277212 0 
-0.309376 -0.490419 0 
-0.761258 -0.421117 0 
-0.665784 -0.508457 0 
-0.413397 -0.287738 0 
-0.0385404 -0.597942 0 
-0.795891 -0.237508 0 
-0.281565 -0.540329 0 
-1.32984 0.205864 0 
-0.898716 -0.207421 0 
-1.22468 -0.0418346 0 
-1.28115 -0.676278 0 
-0.611277 0.086941 0 
-0.612723 -0.106659 0 
-1.37992 -0.300612 0 
-1.20424 -0.43557 0 
-0.894726 -0.348653 0 
-0.717403 -0.20475 0 
-0.829483 -0.297323 0 
-0.675995 -0.62326 0 
-0.316755 -0.106756 0 
-0.0528968 -0.692312 0 
-0.844577 -0.814948 0 
-0.476508 -0.886581 0 
VECTORS body_force double
0 -9.81 0 
0 -9.81 0 
0 -9.81 0 
0 -9.81 0 
0 -9.81 0 
0 -9.81 0 
0 -9.81 0 
0 -9.81 0 
0 -9.81 0 
0 -9.81 0 
0 -9.81 0 
0 -9.81 0 
0 -9.81 0 
0 -9.81 0 
0 -9.81 0 
0 -9.81 0 
0 -9.81 0 
0 -9.81 0 
0 -9.81 0 
0 -9.81 0 
0 -9.81 0 
0 -9.81 0 
0 -9.81 0 
0 -9.81 0 
0 -9.81 0 
0 -9.81 0 
0 -9.81 0 
0 -9.81 0 
0 -9.81 0 
0 -9.81 0 
0 -9.81 0 
0 -9.81 0 
0 -9.81 0 
0 -9.81 0 
0 -9.81 0 
0 -9.81 0 
0 -9.81 0 
0 -9.81 0 
0 -9.81 0 
0 -9.81 0 
0 -9.81 0 
0 -9.81 0 
0 -9.81 0 
0 -9.81 0 
0 -9.81 0 
0 -9.81 0 
0 -9.81 0 
0 -9.81 0 
0 -9.81 0 
0 -9.81 0 
0 -9.81 0 
0 -9.81 0 
0 -9.81 0 
0 -9.81 0 
0 -9.81 0 
0 -9.81 0 
0 -9.81 0 
0 -9.81 0 
0 -9.81 0 
0 -9.81 0 
0 -9.81 0 
0 -9.81 0 
0 -9.81 0 
0 -9.81 0 
TENSORS cauchy_stress double
-2001.32 1226.82 0
1226.82 1337.72 0
0 0 0

614.9 487.493 0
487.493 -817.34 0
0 0 0

-1579.5 -6102.45 0
-6102.45 594.771 0
0 0 0

-129.139 -4117.86 0
-4117.86 1880.19 0
0 0 0

1531.2 2887.43 0
2887.43 3961.98 0
0 0 0

-4217.75 119.716 0
119.716 1185.44 0
0 0 0

-2338.54 1008.67 0
1008.67 -6904.1 0
0 0 0

1795.09 -553.597 0
-553.597 1035.71 0
0 0 0

2270.88 3087.39 0
3087.39 6212.51 0
0 0 0

-3783.16 1278.92 0
1278.92 -2486.71 0
0 0 0

6023.16 -2894.67 0
-2894.67 328.091 0
0 0 0

-6090.03 -580.862 0
-580.862 3121.86 0
0 0 0

4698.2 2244.79 0
2244.79 6778.38 0
0 0 0

-3807.46 17223 0
17223 -23310.3 0
0 0 0

2191.06 -127.871 0
-127.871 300.613 0
0 0 0

4631.95 -984.078 0
-984.078 -6597.03 0
0 0 0

3181.04 -1413.57 0
-1413.57 -3290.68 0
0 0 0

5725.65 3215.27 0
3215.27 3940.35 0
0 0 0

-1455.65 -584.37 0
-584.37 3560.48 0
0 0 0

-4482.14 -3599.2 0
-3599.2 4776.35 0
0 0 0

-10154.5 -2006.35 0
-2006.35 -12257.3 0
0 0 0

-464.503 2847.32 0
2847.32 -3576.42 0
0 0 0

3716.78 595.505 0
595.505 14501.2 0
0 0 0

3497.94 -2071.93 0
-2071.93 4878.92 0
0 0 0

-1397.96 -3788.78 0
-3788.78 -5532.94 0
0 0 0

-6198.77 -4083.45 0
-4083.45 350.967 0
0 0 0

-5296.31 -2364.47 0
-2364.47 -479.038 0
0 0 0

2543.42 -573.334 0
-573.334 3874.61 0
0 0 0

-5763.98 992.426 0
992.426 -7944.82 0
0 0 0

-5447.12 3378.88 0
3378.88 -11637.3 0
0 0 0

-2517.75 -1292.61 0
-1292.61 -2139.03 0
0 0 0

-2118.16 4472.72 0
4472.72 -3651.92 0
0 0 0

1325.35 4732.86 0
4732.86 -6267.18 0
0 0 0

-2146.6 -370.259 0
-370.259 -4028.38 0
0 0 0

4034.3 -411.77 0
-411.77 -432.45 0
0 0 0

3051.15 1396.55 0
1396.55 6520.88 0
0 0 0

6479.8 -421.18 0
-421.18 4848.05 0
0 0 0

4198.85 789.923 0
789.923 -4822.1 0
0 0 0

-2174.84 1198.18 0
1198.18 -2703.64 0
0 0 0

735.407 167.663 0
167.663 727.149 0
0 0 0

1349.58 1981.8 0
1981.8 -2524.17 0
0 0 0

6782.99 2615.15 0
2615.15 -7926.1 0
0 0 0

329.521 475.344 0
475.344 -1374.66 0
0 0 0

-4479.59 1775.95 0
1775.95 -1788.89 0
0 0 0

-628.128 543.368 0
543.368 -6256.52 0
0 0 0

-3592.89 4343.39 0
4343.39 -1228.16 0
0 0 0

-3160.61 -1750.09 0
-1750.09 -853.424 0
0 0 0

-1799.07 -1517.03 0
-1517.03 2068.59 0
0 0 0

405.42 -2585.17 0
-2585.17 -3168.75 0
0 0 0

-2695.34 1384.7 0
1384.7 3609.28 0
0 0 0

752.94 91.7733 0
91.7733 1884.57 0
0 0 0

-4493.49 -513.109 0
-513.109 514.396 0
0 0 0

5911.02 -2196.65 0
-2196.65 -1637.21 0
0 0 0

1755.23 1488.74 0
1488.74 512.471 0
0 0 0

-300.17 -1045.38 0
-1045.38 -2883.87 0
0 0 0

-4630.82 507.113 0
507.113 -3203.29 0
0 0 0

3341.45 2940.36 0
2940.36 -3556.41 0
0 0 0

3787.43 -618.838 0
-618.838 -3227.64 0
0 0 0

160.076 -2364.89 0
-2364.89 2393.55 0
0 0 0

468.369 721.387 0
721.387 1917.09 0
0 0 0

2714.55 -196.525 0
-196.525 -1493.65 0
0 0 0

-17.0497 1292.27 0
1292.27 842.784 0
0 0 0

-444.362 1930.68 0
1930.68 5528.94 0
0 0 0

-4069.21 359.961 0
359.961 -670.502 0
0 0 0

TENSORS velocity_gradient double
0.0908497 -4.79499 0
-1.80176 -0.714503 0
0 0 0

-2.25771 -6.12124 0
5.8152 0.322149 0
0 0 0

-1.92005 -5.80019 0
6.49315 0.772027 0
0 0 0

-2.4815 -6.30533 0
7.99516 2.12343 0
0 0 0

-1.97727 -16.2185 0
9.83479 -1.90043 0
0 0 0

0.107306 -14.7597 0
9.53333 -2.11139 0
0 0 0

-3.00756 -7.42596 0
9.52365 3.16739 0
0 0 0

-1.04382 -12.9078 0
7.90123 -1.61841 0
0 0 0

1.26493 -12.3203 0
11.2178 -1.09752 0
0 0 0

1.87119 -11.6835 0
11.5114 -0.997988 0
0 0 0

0.264 -11.7462 0
10.0698 0.307736 0
0 0 0

1.33552 -11.118 0
11.5846 -0.494955 0
0 0 0

2.32347 -11.2494 0
11.2868 -1.21354 0
0 0 0

2.38789 2.74743 0
6.62964 -5.60756 0
0 0 0

1.58314 -10.6651 0
6.59737 -0.971293 0
0 0 0

2.40319 -9.78194 0
7.46542 -0.0364549 0
0 0 0

-1.62412 -4.80701 0
6.52523 -0.208816 0
0 0 0

-1.92396 -6.98946 0
6.83884 3.89628 0
0 0 0

-1.27126 -4.88618 0
8.09534 -1.29394 0
0 0 0

0.539269 -5.22179 0
10.4368 -1.04834 0
0 0 0

-1.11605 -7.58428 0
8.14683 3.56873 0
0 0 0

-1.70129 -9.90031 0
6.8707 1.29571 0
0 0 0

-0.284222 -8.41078 0
9.85045 1.87602 0
0 0 0

-1.24442 -9.21701 0
7.86487 0.244114 0
0 0 0

-0.846375 -10.3814 0
8.21133 2.5566 0
0 0 0

0.102004 -9.69666 0
6.47253 2.69505 0
0 0 0

-1.00413 -9.64172 0
8.63734 1.23615 0
0 0 0

-0.501574 -9.01451 0
7.67883 1.33174 0
0 0 0

0.816792 -9.84787 0
5.8437 -0.0241317 0
0 0 0

1.63444 -9.03587 0
6.65167 0.753272 0
0 0 0

0.202108 -8.47607 0
6.27246 0.255608 0
0 0 0

0.0927218 -8.48244 0
5.05625 0.682156 0
0 0 0

1.35663 -6.56632 0
8.22399 -0.904331 0
0 0 0

0.99451 -5.77685 0
9.47609 0.122976 0
0 0 0

-0.722161 -9.15807 0
6.89732 0.634725 0
0 0 0

0.808463 -6.30246 0
7.50405 1.06724 0
0 0 0

0.312633 -6.31501 0
9.77557 0.907413 0
0 0 0

-0.522015 -9.73857 0
7.25257 0.324761 0
0 0 0

0.0765733 -6.56788 0
6.67817 1.09048 0
0 0 0

-0.252203 -8.52058 0
6.67671 1.14427 0
0 0 0

-0.871406 -10.0787 0
8.20431 1.25135 0
0 0 0

-0.978062 -8.72904 0
6.78242 0.497419 0
0 0 0

-1.2336 -10.2824 0
5.95988 1.89444 0
0 0 0

-1.32783 -9.98027 0
3.75449 1.46111 0
0 0 0

-0.590678 -7.96332 0
4.31013 0.346092 0
0 0 0

-0.207842 -7.65723 0
5.11891 0.992975 0
0 0 0

-0.889472 -7.57784 0
3.6726 1.16859 0
0 0 0

-1.18827 -7.43315 0
6.16649 1.46792 0
0 0 0

0.23424 -6.54395 0
8.87887 1.38956 0
0 0 0

0.578247 -6.50113 0
7.46908 0.190378 0
0 0 0

0.77111 -6.25136 0
10.4897 -0.388566 0
0 0 0

0.659355 -6.61098 0
8.6992 -1.49262 0
0 0 0

0.323692 -6.87926 0
6.82798 0.901706 0
0 0 0

-0.815092 -7.41905 0
5.46126 0.863763 0
0 0 0

1.25975 -7.07019 0
3.77258 -0.206694 0
0 0 0

0.0183179 -8.71474 0
4.83205 1.13706 0
0 0 0

-2.06627 -9.53183 0
5.14625 1.29199 0
0 0 0

-1.74043 -9.50774 0
4.42908 0.688541 0
0 0 0

-1.33773 -9.96528 0
5.13887 1.42001 0
0 0 0

-1.00508 -9.19447 0
11.3278 0.146603 0
0 0 0

-1.0328 -9.22247 0
8.95175 0.0857897 0
0 0 0

-1.44915 -7.95301 0
9.3994 0.304548 0
0 0 0

-0.90246 -9.25267 0
10.9769 -0.406821 0
0 0 0

-1.02927 -9.14064 0
10.4033 -0.884456 0
0 0 0

SCALARS active double 1
LOOKUP_TABLE default
1
1
1
1
1
1
1
1
1
1
1
1
1
1
1
1
1
1
1
1
1
1
1
1
1
1
1
1
1
1
1
1
1
1
1
1
1
1
1
1
1
1
1
1
1
1
1
1
1
1
1
1
1
1
1
1
1
1
1
1
1
1
1
1
SCALARS extent double 1
LOOKUP_TABLE default
0.0125
0.0125
0.0125
0.0125
0.0125
0.0125
0.0125
0.0125
0.0125
0.0125
0.0125
0.0125
0.0125
0.0125
0.0125
0.0125
0.0125
0.0125
0.0125
0.0125
0.0125
0.0125
0.0125
0.0125
0.0125
0.0125
0.0125
0.0125
0.0125
0.0125
0.0125
0.0125
0.0125
0.0125
0.0125
0.0125
0.0125
0.0125
0.0125
0.0125
0.0125
0.0125
0.0125
0.0125
0.0125
0.0125
0.0125
0.0125
0.0125
0.0125
0.0125
0.0125
0.0125
0.0125
0.0125
0.0125
0.0125
0.0125
0.0125
0.0125
0.0125
0.0125
0.0125
0.0125
SCALARS pressure double 1
LOOKUP_TABLE default
331.802
101.22
492.364
-875.527
-2746.59
1516.15
4621.32
-1415.4
-4241.69
3134.94
-3175.63
1484.08
-5738.29
13558.9
-1245.84
982.538
54.8172
-4833
-1052.41
-147.102
11205.9
2020.46
-9108.97
-4188.43
3465.45
2923.9
2887.67
-3209.01
6854.4
8542.19
2328.39
2885.04
2470.91
3087.49
-1800.92
-4786.02
-5663.92
311.628
2439.24
-731.278
587.294
571.554
522.571
3134.24
3442.32
2410.53
2007.02
-134.763
1381.67
-456.97
-1318.76
1989.55
-2136.91
-1133.85
1592.02
3917.06
107.483
-279.897
-1276.81
-1192.73
-610.451
-412.867
-2542.29
2369.86
SCALARS density double 1
LOOKUP_TABLE default
1003.46
1001.05
1005.13
990.936
971.84
1015.89
1049.24
985.388
956.845
1033.14
967.513
1015.55
942.068
1151.44
987.127
1010.27
1000.57
950.979
989.115
998.471
1123.6
1021.24
909.615
957.375
1036.7
1030.88
1030.49
967.177
1073.89
1092.9
1024.51
1030.46
1026.03
1032.63
981.445
951.444
942.797
1003.25
1025.69
992.424
1006.13
1005.96
1005.45
1033.13
1036.45
1025.39
1021.09
998.599
1014.47
995.259
986.379
1020.91
978.021
988.277
1016.69
1041.58
1001.12
997.093
986.809
987.672
993.671
995.715
973.907
1024.95
