# vtk DataFile Version 3.0
Frame: 52, Time: 0.884
ASCII
DATASET UNSTRUCTURED_GRID
POINTS 64 double
0.463317 0.238734 0 
0.460208 0.215048 0 
0.435175 0.241428 0 
0.433771 0.216233 0 
0.459566 0.188113 0 
0.463829 0.163134 0 
0.43372 0.189032 0 
0.436501 0.162488 0 
0.460899 0.13596 0 
0.461907 0.108302 0 
0.435913 0.136042 0 
0.436093 0.108809 0 
0.463414 0.0848223 0 
0.464885 0.0589 0 
0.436558 0.082312 0 
0.436842 0.0555808 0 
0.406679 0.239884 0 
0.408018 0.214592 0 
0.382551 0.24402 0 
0.382251 0.217836 0 
0.409912 0.189512 0 
0.411656 0.162869 0 
0.38525 0.191302 0 
0.38747 0.163545 0 
0.410803 0.135732 0 
0.412965 0.110342 0 
0.386291 0.137979 0 
0.388111 0.111623 0 
0.413871 0.0843864 0 
0.412329 0.0566144 0 
0.389388 0.0857832 0 
0.387646 0.0612257 0 
0.356588 0.243522 0 
0.357995 0.21627 0 
0.328567 0.243375 0 
0.332512 0.214822 0 
0.359979 0.190835 0 
0.362051 0.164048 0 
0.335384 0.189271 0 
0.336646 0.163184 0 
0.361701 0.137673 0 
0.36257 0.112313 0 
0.337348 0.138309 0 
0.33728 0.113419 0 
0.363832 0.0864972 0 
0.362511 0.0607978 0 
0.339344 0.0872623 0 
0.338984 0.0611748 0 
0.304647 0.240673 0 
0.30833 0.212597 0 
0.278176 0.234993 0 
0.282214 0.209153 0 
0.309396 0.188595 0 
0.310106 0.164034 0 
0.282033 0.185733 0 
0.284803 0.161559 0 
0.311495 0.138565 0 
0.312798 0.112847 0 
0.287558 0.13651 0 
0.286679 0.112172 0 
0.314383 0.0874653 0 
0.314826 0.060496 0 
0.287415 0.0866464 0 
0.288282 0.0631911 0 
CELLS 64 128
1 0
1 1
1 2
1 3
1 4
1 5
1 6
1 7
1 8
1 9
1 10
1 11
1 12
1 13
1 14
1 15
1 16
1 17
1 18
1 19
1 20
1 21
1 22
1 23
1 24
1 25
1 26
1 27
1 28
1 29
1 30
1 31
1 32
1 33
1 34
1 35
1 36
1 37
1 38
1 39
1 40
1 41
1 42
1 43
1 44
1 45
1 46
1 47
1 48
1 49
1 50
1 51
1 52
1 53
1 54
1 55
1 56
1 57
1 58
1 59
1 60
1 61
1 62
1 63
CELL_TYPES 64
1
1
1
1
1
1
1
1
1
1
1
1
1
1
1
1
1
1
1
1
1
1
1
1
1
1
1
1
1
1
1
1
1
1
1
1
1
1
1
1
1
1
1
1
1
1
1
1
1
1
1
1
1
1
1
1
1
1
1
1
1
1
1
1
POINT_DATA 64
VECTORS displacement double
-0.149183 -0.0737663 0 
-0.152292 -0.122452 0 
-0.202325 -0.0710724 0 
-0.203729 -0.121267 0 
-0.152934 -0.174387 0 
-0.148671 -0.224366 0 
-0.20378 -0.173468 0 
-0.200999 -0.225012 0 
-0.151601 -0.27654 0 
-0.150593 -0.329198 0 
-0.201587 -0.276458 0 
-0.201407 -0.328691 0 
-0.149086 -0.377678 0 
-0.147615 -0.4286 0 
-0.200942 -0.380188 0 
-0.200658 -0.431919 0 
-0.255821 -0.0726163 0 
-0.254482 -0.122908 0 
-0.304949 -0.0684799 0 
-0.305249 -0.119664 0 
-0.252588 -0.172988 0 
-0.250844 -0.224631 0 
-0.30225 -0.171198 0 
-0.30003 -0.223955 0 
-0.251697 -0.276768 0 
-0.249535 -0.327158 0 
-0.301209 -0.274521 0 
-0.299389 -0.325877 0 
-0.248629 -0.378114 0 
-0.250171 -0.430886 0 
-0.298112 -0.376717 0 
-0.299854 -0.426274 0 
-0.355912 -0.0689779 0 
-0.354505 -0.12123 0 
-0.408933 -0.069125 0 
-0.404988 -0.122678 0 
-0.352521 -0.171665 0 
-0.350449 -0.223452 0 
-0.402116 -0.173229 0 
-0.400854 -0.224316 0 
-0.350799 -0.274827 0 
-0.34993 -0.325187 0 
-0.400152 -0.274191 0 
-0.40022 -0.324081 0 
-0.348668 -0.376003 0 
-0.349989 -0.426702 0 
-0.398156 -0.375238 0 
-0.398516 -0.426325 0 
-0.457853 -0.0718274 0 
-0.45417 -0.124903 0 
-0.509324 -0.0775072 0 
-0.505286 -0.128347 0 
-0.453104 -0.173905 0 
-0.452394 -0.223466 0 
-0.505467 -0.176767 0 
-0.502697 -0.225941 0 
-0.451005 -0.273935 0 
-0.449702 -0.324653 0 
-0.499942 -0.27599 0 
-0.500821 -0.325328 0 
-0.448117 -0.375035 0 
-0.447674 -0.427004 0 
-0.500085 -0.375854 0 
-0.499218 -0.424309 0 
VECTORS velocity double
-0.168749 -0.244023 0 
0.0262733 -0.0422288 0 
-0.109188 0.0622871 0 
-0.189076 0.289428 0 
-0.214876 -0.370504 0 
0.186934 0.147311 0 
-0.0219125 -0.160589 0 
0.108763 -0.251641 0 
-0.448041 -0.34052 0 
-0.156092 -0.487683 0 
0.0108286 -0.168999 0 
-0.161554 -0.317277 0 
-0.722268 -0.157014 0 
-0.617332 -0.0391573 0 
-0.561768 -0.32231 0 
-1.30098 -0.536248 0 
-0.304751 -0.501889 0 
-0.116099 -0.0791346 0 
-0.193458 -0.000692881 0 
-0.466105 0.00109979 0 
0.427858 -0.0725112 0 
0.263495 -0.256707 0 
-0.206612 -0.401298 0 
-0.427874 -0.372643 0 
-0.289371 0.227172 0 
-0.0336899 -0.0300988 0 
-0.688476 0.225466 0 
-0.213262 0.0169973 0 
-0.168778 -0.146384 0 
-0.836277 -0.335018 0 
-0.491544 0.274513 0 
-1.0089 0.181653 0 
-0.155504 -0.610448 0 
0.091576 0.0785602 0 
-0.481269 0.430725 0 
0.00279695 -0.00638732 0 
-0.153539 -0.480749 0 
0.0171484 -0.652203 0 
-0.407197 0.272434 0 
-0.393856 -0.111148 0 
-0.231081 0.185289 0 
0.125672 -0.205323 0 
-0.531277 0.482016 0 
-0.573793 0.192143 0 
-0.373058 0.235303 0 
-0.604952 0.0976221 0 
-0.827646 -0.056409 0 
-0.630124 0.00705084 0 
-0.0330927 0.019174 0 
-0.0518643 -0.16842 0 
-0.379694 -0.0924756 0 
0.0444408 0.0590544 0 
-0.201778 0.448763 0 
-0.337064 -0.0693595 0 
-0.583719 0.222134 0 
-0.838959 0.212352 0 
-0.599931 -0.0150279 0 
-0.371165 0.152797 0 
-0.0354279 0.279787 0 
-0.311767 0.182942 0 
-0.258996 0.0364163 0 
-0.465366 -0.0629457 0 
-1.17751 0.356318 0 
-0.345213 0.373118 0 
SCALARS mass double 1
LOOKUP_TABLE default
0.625
0.625
0.625
0.625
0.625
0.625
0.625
0.625
0.625
0.625
0.625
0.625
0.625
0.625
0.625
0.625
0.625
0.625
0.625
0.625
0.625
0.625
0.625
0.625
0.625
0.625
0.625
0.625
0.625
0.625
0.625
0.625
0.625
0.625
0.625
0.625
0.625
0.625
0.625
0.625
0.625
0.625
0.625
0.625
0.625
0.625
0.625
0.625
0.625
0.625
0.625
0.625
0.625
0.625
0.625
0.625
0.625
0.625
0.625
0.625
0.625
0.625
0.625
0.625
SCALARS volume double 1
LOOKUP_TABLE default
0.000620565
0.0006222
0.000634539
0.000622376
0.000645935
0.000623945
0.000630681
0.000603978
0.000633545
0.000636685
0.000618851
0.00061601
0.000610077
0.000661698
0.000658883
0.000637976
0.000616329
0.000657476
0.000623931
0.000607564
0.00058034
0.000638994
0.000654879
0.000619896
0.000610978
0.000603338
0.000613075
0.000649602
0.000592455
0.000637721
0.000602703
0.000627713
0.000637344
0.000611705
0.000649602
0.000625574
0.000653938
0.000609083
0.000611054
0.000616915
0.000624973
0.000632673
0.000601263
0.00061054
0.000603707
0.000587655
0.000623125
0.000609031
0.00062168
0.0006015
0.000597111
0.000616251
0.000632392
0.000640631
0.000616244
0.000632298
0.000624532
0.000614111
0.00057742
0.000602059
0.000621338
0.000629483
0.000635415
0.000595384
VECTORS momentum double
-0.105468 -0.152514 0 
0.0164208 -0.026393 0 
-0.0682424 0.0389295 0 
-0.118172 0.180892 0 
-0.134297 -0.231565 0 
0.116834 0.0920694 0 
-0.0136953 -0.100368 0 
0.0679766 -0.157275 0 
-0.280025 -0.212825 0 
-0.0975575 -0.304802 0 
0.00676785 -0.105624 0 
-0.100971 -0.198298 0 
-0.451417 -0.0981336 0 
-0.385832 -0.0244733 0 
-0.351105 -0.201444 0 
-0.813112 -0.335155 0 
-0.190469 -0.31368 0 
-0.0725616 -0.0494591 0 
-0.120911 -0.00043305 0 
-0.291315 0.00068737 0 
0.267411 -0.0453195 0 
0.164684 -0.160442 0 
-0.129133 -0.250811 0 
-0.267421 -0.232902 0 
-0.180857 0.141982 0 
-0.0210562 -0.0188118 0 
-0.430297 0.140916 0 
-0.133289 0.0106233 0 
-0.105486 -0.0914898 0 
-0.522673 -0.209386 0 
-0.307215 0.17157 0 
-0.630564 0.113533 0 
-0.0971898 -0.38153 0 
0.057235 0.0491001 0 
-0.300793 0.269203 0 
0.00174809 -0.00399208 0 
-0.0959616 -0.300468 0 
0.0107177 -0.407627 0 
-0.254498 0.170271 0 
-0.24616 -0.0694674 0 
-0.144426 0.115806 0 
0.0785447 -0.128327 0 
-0.332048 0.30126 0 
-0.358621 0.120089 0 
-0.233162 0.147064 0 
-0.378095 0.0610138 0 
-0.517278 -0.0352556 0 
-0.393828 0.00440678 0 
-0.0206829 0.0119838 0 
-0.0324152 -0.105262 0 
-0.237309 -0.0577973 0 
0.0277755 0.036909 0 
-0.126111 0.280477 0 
-0.210665 -0.0433497 0 
-0.364824 0.138834 0 
-0.524349 0.13272 0 
-0.374957 -0.00939243 0 
-0.231978 0.0954982 0 
-0.0221424 0.174867 0 
-0.194854 0.114339 0 
-0.161873 0.0227602 0 
-0.290854 -0.0393411 0 
-0.735944 0.222699 0 
-0.215758 0.233199 0 
VECTORS body_force double
0 -9.81 0 
0 -9.81 0 
0 -9.81 0 
0 -9.81 0 
0 -9.81 0 
0 -9.81 0 
0 -9.81 0 
0 -9.81 0 
0 -9.81 0 
0 -9.81 0 
0 -9.81 0 
0 -9.81 0 
0 -9.81 0 
0 -9.81 0 
0 -9.81 0 
0 -9.81 0 
0 -9.81 0 
0 -9.81 0 
0 -9.81 0 
0 -9.81 0 
0 -9.81 0 
0 -9.81 0 
0 -9.81 0 
0 -9.81 0 
0 -9.81 0 
0 -9.81 0 
0 -9.81 0 
0 -9.81 0 
0 -9.81 0 
0 -9.81 0 
0 -9.81 0 
0 -9.81 0 
0 -9.81 0 
0 -9.81 0 
0 -9.81 0 
0 -9.81 0 
0 -9.81 0 
0 -9.81 0 
0 -9.81 0 
0 -9.81 0 
0 -9.81 0 
0 -9.81 0 
0 -9.81 0 
0 -9.81 0 
0 -9.81 0 
0 -9.81 0 
0 -9.81 0 
0 -9.81 0 
0 -9.81 0 
0 -9.81 0 
0 -9.81 0 
0 -9.81 0 
0 -9.81 0 
0 -9.81 0 
0 -9.81 0 
0 -9.81 0 
0 -9.81 0 
0 -9.81 0 
0 -9.81 0 
0 -9.81 0 
0 -9.81 0 
0 -9.81 0 
0 -9.81 0 
0 -9.81 0 
TENSORS cauchy_stress double
484.719 103.81 0
103.81 -1854.17 0
0 0 0

-1204.79 -2256.03 0
-2256.03 341.352 0
0 0 0

2036.97 1192.25 0
1192.25 875.966 0
0 0 0

-699.033 -1958.58 0
-1958.58 -110.027 0
0 0 0

172.668 -3749.25 0
-3749.25 6163.21 0
0 0 0

-783.046 -1590.52 0
-1590.52 458.188 0
0 0 0

-1931.59 -1209.78 0
-1209.78 3671.59 0
0 0 0

-4115.24 -2423.5 0
-2423.5 -2464.22 0
0 0 0

-4604.62 2462.29 0
2462.29 7216.11 0
0 0 0

1276.52 1478.96 0
1478.96 2285.65 0
0 0 0

-3183.12 1508.69 0
1508.69 1281.69 0
0 0 0

-5645.46 -5544.11 0
-5544.11 2859.1 0
0 0 0

397.861 1890.18 0
1890.18 -5045.33 0
0 0 0

401.488 3494.07 0
3494.07 10571.1 0
0 0 0

3337.96 150.221 0
150.221 6814.74 0
0 0 0

7738.29 7354.46 0
7354.46 -3786.7 0
0 0 0

730.294 4465.86 0
4465.86 -3417.06 0
0 0 0

865.652 138.675 0
138.675 8876.05 0
0 0 0

-844.564 40.4414 0
40.4414 515.493 0
0 0 0

-2726.65 -1515.4 0
-1515.4 -2714.68 0
0 0 0

-6595.26 -3046.38 0
-3046.38 -7661.88 0
0 0 0

76.8066 -1020.87 0
-1020.87 4181.45 0
0 0 0

112.593 -5189.02 0
-5189.02 8867.82 0
0 0 0

-2428.85 -405.578 0
-405.578 852.058 0
0 0 0

-4219.02 -103.395 0
-103.395 -144.668 0
0 0 0

-4909.1 -5128.87 0
-5128.87 -1874.32 0
0 0 0

-3294.48 -4174.09 0
-4174.09 -410.309 0
0 0 0

1604.23 -1449.74 0
-1449.74 5820.29 0
0 0 0

-8410.51 -1491.65 0
-1491.65 -1873.59 0
0 0 0

-1257.09 -1745.12 0
-1745.12 5132.07 0
0 0 0

-3559.05 -1774.35 0
-1774.35 -3426.87 0
0 0 0

-1240.02 -2434.06 0
-2434.06 2072.86 0
0 0 0

-517.115 2050.44 0
2050.44 4278.22 0
0 0 0

-2986.09 253.313 0
253.313 -1148.68 0
0 0 0

2432.64 -2205.48 0
-2205.48 4992.02 0
0 0 0

-1890.59 -2219.25 0
-2219.25 2067.01 0
0 0 0

3424.14 -1655.27 0
-1655.27 5279.79 0
0 0 0

-2350.93 2754.81 0
2754.81 -2610.01 0
0 0 0

-1879.02 -618.574 0
-618.574 -2460.73 0
0 0 0

1018.97 -2818.7 0
-2818.7 -3522.9 0
0 0 0

-648.988 -2801.6 0
-2801.6 640.635 0
0 0 0

3614.19 1522.65 0
1522.65 -1267.78 0
0 0 0

-1316.37 100.638 0
100.638 -6129.77 0
0 0 0

-2857.65 -5716.06 0
-5716.06 -1643.78 0
0 0 0

-4572.96 -70.7018 0
-70.7018 -2093.02 0
0 0 0

-10088.2 3082.72 0
3082.72 -1760.08 0
0 0 0

-1151.76 -2440.7 0
-2440.7 573.966 0
0 0 0

-5600.45 5288.35 0
5288.35 623.191 0
0 0 0

-2028.18 175.037 0
175.037 1003.79 0
0 0 0

-4032.67 726.972 0
726.972 -3337.61 0
0 0 0

-42.5383 -1346.67 0
-1346.67 -8735.89 0
0 0 0

-1259.13 -1090.06 0
-1090.06 -1451.96 0
0 0 0

7557.51 3979.5 0
3979.5 -5296.33 0
0 0 0

4803.45 -3870.06 0
-3870.06 -53.0628 0
0 0 0

4302.05 7867.2 0
7867.2 -7015.36 0
0 0 0

3958.55 -2942.28 0
-2942.28 -1726.08 0
0 0 0

-2465.86 4001.16 0
4001.16 2321.85 0
0 0 0

-408.215 -88.721 0
-88.721 -2971.79 0
0 0 0

-8934.62 4616.36 0
4616.36 -6292.51 0
0 0 0

-1138.52 -535.59 0
-535.59 -6052.95 0
0 0 0

-1418.12 483.797 0
483.797 288.143 0
0 0 0

-571.689 2280.8 0
2280.8 1946.2 0
0 0 0

5358.55 -1740.47 0
-1740.47 -2180.31 0
0 0 0

-1288.83 -222.317 0
-222.317 -8046.65 0
0 0 0

TENSORS velocity_gradient double
0.596282 -2.77705 0
0.201943 -0.265172 0
0 0 0

-0.0497634 -2.86365 0
1.65609 -0.0702452 0
0 0 0

1.21009 -3.23737 0
1.40585 0.396208 0
0 0 0

1.04912 -3.24685 0
1.12487 0.379657 0
0 0 0

-0.466025 0.887006 0
2.03451 1.61118 0
0 0 0

-0.472945 0.888196 0
0.866806 1.8119 0
0 0 0

1.31998 1.44745 0
0.37087 0.305237 0
0 0 0

2.23994 1.34991 0
-1.02926 0.453683 0
0 0 0

-1.26232 6.5149 0
-1.11121 1.99284 0
0 0 0

-2.82945 6.58252 0
-3.81596 2.10955 0
0 0 0

2.00134 5.2047 0
-2.38163 0.218539 0
0 0 0

0.666086 5.22047 0
-3.73397 0.234511 0
0 0 0

-0.745065 7.81606 0
-2.5974 -1.06376 0
0 0 0

3.73098 7.52838 0
0.985839 -1.29406 0
0 0 0

-0.915658 9.37432 0
-4.20839 0.837487 0
0 0 0

-2.62863 8.45643 0
-4.23214 0.649442 0
0 0 0

1.20048 -3.41933 0
1.38908 0.0785885 0
0 0 0

1.03881 -3.41133 0
1.10689 0.092546 0
0 0 0

-0.00617504 -2.45176 0
-1.07168 -0.00205842 0
0 0 0

1.38756 -2.51338 0
-1.16428 -0.0586769 0
0 0 0

1.30303 2.27187 0
0.396673 -0.94949 0
0 0 0

2.22762 2.20945 0
-1.01051 -0.854487 0
0 0 0

2.4406 2.75971 0
-1.31552 -1.62882 0
0 0 0

2.70982 2.73752 0
-1.60535 -1.60493 0
0 0 0

1.98317 3.97577 0
-2.40003 -1.02612 0
0 0 0

0.737142 4.08665 0
-3.662 -0.913817 0
0 0 0

2.55978 3.11852 0
-1.80235 -1.63488 0
0 0 0

1.93762 3.16328 0
-1.92317 -1.62619 0
0 0 0

-0.786696 7.89215 0
-4.20515 0.800233 0
0 0 0

-2.59704 7.80564 0
-4.25065 0.798059 0
0 0 0

0.664518 6.24289 0
-1.84366 0.871527 0
0 0 0

-1.0605 6.13109 0
-1.61439 0.886387 0
0 0 0

0.00322769 -1.13239 0
-1.07587 -0.146875 0
0 0 0

1.47357 -1.2065 0
-1.16978 -0.142142 0
0 0 0

-0.582842 0.283107 0
-3.58642 -0.535095 0
0 0 0

0.827289 0.0880232 0
-4.07686 -0.467247 0
0 0 0

2.44545 3.00384 0
-1.32074 -1.89164 0
0 0 0

2.70534 2.98305 0
-1.60053 -1.86926 0
0 0 0

1.61628 3.17625 0
-3.93958 -1.46984 0
0 0 0

1.75075 3.16934 0
-2.9814 -1.51909 0
0 0 0

2.55149 2.54043 0
-1.80396 -1.74714 0
0 0 0

1.95276 2.56241 0
-1.92023 -1.74288 0
0 0 0

1.72566 2.15974 0
-2.27572 -1.56963 0
0 0 0

1.52821 2.15962 0
-1.80342 -1.56936 0
0 0 0

0.711342 4.44733 0
-1.84989 1.11018 0
0 0 0

-1.09339 4.3624 0
-1.61002 1.12146 0
0 0 0

0.682512 2.85496 0
-2.01994 0.872074 0
0 0 0

-0.821471 2.83849 0
-2.97346 0.86163 0
0 0 0

-0.153086 1.41646 0
-3.16657 -0.947558 0
0 0 0

0.94211 1.28118 0
-4.11679 -0.882218 0
0 0 0

2.02472 1.29506 0
0.384097 -1.44463 0
0 0 0

1.53506 1.37197 0
-0.113977 -1.3664 0
0 0 0

1.62028 3.30982 0
-3.91103 -0.518163 0
0 0 0

1.74678 3.30575 0
-3.00967 -0.54716 0
0 0 0

1.58363 3.62876 0
-1.44815 -1.5838 0
0 0 0

1.95295 3.58524 0
-3.39705 -1.35414 0
0 0 0

1.72722 1.95532 0
-2.27944 -1.08068 0
0 0 0

1.52332 1.96602 0
-1.79173 -1.10627 0
0 0 0

1.49284 1.30521 0
-3.74913 -0.359454 0
0 0 0

0.363289 1.26596 0
-2.74204 -0.324451 0
0 0 0

0.691319 1.41572 0
-2.01436 -0.0403948 0
0 0 0

-0.864786 1.44349 0
-3.00092 -0.0227882 0
0 0 0

-0.102912 0.636447 0
-1.52495 0.0575716 0
0 0 0

0.0526552 0.630598 0
-0.275564 0.0106022 0
0 0 0

SCALARS active double 1
LOOKUP_TABLE default
1
1
1
1
1
1
1
1
1
1
1
1
1
1
1
1
1
1
1
1
1
1
1
1
1
1
1
1
1
1
1
1
1
1
1
1
1
1
1
1
1
1
1
1
1
1
1
1
1
1
1
1
1
1
1
1
1
1
1
1
1
1
1
1
SCALARS extent double 1
LOOKUP_TABLE default
0.0125
0.0125
0.0125
0.0125
0.0125
0.0125
0.0125
0.0125
0.0125
0.0125
0.0125
0.0125
0.0125
0.0125
0.0125
0.0125
0.0125
0.0125
0.0125
0.0125
0.0125
0.0125
0.0125
0.0125
0.0125
0.0125
0.0125
0.0125
0.0125
0.0125
0.0125
0.0125
0.0125
0.0125
0.0125
0.0125
0.0125
0.0125
0.0125
0.0125
0.0125
0.0125
0.0125
0.0125
0.0125
0.0125
0.0125
0.0125
0.0125
0.0125
0.0125
0.0125
0.0125
0.0125
0.0125
0.0125
0.0125
0.0125
0.0125
0.0125
0.0125
0.0125
0.0125
0.0125
SCALARS pressure double 1
LOOKUP_TABLE default
684.725
431.72
-1456.47
404.53
-3167.94
162.429
-870.003
3289.73
-1305.74
-1781.09
950.715
1393.18
2323.73
-5486.28
-5076.35
-1975.79
1343.38
-4870.85
164.536
2720.67
7128.57
-2129.13
-4490.2
788.398
2181.85
3391.71
1852.4
-3712.26
5142.05
-1937.49
3492.96
-416.422
-1880.55
2067.39
-3712.33
-88.2099
-4351.96
2480.47
2169.87
1251.96
4.17627
-1173.2
3723.07
2250.71
3332.99
5924.13
288.897
2488.63
512.196
3685.14
4389.22
1355.55
-1130.59
-2375.19
1356.66
-1116.23
72.0024
1690
7613.56
3595.74
564.989
-687.254
-1589.12
4667.74
SCALARS density double 1
LOOKUP_TABLE default
1007.15
1004.5
984.967
1004.22
967.59
1001.69
990.993
1034.81
986.512
981.647
1009.94
1014.59
1024.46
944.54
948.575
979.661
1014.07
950.605
1001.71
1028.7
1076.95
978.1
954.375
1008.23
1022.95
1035.9
1019.45
962.128
1054.93
980.052
1036.99
995.679
980.632
1021.73
962.128
999.083
955.749
1026.13
1022.82
1013.11
1000.04
987.873
1039.48
1023.68
1035.27
1063.55
1003.01
1026.22
1005.34
1039.07
1046.71
1014.2
988.311
975.601
1014.21
988.458
1000.75
1017.73
1082.4
1038.1
1005.89
992.878
983.609
1049.74
