# vtk DataFile Version 3.0
Frame: 16, Time: 0.272
ASCII
DATASET UNSTRUCTURED_GRID
POINTS 64 double
0.265383 0.167468 0 
0.239601 0.16502 0 
0.264998 0.192581 0 
0.239995 0.189018 0 
0.213595 0.163014 0 
0.190566 0.159069 0 
0.213675 0.18757 0 
0.188887 0.185166 0 
0.164859 0.159451 0 
0.139728 0.159755 0 
0.164384 0.184446 0 
0.138737 0.184127 0 
0.115676 0.157111 0 
0.0887214 0.157276 0 
0.11365 0.182738 0 
0.087901 0.180827 0 
0.263203 0.217238 0 
0.238039 0.215035 0 
0.260763 0.242347 0 
0.235706 0.239844 0 
0.213831 0.212392 0 
0.187909 0.211197 0 
0.210911 0.237836 0 
0.186024 0.235157 0 
0.163549 0.209752 0 
0.138052 0.208784 0 
0.160617 0.234963 0 
0.13589 0.233699 0 
0.11214 0.208014 0 
0.0868695 0.206947 0 
0.11017 0.232533 0 
0.0849578 0.231883 0 
0.258743 0.267139 0 
0.233368 0.264935 0 
0.256876 0.291701 0 
0.231626 0.289903 0 
0.208865 0.263102 0 
0.184362 0.260625 0 
0.207529 0.288634 0 
0.182663 0.286633 0 
0.160382 0.259624 0 
0.134959 0.258816 0 
0.158024 0.284595 0 
0.13331 0.283468 0 
0.109054 0.257279 0 
0.0844542 0.256893 0 
0.107753 0.282418 0 
0.0830604 0.281753 0 
0.255414 0.317223 0 
0.23016 0.314546 0 
0.254589 0.342167 0 
0.228515 0.34026 0 
0.205215 0.313593 0 
0.179408 0.312226 0 
0.203242 0.339778 0 
0.178034 0.337238 0 
0.155656 0.31007 0 
0.131638 0.307661 0 
0.153435 0.336238 0 
0.129547 0.33358 0 
0.105734 0.307147 0 
0.080624 0.306241 0 
0.105822 0.332909 0 
0.0805711 0.332464 0 
CELLS 64 128
1 0
1 1
1 2
1 3
1 4
1 5
1 6
1 7
1 8
1 9
1 10
1 11
1 12
1 13
1 14
1 15
1 16
1 17
1 18
1 19
1 20
1 21
1 22
1 23
1 24
1 25
1 26
1 27
1 28
1 29
1 30
1 31
1 32
1 33
1 34
1 35
1 36
1 37
1 38
1 39
1 40
1 41
1 42
1 43
1 44
1 45
1 46
1 47
1 48
1 49
1 50
1 51
1 52
1 53
1 54
1 55
1 56
1 57
1 58
1 59
1 60
1 61
1 62
1 63
CELL_TYPES 64
1
1
1
1
1
1
1
1
1
1
1
1
1
1
1
1
1
1
1
1
1
1
1
1
1
1
1
1
1
1
1
1
1
1
1
1
1
1
1
1
1
1
1
1
1
1
1
1
1
1
1
1
1
1
1
1
1
1
1
1
1
1
1
1
POINT_DATA 64
VECTORS displacement double
0.0528831 -0.0450321 0 
0.0271009 -0.0724801 0 
0.0274979 -0.019919 0 
0.00249512 -0.0484817 0 
0.00109517 -0.0994855 0 
-0.0219342 -0.128431 0 
-0.0238254 -0.0749304 0 
-0.0486132 -0.102334 0 
-0.0476407 -0.153049 0 
-0.0727717 -0.177745 0 
-0.0731164 -0.128054 0 
-0.0987634 -0.153373 0 
-0.0968244 -0.205389 0 
-0.123779 -0.230224 0 
-0.12385 -0.179762 0 
-0.149599 -0.206673 0 
0.000702734 0.00473769 0 
-0.0244607 -0.0224645 0 
-0.0267369 0.0298469 0 
-0.0517943 0.00234404 0 
-0.0486694 -0.050108 0 
-0.0745908 -0.0763025 0 
-0.0765891 -0.0246636 0 
-0.101476 -0.052343 0 
-0.0989512 -0.102748 0 
-0.124448 -0.128716 0 
-0.126883 -0.0775373 0 
-0.15161 -0.103801 0 
-0.15036 -0.154486 0 
-0.175631 -0.180553 0 
-0.17733 -0.129967 0 
-0.202542 -0.155617 0 
-0.0537572 0.0546392 0 
-0.0791323 0.0274355 0 
-0.0806245 0.0792008 0 
-0.105874 0.052403 0 
-0.103635 0.000601949 0 
-0.128138 -0.0268752 0 
-0.129971 0.0261338 0 
-0.154837 -0.000866798 0 
-0.152118 -0.0528761 0 
-0.177541 -0.0786838 0 
-0.179476 -0.0279052 0 
-0.20419 -0.0540323 0 
-0.203446 -0.105221 0 
-0.228046 -0.130607 0 
-0.229747 -0.0800817 0 
-0.25444 -0.105747 0 
-0.107086 0.104723 0 
-0.13234 0.0770463 0 
-0.132911 0.129667 0 
-0.158985 0.10276 0 
-0.157285 0.0510931 0 
-0.183092 0.0247264 0 
-0.184258 0.0772776 0 
-0.209466 0.0497378 0 
-0.206844 -0.00243001 0 
-0.230862 -0.0298393 0 
-0.234065 0.0237381 0 
-0.257953 -0.00391992 0 
-0.256766 -0.0553528 0 
-0.281876 -0.0812585 0 
-0.281678 -0.0295906 0 
-0.306929 -0.0550361 0 
VECTORS velocity double
-0.0641887 2.27266 0 
-0.572905 1.27641 0 
-1.01851 2.34246 0 
-0.910268 1.4598 0 
-0.456195 1.18143 0 
-0.637516 0.88134 0 
-0.623653 1.16509 0 
-0.787523 1.07331 0 
-0.828132 1.30997 0 
-0.782908 1.3999 0 
-0.858424 0.709204 0 
-1.11345 1.15436 0 
-0.869588 1.44576 0 
-1.03381 1.18643 0 
-1.48108 1.67413 0 
-1.40879 0.909162 0 
-0.948754 2.32758 0 
-0.86853 1.22628 0 
-1.11858 2.48416 0 
-1.11604 1.62003 0 
-0.773425 1.10477 0 
-1.05134 0.900392 0 
-1.08032 1.36959 0 
-1.22885 0.956638 0 
-0.901169 0.728086 0 
-0.968087 0.932952 0 
-0.925663 1.04845 0 
-1.10471 1.22285 0 
-1.2681 1.42889 0 
-1.22901 0.664009 0 
-1.30139 1.28389 0 
-1.2209 0.62575 0 
-1.09562 2.00456 0 
-1.48207 1.34546 0 
-1.6875 1.85986 0 
-1.77412 1.08546 0 
-1.22428 1.11943 0 
-1.3305 0.678847 0 
-1.79135 1.25194 0 
-1.99965 1.23119 0 
-1.34604 0.727586 0 
-1.48929 0.997782 0 
-2.01293 1.22178 0 
-1.9654 1.27277 0 
-1.49819 0.828327 0 
-1.83982 0.361617 0 
-1.6774 1.22667 0 
-1.89474 0.544704 0 
-1.37247 2.17042 0 
-1.53998 1.04945 0 
-1.84633 1.3867 0 
-2.23814 1.35944 0 
-1.82822 1.10976 0 
-2.04006 1.11901 0 
-1.96107 1.17454 0 
-2.15593 0.796502 0 
-1.91128 1.19351 0 
-2.04663 0.983627 0 
-2.22579 1.22647 0 
-2.43116 0.888472 0 
-2.12489 1.18587 0 
-2.31433 -0.0311328 0 
-2.53905 0.950534 0 
-2.85799 0.0838119 0 
SCALARS mass double 1
LOOKUP_TABLE default
0.625
0.625
0.625
0.625
0.625
0.625
0.625
0.625
0.625
0.625
0.625
0.625
0.625
0.625
0.625
0.625
0.625
0.625
0.625
0.625
0.625
0.625
0.625
0.625
0.625
0.625
0.625
0.625
0.625
0.625
0.625
0.625
0.625
0.625
0.625
0.625
0.625
0.625
0.625
0.625
0.625
0.625
0.625
0.625
0.625
0.625
0.625
0.625
0.625
0.625
0.625
0.625
0.625
0.625
0.625
0.625
0.625
0.625
0.625
0.625
0.625
0.625
0.625
0.625
SCALARS volume double 1
LOOKUP_TABLE default
0.000639701
0.000660541
0.000639167
0.000627456
0.000591898
0.000627681
0.000628166
0.000594516
0.000642916
0.000581573
0.000642146
0.000622565
0.000649464
0.000609837
0.000657272
0.000622068
0.000637258
0.000615571
0.00062458
0.000624352
0.00063565
0.000645022
0.000625906
0.000626614
0.000623928
0.000619791
0.000608416
0.000648618
0.000621878
0.000619158
0.000634502
0.000633568
0.000606216
0.000625096
0.000619611
0.000615358
0.00059922
0.000630216
0.000615019
0.000643106
0.000624088
0.000642081
0.000617025
0.000603762
0.000620055
0.000642127
0.000626878
0.000614132
0.000635385
0.00063033
0.000612443
0.000630138
0.0006376
0.000618518
0.000610598
0.000618444
0.000635458
0.000638332
0.000604247
0.000603906
0.000625385
0.000633269
0.00061611
0.000627485
VECTORS momentum double
-0.0401179 1.42041 0 
-0.358065 0.797757 0 
-0.636569 1.46404 0 
-0.568918 0.912378 0 
-0.285122 0.738397 0 
-0.398447 0.550838 0 
-0.389783 0.72818 0 
-0.492202 0.670818 0 
-0.517582 0.818728 0 
-0.489318 0.874937 0 
-0.536515 0.443253 0 
-0.695909 0.721474 0 
-0.543492 0.903597 0 
-0.646132 0.741516 0 
-0.925676 1.04633 0 
-0.880495 0.568226 0 
-0.592972 1.45474 0 
-0.542831 0.766422 0 
-0.699111 1.5526 0 
-0.697527 1.01252 0 
-0.483391 0.690482 0 
-0.657089 0.562745 0 
-0.675203 0.855994 0 
-0.768031 0.597899 0 
-0.56323 0.455053 0 
-0.605055 0.583095 0 
-0.578539 0.655283 0 
-0.690441 0.764284 0 
-0.792563 0.893055 0 
-0.76813 0.415006 0 
-0.813369 0.802432 0 
-0.763063 0.391094 0 
-0.684762 1.25285 0 
-0.926293 0.840913 0 
-1.05469 1.16241 0 
-1.10882 0.678414 0 
-0.765174 0.699643 0 
-0.831564 0.424279 0 
-1.11959 0.782463 0 
-1.24978 0.769496 0 
-0.841275 0.454741 0 
-0.930805 0.623614 0 
-1.25808 0.763616 0 
-1.22838 0.795484 0 
-0.936372 0.517704 0 
-1.14989 0.22601 0 
-1.04837 0.766672 0 
-1.18421 0.34044 0 
-0.857796 1.35651 0 
-0.962488 0.655903 0 
-1.15396 0.86669 0 
-1.39884 0.849651 0 
-1.14264 0.693603 0 
-1.27504 0.699382 0 
-1.22567 0.734086 0 
-1.34746 0.497814 0 
-1.19455 0.745944 0 
-1.27914 0.614767 0 
-1.39112 0.766541 0 
-1.51947 0.555295 0 
-1.32806 0.741171 0 
-1.44645 -0.019458 0 
-1.58691 0.594084 0 
-1.78625 0.0523824 0 
VECTORS body_force double
0 -9.81 0 
0 -9.81 0 
0 -9.81 0 
0 -9.81 0 
0 -9.81 0 
0 -9.81 0 
0 -9.81 0 
0 -9.81 0 
0 -9.81 0 
0 -9.81 0 
0 -9.81 0 
0 -9.81 0 
0 -9.81 0 
0 -9.81 0 
0 -9.81 0 
0 -9.81 0 
0 -9.81 0 
0 -9.81 0 
0 -9.81 0 
0 -9.81 0 
0 -9.81 0 
0 -9.81 0 
0 -9.81 0 
0 -9.81 0 
0 -9.81 0 
0 -9.81 0 
0 -9.81 0 
0 -9.81 0 
0 -9.81 0 
0 -9.81 0 
0 -9.81 0 
0 -9.81 0 
0 -9.81 0 
0 -9.81 0 
0 -9.81 0 
0 -9.81 0 
0 -9.81 0 
0 -9.81 0 
0 -9.81 0 
0 -9.81 0 
0 -9.81 0 
0 -9.81 0 
0 -9.81 0 
0 -9.81 0 
0 -9.81 0 
0 -9.81 0 
0 -9.81 0 
0 -9.81 0 
0 -9.81 0 
0 -9.81 0 
0 -9.81 0 
0 -9.81 0 
0 -9.81 0 
0 -9.81 0 
0 -9.81 0 
0 -9.81 0 
0 -9.81 0 
0 -9.81 0 
0 -9.81 0 
0 -9.81 0 
0 -9.81 0 
0 -9.81 0 
0 -9.81 0 
0 -9.81 0 
TENSORS cauchy_stress double
-1556.81 877.915 0
877.915 6027.93 0
0 0 0

9484.22 5638.04 0
5638.04 1151.84 0
0 0 0

4586.81 -1106.82 0
-1106.82 -276.427 0
0 0 0

-2012.56 2604.82 0
2604.82 2766.86 0
0 0 0

-11867 1123.41 0
1123.41 1402.1 0
0 0 0

1288.53 -2679.01 0
-2679.01 -465.421 0
0 0 0

7029.6 -135.687 0
-135.687 -6057.95 0
0 0 0

-12237.3 2963.69 0
2963.69 2621.21 0
0 0 0

2301.82 471.77 0
471.77 3133.38 0
0 0 0

-5807.36 -1911.14 0
-1911.14 -8041.66 0
0 0 0

5670.31 -650.932 0
-650.932 -465.764 0
0 0 0

94.2116 -3179.31 0
-3179.31 -844.986 0
0 0 0

3068.19 1132.23 0
1132.23 4315.74 0
0 0 0

343.295 295.442 0
295.442 -5066.39 0
0 0 0

3562.5 1658.83 0
1658.83 6119.54 0
0 0 0

127.621 -1251.92 0
-1251.92 -1031.89 0
0 0 0

-84.4185 -725.993 0
-725.993 3819.49 0
0 0 0

-1485.58 3039.58 0
3039.58 -1437.73 0
0 0 0

1588.07 1813.27 0
1813.27 -1717.25 0
0 0 0

-1586.62 -99.8025 0
-99.8025 1386.98 0
0 0 0

-496.903 -1051.12 0
-1051.12 3746.17 0
0 0 0

4720.82 -857.039 0
-857.039 1343.31 0
0 0 0

-1452.68 -1042.48 0
-1042.48 1731.36 0
0 0 0

1889.87 -1348.83 0
-1348.83 -1393.95 0
0 0 0

-1755.92 -2197.38 0
-2197.38 1425.91 0
0 0 0

1508.41 379.51 0
379.51 -3117.76 0
0 0 0

-3192.66 -619.67 0
-619.67 -1978.99 0
0 0 0

3654.15 -1891.18 0
-1891.18 3478.99 0
0 0 0

1327.57 -274.271 0
-274.271 -2290.61 0
0 0 0

-2169.2 -682.589 0
-682.589 363.13 0
0 0 0

1934.06 -552.199 0
-552.199 967.517 0
0 0 0

1023.46 -854.186 0
-854.186 1594.85 0
0 0 0

-2250.49 -2403.66 0
-2403.66 -3617.88 0
0 0 0

691.482 1290.7 0
1290.7 -661.894 0
0 0 0

-886.638 -507.948 0
-507.948 -778.712 0
0 0 0

-2561.47 2271.68 0
2271.68 -428.392 0
0 0 0

-5141.68 -542.012 0
-542.012 -2958.81 0
0 0 0

-3135.13 1483.66 0
1483.66 4733.35 0
0 0 0

-3074.06 -2241.47 0
-2241.47 -21.8573 0
0 0 0

828.042 -255.613 0
-255.613 4663.92 0
0 0 0

-482.175 -2648.53 0
-2648.53 201.302 0
0 0 0

2891.8 771.922 0
771.922 2293.48 0
0 0 0

-303.54 -441.568 0
-441.568 -2166.04 0
0 0 0

-2204.67 -433.033 0
-433.033 -4443.75 0
0 0 0

935.328 -575.841 0
-575.841 -2462.87 0
0 0 0

366.468 -2086.6 0
-2086.6 4832.6 0
0 0 0

-156.594 -1089.3 0
-1089.3 733.723 0
0 0 0

443.62 -834.898 0
-834.898 -3817.12 0
0 0 0

845.243 -287.181 0
-287.181 2323.74 0
0 0 0

595.28 435.524 0
435.524 1037.68 0
0 0 0

163.006 1599.55 0
1599.55 -4066.02 0
0 0 0

2028.76 1409.65 0
1409.65 -454.224 0
0 0 0

1246.45 -1406.71 0
-1406.71 2592.05 0
0 0 0

-1547.59 -2036.98 0
-2036.98 -457.411 0
0 0 0

-2116.19 1764.54 0
1764.54 -2367.06 0
0 0 0

-62.7126 -80.7179 0
-80.7179 -1965.04 0
0 0 0

-3153.84 -755.424 0
-755.424 6344.94 0
0 0 0

2324.14 -2494.74 0
-2494.74 1734.97 0
0 0 0

-3591.41 1030.42 0
1030.42 -2902.47 0
0 0 0

-4005.77 2598 0
2598 -2596.81 0
0 0 0

1616.78 -3176.2 0
-3176.2 -1498.27 0
0 0 0

635.445 -2086.36 0
-2086.36 1892.26 0
0 0 0

-1695.36 217.912 0
217.912 -1059.72 0
0 0 0

804.295 308.078 0
308.078 -41.2569 0
0 0 0

TENSORS velocity_gradient double
1.85797 -9.92243 0
14.5272 0.623363 0
0 0 0

2.84432 -7.45652 0
11.0035 0.915087 0
0 0 0

-0.836736 -9.9078 0
13.6524 0.628112 0
0 0 0

0.997881 -7.50062 0
11.6462 0.930435 0
0 0 0

2.97679 -5.45821 0
10.9574 0.219532 0
0 0 0

4.52365 -4.16179 0
-2.23152 -0.881496 0
0 0 0

1.08586 -5.47463 0
11.6155 0.225249 0
0 0 0

3.92641 -4.12602 0
-0.0781471 -1.01045 0
0 0 0

4.51621 -3.57668 0
-2.20467 -2.99111 0
0 0 0

4.32557 -3.1564 0
-1.37698 -4.21163 0
0 0 0

3.94298 -3.56789 0
-0.137884 -3.02281 0
0 0 0

4.16402 -3.15039 0
-1.56756 -4.20454 0
0 0 0

4.31703 -3.07079 0
-1.30969 -4.20723 0
0 0 0

1.25185 -3.12586 0
6.6059 -4.00031 0
0 0 0

4.17348 -2.98544 0
-1.55639 -4.00996 0
0 0 0

1.67154 -3.08558 0
6.87495 -4.03369 0
0 0 0

-0.994034 -5.95426 0
12.488 0.015453 0
0 0 0

0.513093 -7.1263 0
12.2076 0.606585 0
0 0 0

0.38545 -6.0799 0
11.1135 0.140629 0
0 0 0

1.40156 -7.2034 0
12.6221 0.570619 0
0 0 0

0.429067 -7.9931 0
12.1684 0.202197 0
0 0 0

3.22037 -8.14653 0
1.3714 -0.194164 0
0 0 0

1.3409 -8.09019 0
12.5938 0.1569 0
0 0 0

2.41094 -8.08959 0
1.6941 -0.216864 0
0 0 0

3.26808 -7.3261 0
1.35238 -0.521248 0
0 0 0

3.81082 -6.49659 0
-1.00718 -1.68534 0
0 0 0

2.41605 -7.23354 0
1.69207 -0.558149 0
0 0 0

3.03431 -6.43455 0
1.22455 -1.86364 0
0 0 0

3.83567 -5.69338 0
-1.0786 -3.99377 0
0 0 0

2.13005 -5.4024 0
7.35424 -5.58333 0
0 0 0

3.06975 -5.63663 0
1.12269 -4.15689 0
0 0 0

2.51481 -5.4862 0
8.26806 -5.68597 0
0 0 0

1.75623 -7.38526 0
10.3305 -3.54295 0
0 0 0

2.66139 -8.8975 0
11.7595 -2.16575 0
0 0 0

3.11976 -7.47812 0
9.90795 -3.51417 0
0 0 0

4.22856 -8.99216 0
9.78668 -2.04659 0
0 0 0

2.5646 -10.4282 0
11.8814 -0.238834 0
0 0 0

2.16727 -11.5073 0
1.47495 1.21431 0
0 0 0

4.16381 -10.4949 0
9.86819 -0.154878 0
0 0 0

2.96634 -11.5502 0
0.295984 1.27764 0
0 0 0

2.13763 -12.2437 0
1.51868 2.30079 0
0 0 0

2.46455 -12.553 0
3.47492 1.62335 0
0 0 0

2.90401 -12.3066 0
0.387944 2.39371 0
0 0 0

2.36488 -12.5476 0
5.68453 1.50337 0
0 0 0

2.47041 -12.4483 0
3.34494 -0.697565 0
0 0 0

2.78546 -12.3228 0
9.44116 -2.74537 0
0 0 0

2.36855 -12.4444 0
5.60329 -0.786086 0
0 0 0

2.709 -12.359 0
11.371 -2.81212 0
0 0 0

3.31613 -6.12029 0
6.77354 -3.59304 0
0 0 0

4.26569 -5.01809 0
8.27373 -1.42348 0
0 0 0

2.74772 -6.10509 0
2.03187 -3.46625 0
0 0 0

2.9253 -4.93949 0
7.09149 -1.35416 0
0 0 0

4.3046 -3.72558 0
8.30806 -0.28346 0
0 0 0

3.64681 -3.75323 0
0.197631 -0.897127 0
0 0 0

3.05045 -3.66709 0
6.63722 -0.248603 0
0 0 0

4.17694 -3.78022 0
1.45613 -0.96119 0
0 0 0

3.60115 -4.25454 0
0.0892426 -2.08719 0
0 0 0

2.88885 -5.87215 0
7.17643 -2.27253 0
0 0 0

4.22605 -4.32213 0
1.70153 -2.17156 0
0 0 0

5.21184 -6.04445 0
6.85662 -2.24881 0
0 0 0

2.85946 -8.18089 0
7.18047 -1.95469 0
0 0 0

2.65923 -9.05989 0
12.8773 -2.08725 0
0 0 0

5.16628 -8.15425 0
6.8629 -1.95836 0
0 0 0

2.69214 -8.90779 0
13.1842 -2.04415 0
0 0 0

SCALARS active double 1
LOOKUP_TABLE default
1
1
1
1
1
1
1
1
1
1
1
1
1
1
1
1
1
1
1
1
1
1
1
1
1
1
1
1
1
1
1
1
1
1
1
1
1
1
1
1
1
1
1
1
1
1
1
1
1
1
1
1
1
1
1
1
1
1
1
1
1
1
1
1
SCALARS extent double 1
LOOKUP_TABLE default
0.0125
0.0125
0.0125
0.0125
0.0125
0.0125
0.0125
0.0125
0.0125
0.0125
0.0125
0.0125
0.0125
0.0125
0.0125
0.0125
0.0125
0.0125
0.0125
0.0125
0.0125
0.0125
0.0125
0.0125
0.0125
0.0125
0.0125
0.0125
0.0125
0.0125
0.0125
0.0125
0.0125
0.0125
0.0125
0.0125
0.0125
0.0125
0.0125
0.0125
0.0125
0.0125
0.0125
0.0125
0.0125
0.0125
0.0125
0.0125
0.0125
0.0125
0.0125
0.0125
0.0125
0.0125
0.0125
0.0125
0.0125
0.0125
0.0125
0.0125
0.0125
0.0125
0.0125
0.0125
SCALARS pressure double 1
LOOKUP_TABLE default
-2235.56
-5318.03
-2155.19
-377.146
5232.46
-411.552
-485.828
4808.02
-2717.6
6924.51
-2602.27
375.387
-3691.96
2361.55
-4841.02
452.132
-1867.53
1461.66
64.5885
99.8169
-1624.64
-3032.06
-139.341
-247.96
165.002
804.678
2585.83
-3566.57
481.519
903.036
-1450.79
-1309.15
2934.19
-14.7943
832.675
1494.93
4050.24
-799.108
1547.96
-2745.98
140.437
-2592.64
1234.79
3324.21
763.772
-2599.54
-288.565
1686.75
-1584.49
-816.482
1951.51
-787.268
-1919.25
1002.5
2241.62
1013.88
-1595.55
-2029.56
3246.94
3301.29
-59.2512
-1263.85
1377.54
-381.519
SCALARS density double 1
LOOKUP_TABLE default
977.018
946.194
977.835
996.085
1055.93
995.729
994.96
1051.27
972.133
1074.67
973.299
1003.91
962.331
1024.86
950.9
1004.71
980.765
1015.32
1000.67
1001.04
983.246
968.959
998.552
997.425
1001.72
1008.4
1027.26
963.587
1005.02
1009.44
985.025
986.477
1030.99
999.846
1008.7
1015.67
1043.02
991.724
1016.23
971.846
1001.46
973.397
1012.92
1035.18
1007.97
973.327
997.003
1017.7
983.656
991.545
1020.5
991.846
980.238
1010.48
1023.59
1010.6
983.543
979.114
1034.34
1034.93
999.384
986.942
1014.43
996.04
