# vtk DataFile Version 3.0
Frame: 36, Time: 0.612
ASCII
DATASET UNSTRUCTURED_GRID
POINTS 64 double
0.156644 0.50496 0 
0.164005 0.48151 0 
0.132947 0.498776 0 
0.140515 0.475265 0 
0.170572 0.456801 0 
0.177372 0.431741 0 
0.146457 0.45065 0 
0.152654 0.426045 0 
0.181466 0.407666 0 
0.188344 0.38333 0 
0.157862 0.401049 0 
0.165184 0.376073 0 
0.195695 0.35991 0 
0.202328 0.334056 0 
0.171692 0.352477 0 
0.179741 0.326834 0 
0.109098 0.493455 0 
0.115101 0.468601 0 
0.0847162 0.486992 0 
0.0913332 0.462533 0 
0.12145 0.444332 0 
0.127256 0.41933 0 
0.097036 0.437501 0 
0.10364 0.413302 0 
0.133242 0.39535 0 
0.140564 0.370628 0 
0.109092 0.38816 0 
0.116081 0.363806 0 
0.146462 0.346358 0 
0.152934 0.321343 0 
0.122515 0.338493 0 
0.129053 0.31565 0 
0.0601126 0.481006 0 
0.0667231 0.456326 0 
0.036023 0.474544 0 
0.0422033 0.44985 0 
0.0725309 0.431551 0 
0.0792533 0.40698 0 
0.048309 0.425971 0 
0.0548914 0.400887 0 
0.0856037 0.382951 0 
0.0918188 0.358396 0 
0.0616706 0.376427 0 
0.0675852 0.352143 0 
0.098332 0.333677 0 
0.105362 0.310162 0 
0.074065 0.326725 0 
0.0805923 0.303091 0 
0.0111497 0.46859 0 
0.0185154 0.444275 0 
0.987016 0.462323 0 
0.993883 0.437134 0 
0.0239115 0.419548 0 
0.0310608 0.394651 0 
0.998897 0.412517 0 
0.0071283 0.388291 0 
0.037344 0.370529 0 
0.0438334 0.34679 0 
0.0125392 0.364607 0 
0.018543 0.340556 0 
0.0496467 0.321555 0 
0.0565718 0.296928 0 
0.0239046 0.316243 0 
0.0306272 0.292086 0 
CELLS 64 128
1 0
1 1
1 2
1 3
1 4
1 5
1 6
1 7
1 8
1 9
1 10
1 11
1 12
1 13
1 14
1 15
1 16
1 17
1 18
1 19
1 20
1 21
1 22
1 23
1 24
1 25
1 26
1 27
1 28
1 29
1 30
1 31
1 32
1 33
1 34
1 35
1 36
1 37
1 38
1 39
1 40
1 41
1 42
1 43
1 44
1 45
1 46
1 47
1 48
1 49
1 50
1 51
1 52
1 53
1 54
1 55
1 56
1 57
1 58
1 59
1 60
1 61
1 62
1 63
CELL_TYPES 64
1
1
1
1
1
1
1
1
1
1
1
1
1
1
1
1
1
1
1
1
1
1
1
1
1
1
1
1
1
1
1
1
1
1
1
1
1
1
1
1
1
1
1
1
1
1
1
1
1
1
1
1
1
1
1
1
1
1
1
1
1
1
1
1
POINT_DATA 64
VECTORS displacement double
-0.0558559 0.29246 0 
-0.0484951 0.24401 0 
-0.104553 0.286276 0 
-0.0969852 0.237765 0 
-0.0419281 0.194301 0 
-0.035128 0.144241 0 
-0.0910425 0.18815 0 
-0.0848462 0.138545 0 
-0.0310344 0.0951663 0 
-0.0241564 0.0458302 0 
-0.0796382 0.0885486 0 
-0.0723163 0.0385731 0 
-0.0168049 -0.00258994 0 
-0.0101724 -0.0534444 0 
-0.0658082 -0.0100226 0 
-0.0577586 -0.0606655 0 
-0.153402 0.280955 0 
-0.147399 0.231101 0 
-0.202784 0.274492 0 
-0.196167 0.225033 0 
-0.14105 0.181832 0 
-0.135244 0.13183 0 
-0.190464 0.175001 0 
-0.18386 0.125802 0 
-0.129258 0.0828497 0 
-0.121936 0.0331278 0 
-0.178408 0.0756598 0 
-0.171419 0.0263057 0 
-0.116038 -0.0161423 0 
-0.109566 -0.0661572 0 
-0.164985 -0.0240069 0 
-0.158447 -0.0718499 0 
-0.252387 0.268506 0 
-0.245777 0.218826 0 
-0.301477 0.262044 0 
-0.295297 0.21235 0 
-0.239969 0.169051 0 
-0.233247 0.11948 0 
-0.289191 0.163471 0 
-0.282609 0.113387 0 
-0.226896 0.070451 0 
-0.220681 0.0208963 0 
-0.275829 0.0639272 0 
-0.269915 0.0146433 0 
-0.214168 -0.0288232 0 
-0.207138 -0.0773379 0 
-0.263435 -0.0357752 0 
-0.256908 -0.0844087 0 
-0.35135 0.25609 0 
-0.343985 0.206775 0 
-0.400484 0.249823 0 
-0.393617 0.199634 0 
-0.338588 0.157048 0 
-0.331439 0.107151 0 
-0.388603 0.150017 0 
-0.380372 0.100791 0 
-0.325156 0.0580288 0 
-0.318667 0.00929015 0 
-0.374961 0.0521067 0 
-0.368957 0.00305592 0 
-0.312853 -0.0409447 0 
-0.305928 -0.0905724 0 
-0.363595 -0.0462574 0 
-0.356873 -0.0954138 0 
VECTORS velocity double
-0.191701 -0.433048 0 
0.0992277 -0.434183 0 
-0.199602 -0.690329 0 
0.0873333 -0.643972 0 
-0.119265 0.0218236 0 
0.291836 -0.639104 0 
0.0501419 -0.707607 0 
0.180283 -0.585246 0 
0.381804 0.0653369 0 
0.4639 -0.30789 0 
0.576715 -0.399766 0 
0.603185 -0.489992 0 
0.338857 -0.151093 0 
0.808135 0.0757792 0 
0.4679 -0.369786 0 
0.954267 -0.518243 0 
-0.111461 -0.690608 0 
0.386998 -0.573673 0 
-0.382886 -0.757572 0 
0.136794 -0.775759 0 
0.0189464 -0.550871 0 
0.245166 -0.723791 0 
-0.0737958 -0.735673 0 
0.225556 -0.744708 0 
0.425006 -0.657081 0 
0.476185 -1.00965 0 
0.533962 -0.228227 0 
0.36461 -0.548734 0 
0.623458 -0.258483 0 
0.8902 -0.462174 0 
0.621658 -0.362623 0 
0.776462 -0.504942 0 
-0.0845562 -0.759996 0 
0.296738 -0.799385 0 
-0.170029 -1.2854 0 
0.154002 -0.884254 0 
0.236639 -0.98232 0 
0.401709 -1.13953 0 
0.00712698 -0.766377 0 
0.317002 -0.882651 0 
0.540484 -0.674548 0 
0.530435 -0.89946 0 
0.529144 -0.914036 0 
0.509509 -1.11029 0 
0.978061 -0.778517 0 
0.974936 -0.781024 0 
0.760186 -0.82828 0 
0.660435 -0.731713 0 
-0.213525 -0.873419 0 
0.327382 -0.970955 0 
-0.0978933 -1.37825 0 
0.310364 -1.18864 0 
0.0440852 -0.829199 0 
0.455159 -0.867852 0 
0.259186 -1.35152 0 
0.516106 -1.17415 0 
0.628352 -0.812824 0 
0.557869 -0.838182 0 
0.541285 -1.10643 0 
0.582038 -1.39455 0 
0.834329 -0.518723 0 
0.925731 -1.00366 0 
0.909099 -0.966461 0 
0.983805 -1.12207 0 
SCALARS mass double 1
LOOKUP_TABLE default
0.625
0.625
0.625
0.625
0.625
0.625
0.625
0.625
0.625
0.625
0.625
0.625
0.625
0.625
0.625
0.625
0.625
0.625
0.625
0.625
0.625
0.625
0.625
0.625
0.625
0.625
0.625
0.625
0.625
0.625
0.625
0.625
0.625
0.625
0.625
0.625
0.625
0.625
0.625
0.625
0.625
0.625
0.625
0.625
0.625
0.625
0.625
0.625
0.625
0.625
0.625
0.625
0.625
0.625
0.625
0.625
0.625
0.625
0.625
0.625
0.625
0.625
0.625
0.625
SCALARS volume double 1
LOOKUP_TABLE default
0.000624533
0.00062321
0.000614691
0.000614625
0.000628314
0.000618292
0.000646253
0.000605742
0.000623384
0.000605623
0.000643661
0.000615241
0.000624077
0.000626169
0.000636951
0.000638976
0.000635849
0.000607745
0.000625269
0.000635911
0.000644922
0.000636403
0.000627286
0.000613385
0.000627057
0.000615974
0.000618404
0.000644349
0.000618116
0.00062746
0.000630059
0.000617192
0.000623176
0.000633768
0.000626765
0.000616959
0.000604143
0.000634626
0.000633339
0.000615443
0.000631751
0.000616629
0.000637493
0.000618188
0.000627622
0.000641736
0.000638936
0.000603962
0.000626566
0.000617211
0.000622847
0.000626665
0.000634437
0.000615144
0.000627943
0.000627873
0.000626246
0.000623918
0.000620307
0.000618384
0.000620649
0.000629539
0.000628534
0.000627674
VECTORS momentum double
-0.119813 -0.270655 0 
0.0620173 -0.271365 0 
-0.124751 -0.431456 0 
0.0545833 -0.402482 0 
-0.0745404 0.0136398 0 
0.182397 -0.39944 0 
0.0313387 -0.442254 0 
0.112677 -0.365779 0 
0.238627 0.0408356 0 
0.289938 -0.192431 0 
0.360447 -0.249854 0 
0.37699 -0.306245 0 
0.211786 -0.0944333 0 
0.505084 0.047362 0 
0.292438 -0.231116 0 
0.596417 -0.323902 0 
-0.0696629 -0.43163 0 
0.241874 -0.358546 0 
-0.239304 -0.473483 0 
0.0854964 -0.484849 0 
0.0118415 -0.344294 0 
0.153229 -0.452369 0 
-0.0461224 -0.459796 0 
0.140972 -0.465442 0 
0.265629 -0.410676 0 
0.297616 -0.631033 0 
0.333726 -0.142642 0 
0.227882 -0.342959 0 
0.389661 -0.161552 0 
0.556375 -0.288858 0 
0.388536 -0.226639 0 
0.485289 -0.315589 0 
-0.0528477 -0.474997 0 
0.185461 -0.499616 0 
-0.106268 -0.803376 0 
0.096251 -0.552659 0 
0.147899 -0.61395 0 
0.251068 -0.712204 0 
0.00445436 -0.478985 0 
0.198126 -0.551657 0 
0.337803 -0.421593 0 
0.331522 -0.562163 0 
0.330715 -0.571273 0 
0.318443 -0.69393 0 
0.611288 -0.486573 0 
0.609335 -0.48814 0 
0.475116 -0.517675 0 
0.412772 -0.457321 0 
-0.133453 -0.545887 0 
0.204614 -0.606847 0 
-0.0611833 -0.861409 0 
0.193978 -0.742903 0 
0.0275532 -0.518249 0 
0.284475 -0.542407 0 
0.161991 -0.844703 0 
0.322566 -0.733843 0 
0.39272 -0.508015 0 
0.348668 -0.523864 0 
0.338303 -0.691517 0 
0.363774 -0.871596 0 
0.521456 -0.324202 0 
0.578582 -0.62729 0 
0.568187 -0.604038 0 
0.614878 -0.701292 0 
VECTORS body_force double
0 -9.81 0 
0 -9.81 0 
0 -9.81 0 
0 -9.81 0 
0 -9.81 0 
0 -9.81 0 
0 -9.81 0 
0 -9.81 0 
0 -9.81 0 
0 -9.81 0 
0 -9.81 0 
0 -9.81 0 
0 -9.81 0 
0 -9.81 0 
0 -9.81 0 
0 -9.81 0 
0 -9.81 0 
0 -9.81 0 
0 -9.81 0 
0 -9.81 0 
0 -9.81 0 
0 -9.81 0 
0 -9.81 0 
0 -9.81 0 
0 -9.81 0 
0 -9.81 0 
0 -9.81 0 
0 -9.81 0 
0 -9.81 0 
0 -9.81 0 
0 -9.81 0 
0 -9.81 0 
0 -9.81 0 
0 -9.81 0 
0 -9.81 0 
0 -9.81 0 
0 -9.81 0 
0 -9.81 0 
0 -9.81 0 
0 -9.81 0 
0 -9.81 0 
0 -9.81 0 
0 -9.81 0 
0 -9.81 0 
0 -9.81 0 
0 -9.81 0 
0 -9.81 0 
0 -9.81 0 
0 -9.81 0 
0 -9.81 0 
0 -9.81 0 
0 -9.81 0 
0 -9.81 0 
0 -9.81 0 
0 -9.81 0 
0 -9.81 0 
0 -9.81 0 
0 -9.81 0 
0 -9.81 0 
0 -9.81 0 
0 -9.81 0 
0 -9.81 0 
0 -9.81 0 
0 -9.81 0 
TENSORS cauchy_stress double
-247.828 129.418 0
129.418 103.939 0
0 0 0

86.7062 -326.673 0
-326.673 -638.164 0
0 0 0

-3316.02 -219.552 0
-219.552 117.562 0
0 0 0

1217.87 351.537 0
351.537 -4436.92 0
0 0 0

177.9 1306.07 0
1306.07 839.176 0
0 0 0

1592.97 920.518 0
920.518 -3668.03 0
0 0 0

839.873 1344.34 0
1344.34 5590.89 0
0 0 0

-1875.6 2110.49 0
2110.49 -4143.05 0
0 0 0

-566.739 -2181.13 0
-2181.13 68.8434 0
0 0 0

-4192.36 2983.45 0
2983.45 -1864.18 0
0 0 0

2344.86 -3510.15 0
-3510.15 3312.97 0
0 0 0

-2676.8 1235.99 0
1235.99 -349.608 0
0 0 0

-483.062 -322.034 0
-322.034 198.731 0
0 0 0

133.843 61.3275 0
61.3275 225.64 0
0 0 0

2688.79 -727.109 0
-727.109 953.739 0
0 0 0

1902.21 -320.092 0
-320.092 2350.79 0
0 0 0

2107.63 977.696 0
977.696 1201.88 0
0 0 0

-2974.93 -2242.9 0
-2242.9 -2408.84 0
0 0 0

-550.098 -929.454 0
-929.454 632.772 0
0 0 0

2381.27 -573.866 0
-573.866 946.943 0
0 0 0

3057.8 202.113 0
202.113 2976.35 0
0 0 0

1760.34 2568.61 0
2568.61 1716.67 0
0 0 0

558.411 930.739 0
930.739 143.642 0
0 0 0

-3419.51 -789.85 0
-789.85 -188.036 0
0 0 0

-1180.43 557.288 0
557.288 1812.39 0
0 0 0

-1151.41 -1025.6 0
-1025.6 -1646.09 0
0 0 0

-588.669 -2541.4 0
-2541.4 -1451.8 0
0 0 0

1849.36 -97.8487 0
-97.8487 4013.83 0
0 0 0

-1059.47 613.317 0
613.317 -1070.59 0
0 0 0

-158.579 454.811 0
454.811 914.155 0
0 0 0

547.899 -1346.05 0
-1346.05 1002.41 0
0 0 0

725.208 3320.63 0
3320.63 -3142.72 0
0 0 0

-1188.39 671.13 0
671.13 626.481 0
0 0 0

1282.37 -426.176 0
-426.176 1396.8 0
0 0 0

531.003 -167.282 0
-167.282 11.4594 0
0 0 0

-7.66348 -457.726 0
-457.726 -2482.66 0
0 0 0

-5405.39 322.102 0
322.102 -1121.61 0
0 0 0

3926.36 -1364.63 0
-1364.63 -987.179 0
0 0 0

874.552 319.731 0
319.731 1674.24 0
0 0 0

-2077.06 -994.604 0
-994.604 -886.373 0
0 0 0

-2028.58 1678.03 0
1678.03 4094.67 0
0 0 0

1274.9 -1261.15 0
-1261.15 -3868.01 0
0 0 0

975.863 -1180.14 0
-1180.14 2830.19 0
0 0 0

-1645.52 -352.785 0
-352.785 -461.947 0
0 0 0

-92.7826 9.64158 0
9.64158 897.722 0
0 0 0

1450.01 -789.539 0
-789.539 3631.83 0
0 0 0

375.944 -906.453 0
-906.453 3864.8 0
0 0 0

1691.45 2216.52 0
2216.52 -8276.07 0
0 0 0

185.743 540.834 0
540.834 295.644 0
0 0 0

-2862.28 -485.209 0
-485.209 450.749 0
0 0 0

-482.256 -12.7805 0
-12.7805 -181.437 0
0 0 0

867.449 -333.062 0
-333.062 -355.935 0
0 0 0

1945.29 791.113 0
791.113 936.835 0
0 0 0

-2037.44 -806.083 0
-806.083 -1019.41 0
0 0 0

571.914 -582.083 0
-582.083 331.467 0
0 0 0

631.987 -92.8086 0
-92.8086 250.008 0
0 0 0

644.118 -871.778 0
-871.778 -261.047 0
0 0 0

-189.306 1042.92 0
1042.92 -144.016 0
0 0 0

722.898 -1093.52 0
-1093.52 -2172.39 0
0 0 0

-818.41 -834.449 0
-834.449 -1227.98 0
0 0 0

-644.188 242.301 0
242.301 -699.386 0
0 0 0

-329.348 -734.125 0
-734.125 1720.77 0
0 0 0

986.012 -577.471 0
-577.471 98.31 0
0 0 0

343.269 787.691 0
787.691 477.771 0
0 0 0

TENSORS velocity_gradient double
0.183893 -2.51934 0
2.8004 -0.0155927 0
0 0 0

0.419242 -3.28043 0
3.56421 -0.475008 0
0 0 0

0.566797 -3.36349 0
3.57885 0.0398358 0
0 0 0

0.145868 -3.21831 0
3.71912 0.0291811 0
0 0 0

0.742066 -3.36497 0
4.30081 -0.667907 0
0 0 0

0.451915 -5.97088 0
4.96113 -0.662478 0
0 0 0

0.0922463 -4.48736 0
4.02409 -0.0506569 0
0 0 0

0.339529 -6.41789 0
4.70373 -0.106174 0
0 0 0

-0.0671512 -5.88585 0
5.56145 -0.760817 0
0 0 0

-0.143197 -3.74196 0
5.31472 -0.345241 0
0 0 0

-0.142136 -5.32555 0
5.59993 -0.550718 0
0 0 0

-0.101039 -3.60506 0
5.11992 -0.977802 0
0 0 0

0.23757 -3.80698 0
4.70654 -0.203614 0
0 0 0

0.970122 -4.40314 0
5.31076 -1.04713 0
0 0 0

0.0190993 -3.96004 0
4.5883 -0.586654 0
0 0 0

-0.0710603 -4.7638 0
5.29668 -0.321542 0
0 0 0

0.386215 -3.65079 0
3.55575 0.294189 0
0 0 0

0.062588 -3.54083 0
3.7796 0.263403 0
0 0 0

0.676635 -4.02665 0
4.20032 0.028793 0
0 0 0

0.203076 -3.9006 0
3.60055 0.188448 0
0 0 0

-0.0444108 -5.6584 0
3.91676 -0.126646 0
0 0 0

0.508614 -6.02634 0
3.77258 -0.127961 0
0 0 0

0.0570663 -5.40257 0
3.54307 -0.22228 0
0 0 0

0.553743 -5.50449 0
3.73885 -0.24491 0
0 0 0

0.779188 -4.42675 0
3.7845 -0.802555 0
0 0 0

0.058581 -3.8321 0
4.36371 -1.13168 0
0 0 0

0.615107 -4.82029 0
3.92644 -0.355233 0
0 0 0

-0.152963 -4.60392 0
4.52993 -0.525247 0
0 0 0

-0.394201 -4.54638 0
4.74966 0.223505 0
0 0 0

-0.106506 -4.86593 0
5.16171 0.623331 0
0 0 0

-0.418463 -4.43615 0
4.71519 0.37759 0
0 0 0

-0.021892 -4.54779 0
4.35465 0.479086 0
0 0 0

0.562775 -4.50275 0
4.05611 -0.574182 0
0 0 0

0.0846929 -4.37705 0
3.45062 -0.414979 0
0 0 0

0.41854 -4.78749 0
3.91887 -0.592285 0
0 0 0

0.252822 -4.88347 0
4.24387 -0.278307 0
0 0 0

0.096688 -5.17061 0
3.50666 0.0698707 0
0 0 0

0.306686 -5.22691 0
3.82961 -0.0167041 0
0 0 0

0.0722555 -5.03773 0
3.86585 0.277829 0
0 0 0

0.271871 -5.03345 0
3.86332 0.145048 0
0 0 0

0.392632 -5.07487 0
3.93957 -0.133979 0
0 0 0

0.422184 -5.08219 0
3.95148 -0.13693 0
0 0 0

0.400362 -5.04607 0
3.94269 -0.12237 0
0 0 0

0.400609 -4.93503 0
3.95031 -0.10154 0
0 0 0

0.0161092 -4.16199 0
4.14684 0.0548455 0
0 0 0

0.0332455 -4.16489 0
4.21674 0.116641 0
0 0 0

0.0622579 -4.49726 0
3.90968 -0.0218015 0
0 0 0

-0.317642 -3.87869 0
3.53455 1.96896 0
0 0 0

0.381422 -4.94523 0
4.01556 -0.181386 0
0 0 0

0.20913 -5.23636 0
4.25097 -0.104569 0
0 0 0

0.149408 -4.84418 0
4.77236 -0.123272 0
0 0 0

0.315857 -5.4672 0
4.8996 -0.194745 0
0 0 0

-0.0264577 -5.23343 0
3.93017 -0.00349047 0
0 0 0

-0.171307 -4.91713 0
3.79396 0.337304 0
0 0 0

0.142236 -5.44143 0
4.81702 -0.214865 0
0 0 0

-0.136401 -4.67527 0
3.91789 0.997083 0
0 0 0

0.0111567 -4.924 0
4.3779 0.221675 0
0 0 0

0.106962 -4.98329 0
4.74442 -0.176314 0
0 0 0

0.0591024 -4.71902 0
4.52738 0.860697 0
0 0 0

0.0602056 -5.37354 0
4.66438 -1.08938 0
0 0 0

-0.145585 -4.8963 0
3.99163 -0.181225 0
0 0 0

-0.406561 -2.82398 0
2.70415 2.55169 0
0 0 0

-0.312257 -5.29354 0
3.89083 -0.923228 0
0 0 0

-0.931497 -2.946 0
2.93576 0.975663 0
0 0 0

SCALARS active double 1
LOOKUP_TABLE default
1
1
1
1
1
1
1
1
1
1
1
1
1
1
1
1
1
1
1
1
1
1
1
1
1
1
1
1
1
1
1
1
1
1
1
1
1
1
1
1
1
1
1
1
1
1
1
1
1
1
1
1
1
1
1
1
1
1
1
1
1
1
1
1
SCALARS extent double 1
LOOKUP_TABLE default
0.0125
0.0125
0.0125
0.0125
0.0125
0.0125
0.0125
0.0125
0.0125
0.0125
0.0125
0.0125
0.0125
0.0125
0.0125
0.0125
0.0125
0.0125
0.0125
0.0125
0.0125
0.0125
0.0125
0.0125
0.0125
0.0125
0.0125
0.0125
0.0125
0.0125
0.0125
0.0125
0.0125
0.0125
0.0125
0.0125
0.0125
0.0125
0.0125
0.0125
0.0125
0.0125
0.0125
0.0125
0.0125
0.0125
0.0125
0.0125
0.0125
0.0125
0.0125
0.0125
0.0125
0.0125
0.0125
0.0125
0.0125
0.0125
0.0125
0.0125
0.0125
0.0125
0.0125
0.0125
SCALARS pressure double 1
LOOKUP_TABLE default
71.9445
275.729
1599.23
1609.52
-508.538
1037.53
-3215.38
3009.33
248.948
3028.27
-2828.92
1513.2
142.166
-179.741
-1821.26
-2126.5
-1654.75
2691.88
-41.3372
-1664.11
-3017.08
-1738.5
-351.026
1803.77
-315.981
1398.75
1020.24
-2931.6
1065.03
-377.788
-775.155
1208.76
280.952
-1339.59
-271.231
1245.16
3263.5
-1469.59
-1274.4
1481.72
-1033.05
1296.56
-1903.03
1053.73
-402.47
-2540.92
-2120.37
3292.31
-240.693
1205.76
331.846
-255.757
-1441.06
1528.43
-451.691
-440.997
-191.536
166.661
724.747
1023.19
671.787
-695.709
-542.161
-410.52
SCALARS density double 1
LOOKUP_TABLE default
1000.75
1002.87
1016.77
1016.88
994.725
1010.85
967.113
1031.79
1002.59
1032
971.008
1015.86
1001.48
998.132
981.237
978.127
982.938
1028.39
999.57
982.842
969.11
982.082
996.356
1018.94
996.719
1014.65
1010.67
969.971
1011.14
996.079
991.971
1012.65
1002.93
986.165
997.183
1013.03
1034.52
984.832
986.834
1015.53
989.314
1013.58
980.403
1011.02
995.823
973.92
978.189
1034.83
997.5
1012.62
1003.46
997.344
985.125
1016.02
995.313
995.424
998.01
1001.73
1007.57
1010.7
1007.01
992.791
994.377
995.74
