# vtk DataFile Version 3.0
Frame: 47, Time: 0.799
ASCII
DATASET UNSTRUCTURED_GRID
POINTS 64 double
0.493589 0.21695 0 
0.490387 0.193273 0 
0.465586 0.21962 0 
0.46397 0.194817 0 
0.487697 0.167941 0 
0.489534 0.144479 0 
0.461645 0.169075 0 
0.461391 0.144353 0 
0.487695 0.119513 0 
0.490108 0.0939594 0 
0.461547 0.11962 0 
0.463195 0.0946785 0 
0.4914 0.0697461 0 
0.491186 0.0426783 0 
0.464415 0.0703847 0 
0.464636 0.0458371 0 
0.437603 0.219252 0 
0.438227 0.193784 0 
0.413929 0.224351 0 
0.412825 0.197916 0 
0.43774 0.169573 0 
0.436383 0.144284 0 
0.413473 0.171508 0 
0.412509 0.144515 0 
0.435412 0.117852 0 
0.438499 0.0934513 0 
0.41071 0.118882 0 
0.41289 0.0924398 0 
0.440051 0.0694561 0 
0.439383 0.044207 0 
0.41417 0.0672078 0 
0.413618 0.0435137 0 
0.388372 0.224467 0 
0.388265 0.197648 0 
0.361191 0.226093 0 
0.362596 0.198112 0 
0.388524 0.172331 0 
0.388403 0.145441 0 
0.364605 0.172247 0 
0.36488 0.145376 0 
0.387605 0.11788 0 
0.388459 0.0915397 0 
0.365339 0.118353 0 
0.364871 0.091712 0 
0.387418 0.0665398 0 
0.385055 0.0422241 0 
0.361956 0.0668092 0 
0.357417 0.042962 0 
0.336921 0.225753 0 
0.338054 0.197848 0 
0.310275 0.22347 0 
0.312048 0.196794 0 
0.339778 0.172956 0 
0.341091 0.147137 0 
0.314716 0.173028 0 
0.319302 0.14666 0 
0.34144 0.120364 0 
0.34076 0.0933733 0 
0.319941 0.120748 0 
0.31634 0.0962364 0 
0.336746 0.0685801 0 
0.331969 0.0436068 0 
0.310091 0.070661 0 
0.305471 0.0476725 0 
CELLS 64 128
1 0
1 1
1 2
1 3
1 4
1 5
1 6
1 7
1 8
1 9
1 10
1 11
1 12
1 13
1 14
1 15
1 16
1 17
1 18
1 19
1 20
1 21
1 22
1 23
1 24
1 25
1 26
1 27
1 28
1 29
1 30
1 31
1 32
1 33
1 34
1 35
1 36
1 37
1 38
1 39
1 40
1 41
1 42
1 43
1 44
1 45
1 46
1 47
1 48
1 49
1 50
1 51
1 52
1 53
1 54
1 55
1 56
1 57
1 58
1 59
1 60
1 61
1 62
1 63
CELL_TYPES 64
1
1
1
1
1
1
1
1
1
1
1
1
1
1
1
1
1
1
1
1
1
1
1
1
1
1
1
1
1
1
1
1
1
1
1
1
1
1
1
1
1
1
1
1
1
1
1
1
1
1
1
1
1
1
1
1
1
1
1
1
1
1
1
1
POINT_DATA 64
VECTORS displacement double
-0.118911 -0.0955501 0 
-0.122113 -0.144227 0 
-0.171914 -0.0928796 0 
-0.17353 -0.142683 0 
-0.124803 -0.194559 0 
-0.122966 -0.243021 0 
-0.175855 -0.193425 0 
-0.176109 -0.243147 0 
-0.124805 -0.292987 0 
-0.122392 -0.343541 0 
-0.175953 -0.29288 0 
-0.174305 -0.342822 0 
-0.1211 -0.392754 0 
-0.121314 -0.444822 0 
-0.173085 -0.392115 0 
-0.172864 -0.441663 0 
-0.224897 -0.093248 0 
-0.224273 -0.143716 0 
-0.273571 -0.0881492 0 
-0.274675 -0.139584 0 
-0.22476 -0.192927 0 
-0.226117 -0.243216 0 
-0.274027 -0.190992 0 
-0.274991 -0.242985 0 
-0.227088 -0.294648 0 
-0.224001 -0.344049 0 
-0.27679 -0.293618 0 
-0.27461 -0.34506 0 
-0.222449 -0.393044 0 
-0.223117 -0.443293 0 
-0.27333 -0.395292 0 
-0.273882 -0.443986 0 
-0.324128 -0.088033 0 
-0.324235 -0.139852 0 
-0.376309 -0.0864068 0 
-0.374904 -0.139388 0 
-0.323976 -0.190169 0 
-0.324097 -0.242059 0 
-0.372895 -0.190253 0 
-0.37262 -0.242124 0 
-0.324895 -0.29462 0 
-0.324041 -0.34596 0 
-0.372161 -0.294147 0 
-0.372629 -0.345788 0 
-0.325082 -0.39596 0 
-0.327445 -0.445276 0 
-0.375544 -0.395691 0 
-0.380083 -0.444538 0 
-0.425579 -0.0867474 0 
-0.424446 -0.139652 0 
-0.477225 -0.0890305 0 
-0.475452 -0.140706 0 
-0.422722 -0.189544 0 
-0.421409 -0.240363 0 
-0.472784 -0.189472 0 
-0.468198 -0.24084 0 
-0.42106 -0.292136 0 
-0.42174 -0.344127 0 
-0.467559 -0.291752 0 
-0.47116 -0.341264 0 
-0.425754 -0.39392 0 
-0.430531 -0.443893 0 
-0.477409 -0.391839 0 
-0.482029 -0.439827 0 
VECTORS velocity double
-1.34879 0.822663 0 
-1.11575 0.844908 0 
-1.46086 0.447691 0 
-1.14914 0.435748 0 
-1.28644 0.554491 0 
-0.595801 1.00307 0 
-1.12875 0.0270007 0 
-1.12983 0.129716 0 
-0.856542 0.509302 0 
-0.126938 0.669998 0 
-0.705968 0.314281 0 
-0.259682 0.209631 0 
-0.29605 0.635469 0 
0.227928 0.0715555 0 
-0.105142 0.2519 0 
0.134085 0.0517482 0 
-1.55158 -0.120222 0 
-0.943815 0.0863332 0 
-1.41542 0.318641 0 
-1.31123 0.0683531 0 
-0.531644 0.218776 0 
-0.583333 0.132367 0 
-1.07834 -0.128335 0 
-0.999981 0.0342124 0 
-0.669646 0.460505 0 
-0.028432 -0.0235792 0 
-1.02015 0.323367 0 
-0.498738 -0.274659 0 
0.259096 -0.0679378 0 
0.34144 0.00736787 0 
-0.0516778 -0.0817176 0 
0.335357 -0.00394392 0 
-1.45352 -0.855997 0 
-0.864561 -0.228883 0 
-1.99908 -0.327855 0 
-1.04777 -0.676946 0 
-1.01803 -0.542188 0 
-0.423984 -0.590557 0 
-1.1777 -0.0714388 0 
-0.660561 -0.240095 0 
-0.33559 -0.133041 0 
-0.00224823 -0.680888 0 
-0.324302 -0.159013 0 
-0.284176 -0.554093 0 
0.0144448 0.00634978 0 
0.50295 0.20175 0 
-0.631566 -0.191881 0 
-0.335722 0.429371 0 
-1.66826 -0.810453 0 
-1.18891 -0.876569 0 
-1.71517 -1.24845 0 
-1.57422 -1.40642 0 
-0.78561 -0.291885 0 
-0.499441 -0.586877 0 
-1.16992 -0.807418 0 
-0.610371 -1.06281 0 
-0.63172 -0.641232 0 
-0.314326 -0.599383 0 
0.147731 -0.569235 0 
-0.0989327 -0.316495 0 
0.0161047 -0.43153 0 
-0.0129855 -0.425657 0 
-1.23782 -0.100161 0 
-0.200916 -0.393696 0 
SCALARS mass double 1
LOOKUP_TABLE default
0.625
0.625
0.625
0.625
0.625
0.625
0.625
0.625
0.625
0.625
0.625
0.625
0.625
0.625
0.625
0.625
0.625
0.625
0.625
0.625
0.625
0.625
0.625
0.625
0.625
0.625
0.625
0.625
0.625
0.625
0.625
0.625
0.625
0.625
0.625
0.625
0.625
0.625
0.625
0.625
0.625
0.625
0.625
0.625
0.625
0.625
0.625
0.625
0.625
0.625
0.625
0.625
0.625
0.625
0.625
0.625
0.625
0.625
0.625
0.625
0.625
0.625
0.625
0.625
SCALARS volume double 1
LOOKUP_TABLE default
0.00062257
0.000608781
0.000627952
0.000605216
0.000617746
0.000600274
0.000601454
0.000593628
0.000609525
0.000619507
0.000613092
0.000595502
0.000642665
0.00058091
0.000632418
0.000575781
0.000612276
0.000640978
0.000623952
0.000621909
0.000550744
0.00061218
0.000634373
0.000600378
0.000615558
0.000603134
0.00062215
0.000617448
0.00058901
0.000555322
0.000618345
0.00059533
0.000609151
0.000615967
0.000624808
0.000637248
0.000640083
0.000585369
0.000598983
0.000593728
0.000610826
0.000570064
0.000607689
0.000575563
0.000615189
0.000595759
0.000598454
0.000573664
0.000615051
0.000619781
0.000635628
0.000620808
0.00062283
0.000603054
0.000589666
0.000530782
0.000605917
0.000603846
0.000483416
0.00053023
0.000601186
0.000548832
0.000628329
0.000594259
VECTORS momentum double
-0.842995 0.514165 0 
-0.697341 0.528067 0 
-0.913035 0.279807 0 
-0.718215 0.272342 0 
-0.804027 0.346557 0 
-0.372375 0.626916 0 
-0.705468 0.0168754 0 
-0.706142 0.0810722 0 
-0.535339 0.318314 0 
-0.079336 0.418749 0 
-0.44123 0.196426 0 
-0.162302 0.131019 0 
-0.185031 0.397168 0 
0.142455 0.0447222 0 
-0.0657139 0.157437 0 
0.083803 0.0323427 0 
-0.969737 -0.0751389 0 
-0.589884 0.0539582 0 
-0.884637 0.199151 0 
-0.819516 0.0427207 0 
-0.332277 0.136735 0 
-0.364583 0.0827292 0 
-0.673964 -0.0802093 0 
-0.624988 0.0213827 0 
-0.418528 0.287816 0 
-0.01777 -0.014737 0 
-0.637595 0.202104 0 
-0.311711 -0.171662 0 
0.161935 -0.0424611 0 
0.2134 0.00460492 0 
-0.0322987 -0.0510735 0 
0.209598 -0.00246495 0 
-0.908448 -0.534998 0 
-0.540351 -0.143052 0 
-1.24942 -0.204909 0 
-0.654854 -0.423091 0 
-0.636268 -0.338868 0 
-0.26499 -0.369098 0 
-0.73606 -0.0446492 0 
-0.412851 -0.150059 0 
-0.209744 -0.0831508 0 
-0.00140514 -0.425555 0 
-0.202688 -0.0993832 0 
-0.17761 -0.346308 0 
0.00902802 0.00396861 0 
0.314344 0.126094 0 
-0.394729 -0.119926 0 
-0.209826 0.268357 0 
-1.04266 -0.506533 0 
-0.743067 -0.547856 0 
-1.07198 -0.780278 0 
-0.983887 -0.879013 0 
-0.491006 -0.182428 0 
-0.312151 -0.366798 0 
-0.731201 -0.504636 0 
-0.381482 -0.664254 0 
-0.394825 -0.40077 0 
-0.196454 -0.374614 0 
0.0923319 -0.355772 0 
-0.0618329 -0.197809 0 
0.0100654 -0.269706 0 
-0.00811595 -0.266036 0 
-0.773636 -0.0626007 0 
-0.125572 -0.24606 0 
VECTORS body_force double
0 -9.81 0 
0 -9.81 0 
0 -9.81 0 
0 -9.81 0 
0 -9.81 0 
0 -9.81 0 
0 -9.81 0 
0 -9.81 0 
0 -9.81 0 
0 -9.81 0 
0 -9.81 0 
0 -9.81 0 
0 -9.81 0 
0 -9.81 0 
0 -9.81 0 
0 -9.81 0 
0 -9.81 0 
0 -9.81 0 
0 -9.81 0 
0 -9.81 0 
0 -9.81 0 
0 -9.81 0 
0 -9.81 0 
0 -9.81 0 
0 -9.81 0 
0 -9.81 0 
0 -9.81 0 
0 -9.81 0 
0 -9.81 0 
0 -9.81 0 
0 -9.81 0 
0 -9.81 0 
0 -9.81 0 
0 -9.81 0 
0 -9.81 0 
0 -9.81 0 
0 -9.81 0 
0 -9.81 0 
0 -9.81 0 
0 -9.81 0 
0 -9.81 0 
0 -9.81 0 
0 -9.81 0 
0 -9.81 0 
0 -9.81 0 
0 -9.81 0 
0 -9.81 0 
0 -9.81 0 
0 -9.81 0 
0 -9.81 0 
0 -9.81 0 
0 -9.81 0 
0 -9.81 0 
0 -9.81 0 
0 -9.81 0 
0 -9.81 0 
0 -9.81 0 
0 -9.81 0 
0 -9.81 0 
0 -9.81 0 
0 -9.81 0 
0 -9.81 0 
0 -9.81 0 
0 -9.81 0 
TENSORS cauchy_stress double
131.228 561.683 0
561.683 -880.372 0
0 0 0

-2605.54 -1431.41 0
-1431.41 -2450.8 0
0 0 0

1027.73 -369.01 0
-369.01 -121.578 0
0 0 0

-1893.94 -1630.86 0
-1630.86 -4291.93 0
0 0 0

-1676.37 678.984 0
678.984 -568.788 0
0 0 0

-241.388 -355.216 0
-355.216 -7521.34 0
0 0 0

-2841.62 3419.84 0
3419.84 -4543.24 0
0 0 0

-1292.79 -616.202 0
-616.202 -8610.85 0
0 0 0

-3065.85 -1138.07 0
-1138.07 -1755.47 0
0 0 0

2900.1 -3442.11 0
-3442.11 -4597.59 0
0 0 0

1631.48 2048.76 0
2048.76 -5330.77 0
0 0 0

-2613.34 -3527.92 0
-3527.92 -6684.14 0
0 0 0

2922.35 -2912.65 0
-2912.65 2437.67 0
0 0 0

-12866.6 -4527.23 0
-4527.23 -1201.89 0
0 0 0

4266.23 3150.71 0
3150.71 -1997.22 0
0 0 0

3246.17 3054.45 0
3054.45 -19020.2 0
0 0 0

-1260.21 3165.51 0
3165.51 -2695.37 0
0 0 0

-1016.04 1916.68 0
1916.68 5870.62 0
0 0 0

-1515.05 -466.461 0
-466.461 1192.23 0
0 0 0

-540.117 -2244.05 0
-2244.05 -413.45 0
0 0 0

-9389.04 2331.11 0
2331.11 -14934.2 0
0 0 0

-2789.64 1228.7 0
1228.7 -1196.02 0
0 0 0

-2438.77 -1553.69 0
-1553.69 5301.41 0
0 0 0

-5855.29 662.78 0
662.78 -1874.08 0
0 0 0

-1753.52 1431.39 0
1431.39 -1173.9 0
0 0 0

-514.598 -2907.43 0
-2907.43 -6333.97 0
0 0 0

-2923.67 -3075.59 0
-3075.59 2044.79 0
0 0 0

-2721.08 -1016.51 0
-1016.51 383.366 0
0 0 0

-3580.81 3585.4 0
3585.4 -7824.63 0
0 0 0

-7245.56 4703.02 0
4703.02 -15485.8 0
0 0 0

904.306 -18.7962 0
-18.7962 -2962.85 0
0 0 0

1619.74 128.289 0
128.289 -10972.8 0
0 0 0

-4416.54 3621.09 0
3621.09 -522.851 0
0 0 0

-1868.92 297.293 0
297.293 -930.747 0
0 0 0

-565.537 -1488.58 0
-1488.58 506.597 0
0 0 0

398.552 -3430.77 0
-3430.77 3333.52 0
0 0 0

789.433 -66.5809 0
-66.5809 3796.26 0
0 0 0

-9635.85 3310.98 0
3310.98 -2962.19 0
0 0 0

-5753.67 -2197.07 0
-2197.07 -2423.1 0
0 0 0

-9537.14 -3162.6 0
-3162.6 -334.059 0
0 0 0

-8564.77 -2220.81 0
-2220.81 4153.37 0
0 0 0

-8499.95 5169.53 0
5169.53 -9192.89 0
0 0 0

-7424.3 -1605.42 0
-1605.42 2022.66 0
0 0 0

-9938.14 -1186.96 0
-1186.96 -5908.61 0
0 0 0

458.512 4238.92 0
4238.92 -3501.3 0
0 0 0

3471.58 851.48 0
851.48 -12686 0
0 0 0

-1880.11 4572.38 0
4572.38 -6466.57 0
0 0 0

60.3639 4076.16 0
4076.16 -16542.6 0
0 0 0

-1400.96 1367.09 0
1367.09 -1684.89 0
0 0 0

-2037.21 -1986.84 0
-1986.84 424.661 0
0 0 0

1462.07 1614.59 0
1614.59 1780.58 0
0 0 0

885.772 -1602.69 0
-1602.69 -2179.96 0
0 0 0

2046.96 -365.757 0
-365.757 -2715.81 0
0 0 0

-7966.79 -3548.75 0
-3548.75 1092.71 0
0 0 0

-5404.26 -5991.47 0
-5991.47 -5787.02 0
0 0 0

-23892.7 -7126.27 0
-7126.27 -7530.43 0
0 0 0

-10505.3 2396.61 0
2396.61 4541.98 0
0 0 0

-2798.59 2502.21 0
2502.21 -3823.08 0
0 0 0

-33232.1 2259.24 0
2259.24 -16166.6 0
0 0 0

-20605.1 5642.9 0
5642.9 -11018.2 0
0 0 0

-1910.32 5635.24 0
5635.24 -5560.45 0
0 0 0

-7015.91 2476.88 0
2476.88 -17976.1 0
0 0 0

3812.56 1676.69 0
1676.69 -2790.83 0
0 0 0

3618.8 -1429.62 0
-1429.62 -13318.1 0
0 0 0

TENSORS velocity_gradient double
-0.275055 -4.24691 0
8.57446 0.391476 0
0 0 0

-0.825129 -5.96845 0
9.01541 1.01021 0
0 0 0

0.013934 -5.29591 0
9.42876 -0.028444 0
0 0 0

-0.786805 -6.37658 0
9.04567 0.513298 0
0 0 0

-1.27355 -6.0189 0
8.57244 0.960371 0
0 0 0

-1.59093 -10.2282 0
8.0441 1.6855 0
0 0 0

-1.24949 -6.48141 0
8.59621 0.503483 0
0 0 0

-1.58995 -10.253 0
8.04681 0.660387 0
0 0 0

-1.63553 -10.2978 0
7.13391 1.6195 0
0 0 0

-1.75887 -8.4957 0
6.29435 4.23731 0
0 0 0

-1.63503 -10.3431 0
7.14468 0.660688 0
0 0 0

-1.75053 -8.94948 0
6.3187 3.48866 0
0 0 0

-2.0956 -8.48049 0
5.76282 4.26133 0
0 0 0

-2.00972 0.436441 0
4.5307 5.11528 0
0 0 0

-2.08455 -8.85795 0
5.78026 3.66549 0
0 0 0

-2.10379 0.022587 0
4.79579 2.49738 0
0 0 0

-0.0724247 -6.06415 0
9.55087 -0.528449 0
0 0 0

-0.454313 -6.92406 0
8.8978 -0.0901589 0
0 0 0

-0.00238066 -6.37482 0
9.67089 -1.06077 0
0 0 0

-0.380462 -7.08604 0
9.02389 -1.01654 0
0 0 0

-0.951744 -6.93754 0
8.0504 -0.113125 0
0 0 0

-1.1377 -9.82102 0
7.36233 0.174656 0
0 0 0

-0.907929 -7.43633 0
8.12505 -0.962834 0
0 0 0

-1.14057 -8.98383 0
7.36995 0.0538012 0
0 0 0

-0.233886 -9.87641 0
7.29135 0.18343 0
0 0 0

0.362843 -9.09107 0
6.46796 2.0303 0
0 0 0

-0.275804 -9.02079 0
7.29429 0.123405 0
0 0 0

0.360539 -9.16078 0
6.36873 -0.970938 0
0 0 0

0.297645 -9.08744 0
3.66079 2.1866 0
0 0 0

0.215919 1.93236 0
1.24629 0.483344 0
0 0 0

0.291777 -9.15793 0
3.40817 -0.848058 0
0 0 0

0.213156 2.20631 0
1.20835 -0.290102 0
0 0 0

3.51473 -7.30272 0
8.28552 -1.40899 0
0 0 0

1.49467 -8.28824 0
8.14913 -1.66174 0
0 0 0

3.64612 -9.22211 0
8.28635 -1.4211 0
0 0 0

1.55186 -10.4629 0
8.15954 -2.12113 0
0 0 0

-0.953305 -8.77352 0
7.44002 -1.78878 0
0 0 0

-2.78643 -8.127 0
6.6883 -0.356694 0
0 0 0

-0.944047 -11.1398 0
7.44287 -2.51774 0
0 0 0

-2.7845 -7.36581 0
6.69055 -0.83259 0
0 0 0

-1.34528 -7.94442 0
6.19208 -0.112853 0
0 0 0

0.699058 -7.83666 0
5.13069 -3.52695 0
0 0 0

-1.38062 -6.65713 0
6.20282 -0.504235 0
0 0 0

0.663421 -4.98893 0
5.15723 -5.64716 0
0 0 0

3.72983 -7.68762 0
2.87421 -3.63792 0
0 0 0

4.8539 0.421924 0
1.1636 -1.07737 0
0 0 0

3.68822 -4.62298 0
2.90519 -5.91962 0
0 0 0

4.94248 -2.73629 0
1.18484 -1.83448 0
0 0 0

1.11912 -9.22481 0
8.95597 -1.24488 0
0 0 0

2.85937 -11.5946 0
9.09031 -2.74176 0
0 0 0

1.278 -7.15716 0
8.98822 -0.825115 0
0 0 0

2.87705 -11.8045 0
9.07047 -3.89908 0
0 0 0

2.26663 -12.9956 0
7.68136 -3.58532 0
0 0 0

1.45095 -8.10256 0
5.61158 -2.54725 0
0 0 0

2.2758 -13.8596 0
7.69838 -5.18786 0
0 0 0

1.44193 -8.36269 0
5.57163 -5.38481 0
0 0 0

0.98665 -5.87342 0
1.51878 -2.07295 0
0 0 0

1.14442 -2.46225 0
-1.00238 -5.85965 0
0 0 0

0.99333 -6.21573 0
1.58563 -5.49841 0
0 0 0

1.05519 -1.8598 0
-0.958259 -3.50458 0
0 0 0

3.10096 -2.13677 0
2.19943 -5.34406 0
0 0 0

4.00813 -5.22736 0
4.04388 -3.68904 0
0 0 0

2.93265 -0.0501925 0
1.92385 -1.9278 0
0 0 0

3.43986 -4.91567 0
3.93819 -4.46888 0
0 0 0

SCALARS active double 1
LOOKUP_TABLE default
1
1
1
1
1
1
1
1
1
1
1
1
1
1
1
1
1
1
1
1
1
1
1
1
1
1
1
1
1
1
1
1
1
1
1
1
1
1
1
1
1
1
1
1
1
1
1
1
1
1
1
1
1
1
1
1
1
1
1
1
1
1
1
1
SCALARS extent double 1
LOOKUP_TABLE default
0.0125
0.0125
0.0125
0.0125
0.0125
0.0125
0.0125
0.0125
0.0125
0.0125
0.0125
0.0125
0.0125
0.0125
0.0125
0.0125
0.0125
0.0125
0.0125
0.0125
0.0125
0.0125
0.0125
0.0125
0.0125
0.0125
0.0125
0.0125
0.0125
0.0125
0.0125
0.0125
0.0125
0.0125
0.0125
0.0125
0.0125
0.0125
0.0125
0.0125
0.0125
0.0125
0.0125
0.0125
0.0125
0.0125
0.0125
0.0125
0.0125
0.0125
0.0125
0.0125
0.0125
0.0125
0.0125
0.0125
0.0125
0.0125
0.0125
0.0125
0.0125
0.0125
0.0125
0.0125
SCALARS pressure double 1
LOOKUP_TABLE default
374.572
2528.17
-453.078
3092.94
1122.58
3881.36
3692.43
4951.82
2410.66
848.74
1849.64
4648.74
-2680.01
7034.25
-1134.51
7887
1977.79
-2427.29
161.413
476.783
12161.6
1992.83
-1431.32
3864.68
1463.71
3424.28
439.439
1168.86
5702.72
11365.7
1029.27
4676.53
2469.69
1399.83
29.47
-1866.04
-2292.85
6299.02
4088.39
4935.6
2205.7
8846.42
2700.82
7923.38
1521.4
4607.22
4173.34
8241.13
1542.92
806.273
-1621.32
647.096
334.425
3437.04
5595.64
15711.6
2981.65
3310.84
24699.3
15811.6
3735.38
12496
-510.867
4849.66
SCALARS density double 1
LOOKUP_TABLE default
1003.9
1026.64
995.299
1032.69
1011.74
1041.19
1039.15
1052.85
1025.39
1008.87
1019.42
1049.53
972.513
1075.9
988.27
1085.48
1020.78
975.072
1001.68
1004.97
1134.83
1020.94
985.224
1041.01
1015.34
1036.25
1004.58
1012.23
1061.1
1125.47
1010.76
1049.84
1026.02
1014.66
1000.31
980.78
976.436
1067.7
1043.44
1052.67
1023.2
1096.37
1028.49
1085.89
1015.95
1049.08
1044.36
1089.49
1016.18
1008.42
983.28
1006.75
1003.48
1036.39
1059.92
1177.51
1031.49
1035.03
1292.88
1178.73
1039.61
1138.78
994.701
1051.73
