# vtk DataFile Version 3.0
Frame: 11, Time: 0.187
ASCII
DATASET UNSTRUCTURED_GRID
POINTS 64 double
0.742276 0.210909 0 
0.719887 0.222031 0 
0.754046 0.233511 0 
0.732669 0.244161 0 
0.697569 0.236124 0 
0.676433 0.247125 0 
0.710507 0.258577 0 
0.687947 0.26966 0 
0.653242 0.258247 0 
0.630781 0.270678 0 
0.66505 0.280598 0 
0.643166 0.293087 0 
0.608117 0.281421 0 
0.585805 0.294269 0 
0.619838 0.303829 0 
0.597445 0.315963 0 
0.767063 0.255533 0 
0.74498 0.266143 0 
0.779468 0.277006 0 
0.757707 0.288331 0 
0.723507 0.279433 0 
0.699956 0.290856 0 
0.735403 0.300812 0 
0.7118 0.312526 0 
0.676431 0.302891 0 
0.654972 0.314847 0 
0.689321 0.324732 0 
0.665968 0.336964 0 
0.631509 0.325198 0 
0.60893 0.337352 0 
0.642356 0.347581 0 
0.619757 0.359053 0 
0.790705 0.301106 0 
0.767816 0.311827 0 
0.801337 0.323737 0 
0.778529 0.334298 0 
0.745247 0.323211 0 
0.72242 0.334654 0 
0.756018 0.34543 0 
0.733181 0.356644 0 
0.699531 0.346772 0 
0.676708 0.358331 0 
0.710176 0.368214 0 
0.687423 0.380142 0 
0.653576 0.369581 0 
0.630299 0.381178 0 
0.664657 0.391254 0 
0.641895 0.402626 0 
0.813173 0.345978 0 
0.789966 0.356753 0 
0.824519 0.367944 0 
0.800785 0.379258 0 
0.7672 0.367678 0 
0.744726 0.378824 0 
0.777645 0.390263 0 
0.754934 0.401229 0 
0.721784 0.390275 0 
0.698663 0.40233 0 
0.732047 0.412529 0 
0.709907 0.424344 0 
0.675506 0.413426 0 
0.652935 0.425009 0 
0.686957 0.435506 0 
0.664546 0.447241 0 
CELLS 64 128
1 0
1 1
1 2
1 3
1 4
1 5
1 6
1 7
1 8
1 9
1 10
1 11
1 12
1 13
1 14
1 15
1 16
1 17
1 18
1 19
1 20
1 21
1 22
1 23
1 24
1 25
1 26
1 27
1 28
1 29
1 30
1 31
1 32
1 33
1 34
1 35
1 36
1 37
1 38
1 39
1 40
1 41
1 42
1 43
1 44
1 45
1 46
1 47
1 48
1 49
1 50
1 51
1 52
1 53
1 54
1 55
1 56
1 57
1 58
1 59
1 60
1 61
1 62
1 63
CELL_TYPES 64
1
1
1
1
1
1
1
1
1
1
1
1
1
1
1
1
1
1
1
1
1
1
1
1
1
1
1
1
1
1
1
1
1
1
1
1
1
1
1
1
1
1
1
1
1
1
1
1
1
1
1
1
1
1
1
1
1
1
1
1
1
1
1
1
POINT_DATA 64
VECTORS displacement double
0.129776 -0.101591 0 
0.107387 -0.115469 0 
0.116546 -0.0789891 0 
0.0951685 -0.0933389 0 
0.0850692 -0.126376 0 
0.0639328 -0.140375 0 
0.0730071 -0.103923 0 
0.0504469 -0.11784 0 
0.0407423 -0.154253 0 
0.0182812 -0.166822 0 
0.0275496 -0.131902 0 
0.00566608 -0.144413 0 
-0.00438317 -0.181079 0 
-0.0266946 -0.193231 0 
-0.0176624 -0.158671 0 
-0.0400548 -0.171537 0 
0.104563 -0.0569671 0 
0.0824798 -0.0713575 0 
0.0919684 -0.0354937 0 
0.0702066 -0.0491694 0 
0.0610072 -0.0830672 0 
0.0374562 -0.0966435 0 
0.0479028 -0.0616884 0 
0.0242999 -0.0749745 0 
0.0139312 -0.109609 0 
-0.00752802 -0.122653 0 
0.00182063 -0.0877676 0 
-0.0215316 -0.100536 0 
-0.0309913 -0.137302 0 
-0.0535696 -0.150148 0 
-0.0451443 -0.114919 0 
-0.0677425 -0.128447 0 
0.0782046 -0.0113944 0 
0.0553163 -0.0256726 0 
0.0638366 0.0112366 0 
0.0410292 -0.00320213 0 
0.0327475 -0.0392886 0 
0.00991995 -0.0528465 0 
0.0185178 -0.0170698 0 
-0.00431946 -0.0308562 0 
-0.0129695 -0.0657281 0 
-0.0357917 -0.0791692 0 
-0.0273245 -0.0442859 0 
-0.0500773 -0.0573575 0 
-0.0589242 -0.0929194 0 
-0.0822008 -0.106322 0 
-0.0728427 -0.0712455 0 
-0.0956053 -0.0848744 0 
0.050673 0.0334782 0 
0.0274659 0.0192528 0 
0.0370188 0.0554438 0 
0.0132855 0.0417575 0 
0.00470035 0.00517823 0 
-0.0177744 -0.00867628 0 
-0.00985483 0.0277634 0 
-0.0325658 0.0137286 0 
-0.0407158 -0.0222252 0 
-0.0638374 -0.0351696 0 
-0.055453 2.89111e-05 0 
-0.0775932 -0.0131561 0 
-0.0869937 -0.0490743 0 
-0.109565 -0.0624907 0 
-0.100543 -0.0269937 0 
-0.122954 -0.0402593 0 
VECTORS velocity double
2.70814 -0.389385 0 
2.09934 -1.3139 0 
1.5688 0.413714 0 
1.61056 -0.984475 0 
1.90953 -1.01834 0 
1.94221 -1.32816 0 
1.50592 -0.614534 0 
1.21501 -0.760698 0 
1.91057 -1.59689 0 
1.49021 -1.76483 0 
1.21836 -1.20142 0 
1.10089 -1.41622 0 
1.80001 -1.94803 0 
1.2659 -2.37419 0 
1.11758 -1.339 0 
0.646667 -2.21724 0 
1.63394 -0.125687 0 
1.10933 -0.792818 0 
1.8461 -0.066108 0 
1.36665 -0.639285 0 
1.29855 -0.62993 0 
1.28325 -0.753263 0 
1.13979 -0.638652 0 
1.13124 -0.726589 0 
1.28562 -1.44224 0 
0.962816 -1.65999 0 
1.07967 -0.981842 0 
0.634054 -1.19425 0 
1.05503 -1.55856 0 
0.750383 -1.9359 0 
0.864236 -1.33667 0 
0.443786 -1.84104 0 
1.27897 -0.370016 0 
0.908143 -0.568354 0 
1.21817 0.108951 0 
0.760962 -0.412273 0 
0.991308 -0.510488 0 
1.03067 -0.737241 0 
1.03436 -0.324387 0 
1.00781 -0.588208 0 
0.920244 -1.10611 0 
0.69295 -1.23377 0 
0.827277 -1.07495 0 
0.579507 -1.22289 0 
0.85418 -1.34169 0 
0.411579 -1.89701 0 
0.625035 -1.26398 0 
0.349063 -1.85554 0 
1.218 -0.30911 0 
0.781646 -0.607285 0 
0.525419 0.237248 0 
0.36997 0.0803246 0 
0.887655 -0.776996 0 
1.02954 -0.543077 0 
0.678211 -0.376416 0 
0.283885 -0.396976 0 
0.828379 -0.805329 0 
0.574203 -1.1269 0 
0.0324078 -0.610698 0 
0.332532 -1.10995 0 
0.698065 -1.22703 0 
0.465934 -1.91573 0 
0.278701 -0.819646 0 
-0.00192654 -1.55301 0 
SCALARS mass double 1
LOOKUP_TABLE default
0.625
0.625
0.625
0.625
0.625
0.625
0.625
0.625
0.625
0.625
0.625
0.625
0.625
0.625
0.625
0.625
0.625
0.625
0.625
0.625
0.625
0.625
0.625
0.625
0.625
0.625
0.625
0.625
0.625
0.625
0.625
0.625
0.625
0.625
0.625
0.625
0.625
0.625
0.625
0.625
0.625
0.625
0.625
0.625
0.625
0.625
0.625
0.625
0.625
0.625
0.625
0.625
0.625
0.625
0.625
0.625
0.625
0.625
0.625
0.625
0.625
0.625
0.625
0.625
SCALARS volume double 1
LOOKUP_TABLE default
0.000628859
0.000640356
0.000620262
0.00062968
0.000626525
0.000615431
0.000631212
0.000631435
0.00062724
0.000625465
0.000625422
0.000629511
0.000626384
0.000632423
0.000638138
0.000617015
0.000594779
0.000641982
0.000669737
0.000631161
0.000614379
0.000625294
0.000634861
0.000654069
0.000623399
0.000636455
0.000632435
0.000628506
0.000610069
0.000607394
0.000619124
0.000617493
0.00063305
0.000637462
0.000629397
0.000624138
0.00060372
0.000614325
0.000611787
0.000638659
0.000599452
0.000621066
0.000648152
0.000620041
0.000635796
0.00062045
0.000615076
0.000618732
0.000619601
0.00063725
0.000629044
0.000635419
0.000614664
0.000620234
0.000625943
0.000609416
0.000629886
0.000628856
0.00062772
0.000628904
0.00062212
0.000626463
0.000620964
0.000623859
VECTORS momentum double
1.69259 -0.243366 0 
1.31208 -0.821188 0 
0.980499 0.258571 0 
1.0066 -0.615297 0 
1.19346 -0.636465 0 
1.21388 -0.830099 0 
0.9412 -0.384084 0 
0.759382 -0.475436 0 
1.1941 -0.998053 0 
0.931381 -1.10302 0 
0.761478 -0.75089 0 
0.688057 -0.885136 0 
1.125 -1.21752 0 
0.791191 -1.48387 0 
0.698488 -0.836878 0 
0.404167 -1.38577 0 
1.02122 -0.0785542 0 
0.693332 -0.495511 0 
1.15381 -0.0413175 0 
0.854159 -0.399553 0 
0.811591 -0.393706 0 
0.802034 -0.470789 0 
0.712367 -0.399157 0 
0.707022 -0.454118 0 
0.80351 -0.9014 0 
0.60176 -1.03749 0 
0.674793 -0.613651 0 
0.396284 -0.746405 0 
0.659397 -0.9741 0 
0.468989 -1.20994 0 
0.540148 -0.835421 0 
0.277366 -1.15065 0 
0.799356 -0.23126 0 
0.567589 -0.355221 0 
0.761358 0.0680941 0 
0.475601 -0.25767 0 
0.619567 -0.319055 0 
0.64417 -0.460775 0 
0.646473 -0.202742 0 
0.629879 -0.36763 0 
0.575152 -0.691317 0 
0.433093 -0.771108 0 
0.517048 -0.671843 0 
0.362192 -0.764304 0 
0.533863 -0.838557 0 
0.257237 -1.18563 0 
0.390647 -0.789986 0 
0.218164 -1.15971 0 
0.761249 -0.193194 0 
0.488529 -0.379553 0 
0.328387 0.14828 0 
0.231231 0.0502029 0 
0.554784 -0.485623 0 
0.643465 -0.339423 0 
0.423882 -0.23526 0 
0.177428 -0.24811 0 
0.517737 -0.50333 0 
0.358877 -0.704314 0 
0.0202549 -0.381686 0 
0.207832 -0.69372 0 
0.43629 -0.766896 0 
0.291209 -1.19733 0 
0.174188 -0.512279 0 
-0.00120408 -0.970633 0 
VECTORS body_force double
0 -9.81 0 
0 -9.81 0 
0 -9.81 0 
0 -9.81 0 
0 -9.81 0 
0 -9.81 0 
0 -9.81 0 
0 -9.81 0 
0 -9.81 0 
0 -9.81 0 
0 -9.81 0 
0 -9.81 0 
0 -9.81 0 
0 -9.81 0 
0 -9.81 0 
0 -9.81 0 
0 -9.81 0 
0 -9.81 0 
0 -9.81 0 
0 -9.81 0 
0 -9.81 0 
0 -9.81 0 
0 -9.81 0 
0 -9.81 0 
0 -9.81 0 
0 -9.81 0 
0 -9.81 0 
0 -9.81 0 
0 -9.81 0 
0 -9.81 0 
0 -9.81 0 
0 -9.81 0 
0 -9.81 0 
0 -9.81 0 
0 -9.81 0 
0 -9.81 0 
0 -9.81 0 
0 -9.81 0 
0 -9.81 0 
0 -9.81 0 
0 -9.81 0 
0 -9.81 0 
0 -9.81 0 
0 -9.81 0 
0 -9.81 0 
0 -9.81 0 
0 -9.81 0 
0 -9.81 0 
0 -9.81 0 
0 -9.81 0 
0 -9.81 0 
0 -9.81 0 
0 -9.81 0 
0 -9.81 0 
0 -9.81 0 
0 -9.81 0 
0 -9.81 0 
0 -9.81 0 
0 -9.81 0 
0 -9.81 0 
0 -9.81 0 
0 -9.81 0 
0 -9.81 0 
0 -9.81 0 
TENSORS cauchy_stress double
1780.94 -1160.53 0
-1160.53 -597.35 0
0 0 0

2697.88 -249.916 0
-249.916 1969.97 0
0 0 0

-4153.5 1565.41 0
1565.41 2690.25 0
0 0 0

251.722 677.535 0
677.535 1183.03 0
0 0 0

-295.39 905.292 0
905.292 763.995 0
0 0 0

-429.76 -153.453 0
-153.453 -2537.36 0
0 0 0

-3920.45 -250.671 0
-250.671 5822.39 0
0 0 0

139.33 613.1 0
613.1 1830.58 0
0 0 0

1471.22 1717.5 0
1717.5 -783.372 0
0 0 0

260.028 1011.93 0
1011.93 -116.942 0
0 0 0

-525.303 -1685.68 0
-1685.68 655.17 0
0 0 0

1284.54 222.033 0
222.033 98.4717 0
0 0 0

2472.18 884.824 0
884.824 -2046.9 0
0 0 0

2397.53 -862.043 0
-862.043 -127.062 0
0 0 0

2878.12 346.182 0
346.182 1122.58 0
0 0 0

-1638.47 -1977.18 0
-1977.18 -834.363 0
0 0 0

25.1441 1591.07 0
1591.07 -9556.23 0
0 0 0

3467.9 33.3667 0
33.3667 1687.67 0
0 0 0

4518.57 1520.59 0
1520.59 8776.18 0
0 0 0

-1814.91 459.451 0
459.451 3701.17 0
0 0 0

-264.01 -821.025 0
-821.025 -3032.02 0
0 0 0

6162.9 -2023.39 0
-2023.39 -6072.49 0
0 0 0

1937.91 -2148.6 0
-2148.6 1072.57 0
0 0 0

4151.5 -1246.12 0
-1246.12 4591.06 0
0 0 0

-168.051 1630.16 0
1630.16 -325.246 0
0 0 0

2978.11 266.958 0
266.958 514.733 0
0 0 0

-1817.49 -2253.4 0
-2253.4 4091.6 0
0 0 0

4787.85 -2693.13 0
-2693.13 -3712.04 0
0 0 0

-225.811 -1317.58 0
-1317.58 -4424.23 0
0 0 0

-708.262 -1730.04 0
-1730.04 -4786.88 0
0 0 0

-1797.01 -878.427 0
-878.427 -19.6171 0
0 0 0

150.105 -1250.58 0
-1250.58 -2474.07 0
0 0 0

280.238 -1640.31 0
-1640.31 2180.85 0
0 0 0

651.493 -1053.14 0
-1053.14 3145.13 0
0 0 0

626.008 508.007 0
508.007 722.028 0
0 0 0

1574.18 801.027 0
801.027 -1839.7 0
0 0 0

-5155.6 -1968.96 0
-1968.96 -1506.1 0
0 0 0

-1128.96 -3499.71 0
-3499.71 -2183.92 0
0 0 0

-1464.55 281.42 0
281.42 -2644.62 0
0 0 0

3812.3 303.914 0
303.914 345.274 0
0 0 0

-4146.18 -3792.98 0
-3792.98 -3879.78 0
0 0 0

49.5534 -1363.25 0
-1363.25 -1263.91 0
0 0 0

2143 -1172.48 0
-1172.48 4851.97 0
0 0 0

437.019 -970.407 0
-970.407 -1968.85 0
0 0 0

1966.23 -1074.65 0
-1074.65 1327.4 0
0 0 0

2455.36 -1636.17 0
-1636.17 -3860.54 0
0 0 0

264.546 -737.632 0
-737.632 -3342.5 0
0 0 0

-1421.79 -782.381 0
-782.381 -516.649 0
0 0 0

-913.143 -304.901 0
-304.901 -755.364 0
0 0 0

3765.53 -282.727 0
-282.727 -32.7085 0
0 0 0

345.163 -1525.43 0
-1525.43 895.084 0
0 0 0

3932.75 621.477 0
621.477 -753.258 0
0 0 0

-4570 -1107.75 0
-1107.75 1363.22 0
0 0 0

-1144.78 -1565.95 0
-1565.95 -327.182 0
0 0 0

1948.73 -576.516 0
-576.516 -1658.74 0
0 0 0

-1932.74 850.819 0
850.819 -2923.18 0
0 0 0

3232.79 -2290.91 0
-2290.91 -1735.14 0
0 0 0

1403.36 -1172.87 0
-1172.87 -220.565 0
0 0 0

-437.533 -1012.97 0
-1012.97 1272.73 0
0 0 0

-1027.49 -2275.67 0
-2275.67 2225.04 0
0 0 0

892.396 -552.529 0
-552.529 -1780.62 0
0 0 0

-1435.71 -1731.22 0
-1731.22 1885.33 0
0 0 0

2072.26 995.377 0
995.377 -3318.24 0
0 0 0

420.639 -563.975 0
-563.975 -771.941 0
0 0 0

TENSORS velocity_gradient double
0.257184 -12.5615 0
12.6662 -0.969958 0
0 0 0

-0.111405 -11.8421 0
11.9217 0.483093 0
0 0 0

1.57027 -12.7384 0
9.23088 -1.80551 0
0 0 0

-0.800296 -11.9515 0
10.4815 -0.422417 0
0 0 0

0.579711 -10.5908 0
9.2182 1.27857 0
0 0 0

-0.317751 -8.51168 0
9.4826 0.236472 0
0 0 0

-0.895231 -8.70475 0
9.44791 0.618915 0
0 0 0

-0.234523 -9.24877 0
10.3831 0.795839 0
0 0 0

-0.38895 -10.3129 0
9.68737 -0.367827 0
0 0 0

-0.163824 -10.2292 0
9.12108 -0.433459 0
0 0 0

0.140225 -10.0131 0
10.7861 -0.0260213 0
0 0 0

-0.403766 -10.2021 0
9.024 -0.421645 0
0 0 0

-0.292852 -9.96344 0
9.0751 -0.338751 0
0 0 0

0.470927 -7.61676 0
10.5487 -0.0813323 0
0 0 0

-0.239571 -8.8449 0
8.93384 0.68561 0
0 0 0

-0.0672058 -9.58112 0
10.5202 0.82405 0
0 0 0

2.70223 -8.69546 0
6.90266 -2.87611 0
0 0 0

-0.821526 -8.35349 0
8.91094 -1.94016 0
0 0 0

2.31358 -8.80476 0
6.25726 -3.25109 0
0 0 0

2.1018 -8.40634 0
5.91644 -2.60992 0
0 0 0

-0.684479 -8.57071 0
7.91249 -0.357623 0
0 0 0

0.0607954 -8.89741 0
9.52425 0.963536 0
0 0 0

-0.371039 -6.1382 0
6.86141 -0.896765 0
0 0 0

-0.0114575 -5.53587 0
7.27772 -2.14703 0
0 0 0

0.870646 -7.19682 0
11.072 -0.955583 0
0 0 0

1.05445 -7.3541 0
10.1095 0.0557532 0
0 0 0

1.54759 -6.27583 0
9.79881 -2.0705 0
0 0 0

1.93422 -6.99622 0
9.00594 -0.593148 0
0 0 0

0.629421 -8.27535 0
8.67592 0.603806 0
0 0 0

1.1448 -9.21315 0
8.52453 0.879268 0
0 0 0

1.45846 -6.57329 0
8.32142 -0.457495 0
0 0 0

1.63745 -4.98669 0
7.93266 -0.741536 0
0 0 0

1.65596 -7.82005 0
5.60545 -1.51582 0
0 0 0

0.986527 -5.3835 0
5.42225 0.087644 0
0 0 0

-0.710148 -7.646 0
5.01189 -0.0304597 0
0 0 0

-0.672155 -6.18579 0
5.12582 -0.0557359 0
0 0 0

0.349327 -4.37767 0
7.83814 -0.0714344 0
0 0 0

0.7677 -5.15713 0
8.65694 -1.47661 0
0 0 0

-1.14149 -5.11334 0
5.44873 0.122791 0
0 0 0

1.0535 -7.29695 0
9.65225 -0.701048 0
0 0 0

1.70374 -6.04791 0
8.86368 -2.00176 0
0 0 0

2.02648 -5.61154 0
8.44704 -1.55174 0
0 0 0

0.687802 -6.58731 0
9.79029 -0.968925 0
0 0 0

1.408 -5.91925 0
8.87425 -1.33919 0
0 0 0

1.69355 -5.0105 0
8.35586 -1.89949 0
0 0 0

1.71758 -4.94807 0
6.99105 -1.19528 0
0 0 0

1.08572 -5.27449 0
9.09686 -1.78455 0
0 0 0

1.63742 -4.75874 0
6.78915 -1.42669 0
0 0 0

-1.60149 -7.50285 0
6.61578 0.997655 0
0 0 0

-1.49262 -6.12306 0
5.27352 1.43871 0
0 0 0

-1.82283 -5.91752 0
7.31928 2.35347 0
0 0 0

-1.24063 -5.81614 0
6.9484 1.87421 0
0 0 0

-1.00648 -7.1234 0
5.81903 0.316214 0
0 0 0

0.351844 -7.65017 0
9.83996 -0.559475 0
0 0 0

-0.0156545 -6.65648 0
6.93084 0.840158 0
0 0 0

0.487331 -6.74835 0
7.89555 -0.862978 0
0 0 0

0.00726489 -6.95148 0
10.0472 -0.831457 0
0 0 0

0.429203 -6.02028 0
9.50741 -0.601379 0
0 0 0

-0.457044 -6.45721 0
9.84128 -1.11433 0
0 0 0

-0.628423 -6.14296 0
9.56072 -0.599874 0
0 0 0

0.567298 -5.48387 0
9.29834 -0.475385 0
0 0 0

0.544701 -5.00138 0
9.16183 -0.728601 0
0 0 0

0.105953 -5.7267 0
9.38332 -0.430657 0
0 0 0

-0.128761 -4.92196 0
9.02666 -0.497198 0
0 0 0

SCALARS active double 1
LOOKUP_TABLE default
1
1
1
1
1
1
1
1
1
1
1
1
1
1
1
1
1
1
1
1
1
1
1
1
1
1
1
1
1
1
1
1
1
1
1
1
1
1
1
1
1
1
1
1
1
1
1
1
1
1
1
1
1
1
1
1
1
1
1
1
1
1
1
1
SCALARS extent double 1
LOOKUP_TABLE default
0.0125
0.0125
0.0125
0.0125
0.0125
0.0125
0.0125
0.0125
0.0125
0.0125
0.0125
0.0125
0.0125
0.0125
0.0125
0.0125
0.0125
0.0125
0.0125
0.0125
0.0125
0.0125
0.0125
0.0125
0.0125
0.0125
0.0125
0.0125
0.0125
0.0125
0.0125
0.0125
0.0125
0.0125
0.0125
0.0125
0.0125
0.0125
0.0125
0.0125
0.0125
0.0125
0.0125
0.0125
0.0125
0.0125
0.0125
0.0125
0.0125
0.0125
0.0125
0.0125
0.0125
0.0125
0.0125
0.0125
0.0125
0.0125
0.0125
0.0125
0.0125
0.0125
0.0125
0.0125
SCALARS pressure double 1
LOOKUP_TABLE default
-591.795
-2333.92
731.625
-717.376
-234.302
1483.56
-950.971
-984.957
-343.925
-71.5434
-64.9338
-691.507
-212.642
-1135.24
-2000.35
1236.42
4765.54
-2577.79
-6647.38
-943.13
1648.01
-45.2068
-1505.24
-4371.28
246.648
-1746.42
-1137.05
-537.904
2325.02
2747.57
908.316
1161.98
-1230.54
-1898.31
-674.018
132.76
3330.85
1656.44
2054.58
-2078.79
4012.98
607.179
-3497.49
765.917
-1646.82
702.591
1538.97
969.218
834.253
-1866.41
-620.124
-1589.74
1603.39
735.979
-144.993
2427.96
-748.824
-591.399
-417.598
-598.778
444.113
-224.812
622.993
175.651
SCALARS density double 1
LOOKUP_TABLE default
993.864
976.019
1007.64
992.567
997.566
1015.55
990.159
989.809
996.43
999.256
999.325
992.834
997.791
988.263
979.411
1012.94
1050.81
973.547
933.203
990.239
1017.29
999.53
984.467
955.557
1002.57
982.001
988.244
994.421
1024.47
1028.99
1009.49
1012.16
987.284
980.451
993.015
1001.38
1035.25
1017.38
1021.6
978.613
1042.62
1006.33
964.28
1008
983.019
1007.33
1016.13
1010.13
1008.71
980.776
993.571
983.603
1016.82
1007.68
998.493
1025.57
992.242
993.868
995.666
993.792
1004.63
997.665
1006.5
1001.83
