# vtk DataFile Version 3.0
Frame: 14, Time: 0.238
ASCII
DATASET UNSTRUCTURED_GRID
POINTS 64 double
0.839749 0.173224 0 
0.814758 0.173949 0 
0.840288 0.198726 0 
0.816119 0.198878 0 
0.787961 0.177143 0 
0.76357 0.178426 0 
0.789874 0.202671 0 
0.764842 0.203968 0 
0.7373 0.179978 0 
0.711569 0.183852 0 
0.739605 0.205242 0 
0.714549 0.209082 0 
0.686762 0.184918 0 
0.661153 0.187239 0 
0.68864 0.20999 0 
0.663049 0.211781 0 
0.841976 0.223941 0 
0.817503 0.224084 0 
0.845289 0.247303 0 
0.820685 0.249075 0 
0.793157 0.227341 0 
0.767519 0.2289 0 
0.795237 0.251849 0 
0.769453 0.25357 0 
0.741383 0.230521 0 
0.717051 0.233558 0 
0.74432 0.255865 0 
0.718141 0.258467 0 
0.691313 0.234216 0 
0.665607 0.236639 0 
0.692368 0.259294 0 
0.66719 0.261304 0 
0.847082 0.272895 0 
0.821856 0.274227 0 
0.848866 0.29828 0 
0.823866 0.299484 0 
0.796692 0.276609 0 
0.771424 0.278281 0 
0.79873 0.30152 0 
0.772813 0.303031 0 
0.745816 0.280487 0 
0.720042 0.282671 0 
0.747303 0.304452 0 
0.7218 0.306953 0 
0.694145 0.284204 0 
0.668153 0.286056 0 
0.696183 0.308807 0 
0.670678 0.310523 0 
0.850269 0.323627 0 
0.824976 0.324662 0 
0.85164 0.348733 0 
0.826034 0.350024 0 
0.79969 0.32618 0 
0.774038 0.327965 0 
0.800416 0.351263 0 
0.774992 0.353011 0 
0.748827 0.32914 0 
0.723332 0.331682 0 
0.750082 0.354276 0 
0.725324 0.356838 0 
0.69774 0.333747 0 
0.672626 0.335609 0 
0.699536 0.358961 0 
0.674583 0.361151 0 
CELLS 64 128
1 0
1 1
1 2
1 3
1 4
1 5
1 6
1 7
1 8
1 9
1 10
1 11
1 12
1 13
1 14
1 15
1 16
1 17
1 18
1 19
1 20
1 21
1 22
1 23
1 24
1 25
1 26
1 27
1 28
1 29
1 30
1 31
1 32
1 33
1 34
1 35
1 36
1 37
1 38
1 39
1 40
1 41
1 42
1 43
1 44
1 45
1 46
1 47
1 48
1 49
1 50
1 51
1 52
1 53
1 54
1 55
1 56
1 57
1 58
1 59
1 60
1 61
1 62
1 63
CELL_TYPES 64
1
1
1
1
1
1
1
1
1
1
1
1
1
1
1
1
1
1
1
1
1
1
1
1
1
1
1
1
1
1
1
1
1
1
1
1
1
1
1
1
1
1
1
1
1
1
1
1
1
1
1
1
1
1
1
1
1
1
1
1
1
1
1
1
POINT_DATA 64
VECTORS displacement double
0.227249 -0.139276 0 
0.202258 -0.163551 0 
0.202788 -0.113774 0 
0.178619 -0.138622 0 
0.175461 -0.185357 0 
0.15107 -0.209074 0 
0.152374 -0.159829 0 
0.127342 -0.183532 0 
0.1248 -0.232522 0 
0.0990694 -0.253648 0 
0.102105 -0.207258 0 
0.0770489 -0.228418 0 
0.0742621 -0.277582 0 
0.0486526 -0.300261 0 
0.0511405 -0.25251 0 
0.025549 -0.275719 0 
0.179476 -0.0885589 0 
0.155003 -0.113416 0 
0.157789 -0.0651972 0 
0.133185 -0.0884248 0 
0.130657 -0.135159 0 
0.105019 -0.1586 0 
0.107737 -0.110651 0 
0.0819527 -0.13393 0 
0.0788827 -0.181979 0 
0.0545507 -0.203942 0 
0.0568202 -0.156635 0 
0.0306411 -0.179033 0 
0.0288131 -0.228284 0 
0.00310716 -0.250861 0 
0.00486757 -0.203206 0 
-0.0203098 -0.226196 0 
0.134582 -0.0396053 0 
0.109356 -0.0632733 0 
0.111366 -0.0142204 0 
0.0863661 -0.0380164 0 
0.0841919 -0.0858908 0 
0.0589236 -0.109219 0 
0.0612302 -0.0609801 0 
0.0353127 -0.0844691 0 
0.0333159 -0.132013 0 
0.0075418 -0.154829 0 
0.00980322 -0.108048 0 
-0.0156999 -0.130547 0 
-0.0183547 -0.178296 0 
-0.0443474 -0.201444 0 
-0.0413171 -0.153693 0 
-0.0668217 -0.176977 0 
0.0877694 0.0111272 0 
0.0624756 -0.0128376 0 
0.0641396 0.0362331 0 
0.038534 0.0125243 0 
0.0371897 -0.0363204 0 
0.0115375 -0.0595354 0 
0.0129165 -0.0112368 0 
-0.0125076 -0.0344887 0 
-0.0136731 -0.0833602 0 
-0.0391675 -0.105818 0 
-0.0374182 -0.0582236 0 
-0.0621762 -0.0806624 0 
-0.0647598 -0.128753 0 
-0.089874 -0.151891 0 
-0.0879638 -0.103539 0 
-0.112917 -0.126349 0 
VECTORS velocity double
1.68619 -0.855644 0 
1.76049 -1.1726 0 
1.43969 -0.663105 0 
1.46318 -1.56693 0 
1.85702 -1.06038 0 
1.82107 -1.52982 0 
1.42208 -1.13594 0 
1.20867 -1.19919 0 
1.80475 -1.65972 0 
1.52299 -1.82464 0 
1.46014 -1.43616 0 
1.41462 -1.64706 0 
2.06203 -2.02123 0 
1.8874 -2.54552 0 
1.41026 -1.62265 0 
1.13149 -2.60535 0 
1.31256 -0.770997 0 
1.03987 -1.29184 0 
1.32077 -0.601833 0 
1.31686 -1.16866 0 
1.34602 -1.12067 0 
1.38151 -1.09577 0 
1.26888 -1.16973 0 
1.22722 -1.12729 0 
1.61936 -1.74882 0 
1.41199 -1.99638 0 
1.2202 -1.40427 0 
0.874561 -1.68474 0 
1.51474 -1.92801 0 
1.31984 -2.46382 0 
1.12627 -1.94497 0 
0.959614 -2.56564 0 
0.871253 -0.877348 0 
1.0691 -1.28317 0 
0.804162 -0.157635 0 
0.820424 -0.980657 0 
1.13661 -1.14648 0 
1.08959 -1.19302 0 
0.949572 -0.925549 0 
0.672243 -1.2244 0 
1.05004 -1.45083 0 
0.848217 -1.72501 0 
0.725331 -1.56545 0 
0.625814 -1.73291 0 
0.905401 -2.08214 0 
0.75872 -2.6095 0 
0.595758 -1.89384 0 
0.580524 -2.44196 0 
0.832485 -0.414582 0 
0.862681 -0.983064 0 
0.197591 -0.310577 0 
0.0746521 -0.664898 0 
0.921813 -1.31228 0 
0.827832 -1.31317 0 
0.213372 -1.05937 0 
-0.0405485 -1.15942 0 
0.740777 -1.61476 0 
0.537706 -1.87141 0 
0.0391645 -1.44666 0 
0.119005 -1.91692 0 
0.633266 -1.87821 0 
0.663927 -2.64914 0 
-0.16016 -1.5678 0 
-0.111671 -2.37325 0 
SCALARS mass double 1
LOOKUP_TABLE default
0.625
0.625
0.625
0.625
0.625
0.625
0.625
0.625
0.625
0.625
0.625
0.625
0.625
0.625
0.625
0.625
0.625
0.625
0.625
0.625
0.625
0.625
0.625
0.625
0.625
0.625
0.625
0.625
0.625
0.625
0.625
0.625
0.625
0.625
0.625
0.625
0.625
0.625
0.625
0.625
0.625
0.625
0.625
0.625
0.625
0.625
0.625
0.625
0.625
0.625
0.625
0.625
0.625
0.625
0.625
0.625
0.625
0.625
0.625
0.625
0.625
0.625
0.625
0.625
SCALARS volume double 1
LOOKUP_TABLE default
0.00062859
0.000626483
0.000626288
0.000623811
0.000633932
0.000633219
0.000628557
0.000635753
0.000642732
0.000624074
0.000626568
0.000626161
0.000622632
0.000623978
0.000634414
0.000620736
0.000594913
0.000631934
0.000637853
0.000617073
0.000609976
0.000629937
0.000623312
0.000635234
0.000625005
0.000638994
0.000639027
0.000632121
0.000617487
0.000624841
0.000623104
0.000620325
0.000629835
0.000638921
0.000632794
0.000617335
0.000621579
0.00061536
0.000624532
0.000637462
0.000609224
0.00063202
0.000636377
0.000616931
0.000640894
0.00061984
0.000623423
0.000622862
0.00062115
0.000635724
0.000626681
0.000625959
0.000625527
0.000628294
0.000636762
0.000621012
0.000619842
0.000629894
0.00062375
0.000634866
0.000632089
0.000627317
0.000625181
0.000627482
VECTORS momentum double
1.05387 -0.534777 0 
1.10031 -0.732874 0 
0.899804 -0.414441 0 
0.914488 -0.979334 0 
1.16064 -0.662739 0 
1.13817 -0.956137 0 
0.888801 -0.709965 0 
0.755421 -0.749494 0 
1.12797 -1.03732 0 
0.951871 -1.1404 0 
0.912587 -0.8976 0 
0.884137 -1.02941 0 
1.28877 -1.26327 0 
1.17963 -1.59095 0 
0.881411 -1.01416 0 
0.707179 -1.62834 0 
0.820348 -0.481873 0 
0.64992 -0.807398 0 
0.825479 -0.376146 0 
0.823036 -0.730414 0 
0.841264 -0.700416 0 
0.863444 -0.684857 0 
0.793052 -0.731083 0 
0.767012 -0.704556 0 
1.0121 -1.09301 0 
0.882494 -1.24774 0 
0.762623 -0.877669 0 
0.5466 -1.05296 0 
0.946712 -1.20501 0 
0.824899 -1.53989 0 
0.70392 -1.2156 0 
0.599759 -1.60353 0 
0.544533 -0.548342 0 
0.66819 -0.801982 0 
0.502601 -0.0985219 0 
0.512765 -0.612911 0 
0.710383 -0.716551 0 
0.680996 -0.74564 0 
0.593482 -0.578468 0 
0.420152 -0.76525 0 
0.656273 -0.90677 0 
0.530136 -1.07813 0 
0.453332 -0.978409 0 
0.391134 -1.08307 0 
0.565876 -1.30134 0 
0.4742 -1.63094 0 
0.372349 -1.18365 0 
0.362828 -1.52623 0 
0.520303 -0.259114 0 
0.539175 -0.614415 0 
0.123494 -0.194111 0 
0.0466575 -0.415561 0 
0.576133 -0.820176 0 
0.517395 -0.820731 0 
0.133357 -0.662104 0 
-0.0253428 -0.724641 0 
0.462985 -1.00922 0 
0.336066 -1.16963 0 
0.0244778 -0.904161 0 
0.0743778 -1.19807 0 
0.395791 -1.17388 0 
0.414955 -1.65571 0 
-0.1001 -0.979878 0 
-0.0697944 -1.48328 0 
VECTORS body_force double
0 -9.81 0 
0 -9.81 0 
0 -9.81 0 
0 -9.81 0 
0 -9.81 0 
0 -9.81 0 
0 -9.81 0 
0 -9.81 0 
0 -9.81 0 
0 -9.81 0 
0 -9.81 0 
0 -9.81 0 
0 -9.81 0 
0 -9.81 0 
0 -9.81 0 
0 -9.81 0 
0 -9.81 0 
0 -9.81 0 
0 -9.81 0 
0 -9.81 0 
0 -9.81 0 
0 -9.81 0 
0 -9.81 0 
0 -9.81 0 
0 -9.81 0 
0 -9.81 0 
0 -9.81 0 
0 -9.81 0 
0 -9.81 0 
0 -9.81 0 
0 -9.81 0 
0 -9.81 0 
0 -9.81 0 
0 -9.81 0 
0 -9.81 0 
0 -9.81 0 
0 -9.81 0 
0 -9.81 0 
0 -9.81 0 
0 -9.81 0 
0 -9.81 0 
0 -9.81 0 
0 -9.81 0 
0 -9.81 0 
0 -9.81 0 
0 -9.81 0 
0 -9.81 0 
0 -9.81 0 
0 -9.81 0 
0 -9.81 0 
0 -9.81 0 
0 -9.81 0 
0 -9.81 0 
0 -9.81 0 
0 -9.81 0 
0 -9.81 0 
0 -9.81 0 
0 -9.81 0 
0 -9.81 0 
0 -9.81 0 
0 -9.81 0 
0 -9.81 0 
0 -9.81 0 
0 -9.81 0 
TENSORS cauchy_stress double
768.508 722.771 0
722.771 332.977 0
0 0 0

2139.08 -198.489 0
-198.489 -1683.36 0
0 0 0

-2080.03 -3215.32 0
-3215.32 2475.82 0
0 0 0

-487.197 -1112.89 0
-1112.89 120.968 0
0 0 0

2118.24 -156.59 0
-156.59 610.74 0
0 0 0

2450.48 -225.315 0
-225.315 62.1004 0
0 0 0

-2351.02 -4565.04 0
-4565.04 3442.52 0
0 0 0

-509.184 -247.067 0
-247.067 3789.67 0
0 0 0

2633.19 594.96 0
594.96 2746.77 0
0 0 0

-892.942 268.479 0
268.479 607.785 0
0 0 0

478.751 -2029.11 0
-2029.11 3.19965 0
0 0 0

1296.57 15.6996 0
15.6996 -939.583 0
0 0 0

234.897 2234.58 0
2234.58 -964.78 0
0 0 0

636.219 580.284 0
580.284 -951.003 0
0 0 0

2796.33 1770.92 0
1770.92 78.7954 0
0 0 0

-28.0208 -706.973 0
-706.973 -1288.62 0
0 0 0

-1587.9 3476.12 0
3476.12 -7899.89 0
0 0 0

790.866 1812.72 0
1812.72 1331.01 0
0 0 0

1349.78 -1134.99 0
-1134.99 2564.85 0
0 0 0

-1839.86 -423.221 0
-423.221 -614.87 0
0 0 0

-2835.82 515.892 0
515.892 -1843.32 0
0 0 0

4441.11 2067.91 0
2067.91 -2927.9 0
0 0 0

992.87 -1895.7 0
-1895.7 -1512.98 0
0 0 0

1377.78 -1646.88 0
-1646.88 1745.5 0
0 0 0

-1745.88 345.294 0
345.294 1747.35 0
0 0 0

2558.83 -55.374 0
-55.374 1699.63 0
0 0 0

1356.99 -2449.06 0
-2449.06 2911.25 0
0 0 0

4933.11 -201.796 0
-201.796 -2754.53 0
0 0 0

1001.54 713.179 0
713.179 -3327.29 0
0 0 0

1616.63 472.723 0
472.723 -1665.55 0
0 0 0

-863.984 -2138.57 0
-2138.57 279.615 0
0 0 0

113.762 -972.424 0
-972.424 -1557.78 0
0 0 0

1502.05 -1215.22 0
-1215.22 -19.9655 0
0 0 0

940.139 1578.49 0
1578.49 3296.37 0
0 0 0

207.022 -1050.61 0
-1050.61 2176.45 0
0 0 0

-1294.23 710.911 0
710.911 -1078.7 0
0 0 0

-828.491 -995.803 0
-995.803 -227.083 0
0 0 0

251.278 -627.335 0
-627.335 -3240.65 0
0 0 0

1069.53 -1457.71 0
-1457.71 -1213.52 0
0 0 0

2555.82 1582.77 0
1582.77 1240.88 0
0 0 0

-118.116 -986.805 0
-986.805 -4798.23 0
0 0 0

2700.87 -939.659 0
-939.659 -552.866 0
0 0 0

1725.64 -2870.74 0
-2870.74 1743.45 0
0 0 0

604.803 -1989.05 0
-1989.05 -3103.62 0
0 0 0

3193.75 264.408 0
264.408 1635.63 0
0 0 0

1659.84 -325.627 0
-325.627 -3254.26 0
0 0 0

1456.01 1408.08 0
1408.08 -1941.93 0
0 0 0

-148.691 -776.872 0
-776.872 -510.279 0
0 0 0

-1201.47 -1880.99 0
-1880.99 13.2568 0
0 0 0

2498.54 -606.563 0
-606.563 773.031 0
0 0 0

-9.00257 -886.2 0
-886.2 525.667 0
0 0 0

-211.385 2635.39 0
2635.39 506.275 0
0 0 0

-213.114 -4676.29 0
-4676.29 375.338 0
0 0 0

1557.43 -966.484 0
-966.484 -546.573 0
0 0 0

3368.94 452.515 0
452.515 216.526 0
0 0 0

-1084.82 1360.36 0
1360.36 -146.255 0
0 0 0

1408.41 -419.606 0
-419.606 -3002 0
0 0 0

916.342 -1277.5 0
-1277.5 583.487 0
0 0 0

-1319.65 635.972 0
635.972 934.511 0
0 0 0

1976.63 -2595.83 0
-2595.83 1035.43 0
0 0 0

1448.45 565.445 0
565.445 720.42 0
0 0 0

-462.075 -1924.84 0
-1924.84 1173.73 0
0 0 0

617.391 1735.83 0
1735.83 -561.686 0
0 0 0

-160.188 -194.533 0
-194.533 922.314 0
0 0 0

TENSORS velocity_gradient double
-1.24203 -3.28822 0
4.76779 -0.944125 0
0 0 0

-1.19779 -4.59867 0
4.76793 -0.948174 0
0 0 0

-0.130404 -4.49072 0
4.84003 0.379942 0
0 0 0

-0.126449 -4.90377 0
4.84314 0.160499 0
0 0 0

-1.19862 -5.51226 0
5.76361 -0.535322 0
0 0 0

-1.17527 -5.91284 0
5.72032 0.207176 0
0 0 0

-0.798892 -5.16923 0
5.21808 0.50854 0
0 0 0

-0.778164 -5.4494 0
5.2071 0.370866 0
0 0 0

-0.60854 -6.05111 0
8.67859 0.528711 0
0 0 0

-0.625032 -5.94755 0
8.69052 0.453821 0
0 0 0

-0.472628 -5.95168 0
8.92595 -0.152564 0
0 0 0

-0.346682 -6.72723 0
9.04199 -0.867084 0
0 0 0

-1.22313 -6.73946 0
9.72141 0.667992 0
0 0 0

-1.07962 -8.17148 0
9.67948 1.08646 0
0 0 0

-0.16518 -7.48307 0
9.49975 -1.23134 0
0 0 0

-0.10948 -8.18247 0
9.49832 -1.21342 0
0 0 0

-0.462821 -5.88584 0
5.34412 1.87193 0
0 0 0

-0.469096 -5.32294 0
5.35039 1.309 0
0 0 0

-1.20703 -6.21032 0
6.0099 2.43698 0
0 0 0

-0.999106 -5.94529 0
6.03115 1.69508 0
0 0 0

-0.482951 -5.05484 0
5.53492 0.81457 0
0 0 0

-0.461443 -5.37914 0
5.56046 0.429423 0
0 0 0

-0.0900517 -6.12829 0
5.96675 0.757106 0
0 0 0

-0.0230677 -7.19205 0
6.00288 0.0500517 0
0 0 0

0.309848 -5.89198 0
9.64685 -0.0975578 0
0 0 0

0.411253 -6.64468 0
9.74028 -0.79103 0
0 0 0

1.00926 -8.19524 0
10.2863 -0.628946 0
0 0 0

1.06521 -8.70395 0
10.3359 -1.08004 0
0 0 0

0.497306 -7.40507 0
9.48278 -1.23333 0
0 0 0

0.570303 -8.107 0
9.48091 -1.21535 0
0 0 0

0.600074 -8.8247 0
9.2297 -1.18655 0
0 0 0

0.54586 -8.21717 0
9.18148 -0.646228 0
0 0 0

-2.05051 -6.50273 0
7.50188 3.51978 0
0 0 0

-1.27533 -6.48736 0
7.3534 2.0712 0
0 0 0

-1.38921 -7.17789 0
9.08897 2.92377 0
0 0 0

-1.44197 -7.68447 0
8.70171 1.71727 0
0 0 0

0.456351 -6.48953 0
6.76469 0.793562 0
0 0 0

0.835137 -7.33993 0
6.68494 0.0602199 0
0 0 0

0.570426 -8.27906 0
7.82392 0.610792 0
0 0 0

1.59551 -9.05011 0
7.39675 -0.256707 0
0 0 0

1.43887 -8.15353 0
10.3647 -0.593818 0
0 0 0

1.53656 -8.66291 0
10.7538 -1.04364 0
0 0 0

1.70407 -9.52849 0
10.013 -0.754451 0
0 0 0

1.67817 -9.13783 0
10.6343 0.265853 0
0 0 0

-0.00210333 -8.87297 0
8.69413 -1.22948 0
0 0 0

-0.0523303 -8.24534 0
8.64946 -0.671282 0
0 0 0

-0.163533 -8.70093 0
8.87291 1.06706 0
0 0 0

-0.486156 -8.39196 0
8.63097 0.65909 0
0 0 0

-0.425458 -8.30842 0
9.37045 1.90534 0
0 0 0

-1.21807 -8.71236 0
9.57082 1.33545 0
0 0 0

0.8083 -8.02231 0
8.94207 0.551181 0
0 0 0

-0.771613 -9.06521 0
10.1523 0.346203 0
0 0 0

0.607964 -9.0072 0
8.75673 0.535084 0
0 0 0

1.9573 -9.35099 0
8.18361 -0.276203 0
0 0 0

0.576577 -9.93462 0
9.58351 0.224812 0
0 0 0

1.80419 -8.84596 0
9.10165 -0.935332 0
0 0 0

1.52862 -9.56702 0
9.13943 -0.770464 0
0 0 0

1.22192 -9.17026 0
9.53558 0.18776 0
0 0 0

1.39855 -7.19065 0
8.80858 -2.03033 0
0 0 0

1.12648 -7.39272 0
8.32561 -1.04579 0
0 0 0

-0.207806 -8.72785 0
9.15797 1.04375 0
0 0 0

-0.783941 -8.41763 0
9.0866 0.69837 0
0 0 0

0.231192 -8.06567 0
8.60868 0.300903 0
0 0 0

-0.445654 -8.93761 0
8.8579 1.20338 0
0 0 0

SCALARS active double 1
LOOKUP_TABLE default
1
1
1
1
1
1
1
1
1
1
1
1
1
1
1
1
1
1
1
1
1
1
1
1
1
1
1
1
1
1
1
1
1
1
1
1
1
1
1
1
1
1
1
1
1
1
1
1
1
1
1
1
1
1
1
1
1
1
1
1
1
1
1
1
SCALARS extent double 1
LOOKUP_TABLE default
0.0125
0.0125
0.0125
0.0125
0.0125
0.0125
0.0125
0.0125
0.0125
0.0125
0.0125
0.0125
0.0125
0.0125
0.0125
0.0125
0.0125
0.0125
0.0125
0.0125
0.0125
0.0125
0.0125
0.0125
0.0125
0.0125
0.0125
0.0125
0.0125
0.0125
0.0125
0.0125
0.0125
0.0125
0.0125
0.0125
0.0125
0.0125
0.0125
0.0125
0.0125
0.0125
0.0125
0.0125
0.0125
0.0125
0.0125
0.0125
0.0125
0.0125
0.0125
0.0125
0.0125
0.0125
0.0125
0.0125
0.0125
0.0125
0.0125
0.0125
0.0125
0.0125
0.0125
0.0125
SCALARS pressure double 1
LOOKUP_TABLE default
-550.742
-227.861
-197.897
183.114
-1364.49
-1256.29
-545.748
-1640.24
-2689.98
142.578
-240.975
-178.492
364.941
157.392
-1437.56
658.321
4743.9
-1060.94
-1957.32
1227.36
2339.57
-756.606
260.055
-1561.64
-0.733166
-2129.23
-2134.12
-1089.29
1162.88
24.461
292.185
722.008
-741.041
-2118.25
-1191.73
1186.47
527.787
1494.68
71.9946
-1898.35
2458.17
-1074
-1734.55
1249.41
-2414.69
797.211
242.957
329.485
594.107
-1635.78
-258.332
-147.445
-81.1121
-505.428
-1792.73
615.54
796.795
-749.914
192.571
-1506.03
-1084.43
-355.826
-27.8522
-381.063
SCALARS density double 1
LOOKUP_TABLE default
994.289
997.633
997.944
1001.91
985.91
987.02
994.34
983.086
972.412
1001.48
997.497
998.145
1003.8
1001.64
985.161
1006.87
1050.57
989.027
979.85
1012.85
1024.63
992.162
1002.71
983.89
999.992
978.099
978.05
988.735
1012.17
1000.25
1003.04
1007.54
992.323
978.211
987.682
1012.42
1005.5
1015.67
1000.75
980.451
1025.89
988.893
982.122
1013.08
975.2
1008.33
1002.53
1003.43
1006.2
983.132
997.317
998.468
999.157
994.757
981.528
1006.42
1008.32
992.231
1002
984.459
988.785
996.306
999.71
996.045
