# vtk DataFile Version 3.0
Frame: 46, Time: 0.782
ASCII
DATASET UNSTRUCTURED_GRID
POINTS 64 double
0.51821 0.210473 0 
0.51321 0.186913 0 
0.490457 0.215919 0 
0.486777 0.191228 0 
0.508095 0.161661 0 
0.507055 0.137817 0 
0.482029 0.16573 0 
0.478997 0.141035 0 
0.501082 0.112857 0 
0.499292 0.0874132 0 
0.47526 0.116268 0 
0.4728 0.0913674 0 
0.49668 0.0642048 0 
0.493106 0.0388786 0 
0.46966 0.0676761 0 
0.466284 0.0438922 0 
0.462433 0.218313 0 
0.460707 0.192878 0 
0.439415 0.226065 0 
0.435651 0.199857 0 
0.458043 0.168915 0 
0.454014 0.144015 0 
0.433665 0.173683 0 
0.429716 0.147249 0 
0.449061 0.118024 0 
0.448206 0.093474 0 
0.424206 0.122632 0 
0.422388 0.0963851 0 
0.445225 0.0694641 0 
0.440821 0.044365 0 
0.419261 0.0702803 0 
0.415468 0.045796 0 
0.414191 0.229214 0 
0.411124 0.202485 0 
0.387802 0.234545 0 
0.385862 0.206527 0 
0.408437 0.177486 0 
0.405027 0.151157 0 
0.384142 0.180645 0 
0.380433 0.154141 0 
0.400417 0.124838 0 
0.397607 0.0989679 0 
0.377316 0.128088 0 
0.373576 0.102033 0 
0.393156 0.0727035 0 
0.388342 0.0469838 0 
0.368912 0.0758446 0 
0.363115 0.0504445 0 
0.363887 0.237763 0 
0.361769 0.209896 0 
0.33716 0.239342 0 
0.336461 0.212603 0 
0.359304 0.18482 0 
0.355982 0.158912 0 
0.334535 0.18829 0 
0.333223 0.161098 0 
0.352751 0.132683 0 
0.349094 0.105976 0 
0.330437 0.134541 0 
0.324559 0.109232 0 
0.344471 0.079935 0 
0.338974 0.0533178 0 
0.318091 0.0830581 0 
0.31338 0.0596209 0 
CELLS 64 128
1 0
1 1
1 2
1 3
1 4
1 5
1 6
1 7
1 8
1 9
1 10
1 11
1 12
1 13
1 14
1 15
1 16
1 17
1 18
1 19
1 20
1 21
1 22
1 23
1 24
1 25
1 26
1 27
1 28
1 29
1 30
1 31
1 32
1 33
1 34
1 35
1 36
1 37
1 38
1 39
1 40
1 41
1 42
1 43
1 44
1 45
1 46
1 47
1 48
1 49
1 50
1 51
1 52
1 53
1 54
1 55
1 56
1 57
1 58
1 59
1 60
1 61
1 62
1 63
CELL_TYPES 64
1
1
1
1
1
1
1
1
1
1
1
1
1
1
1
1
1
1
1
1
1
1
1
1
1
1
1
1
1
1
1
1
1
1
1
1
1
1
1
1
1
1
1
1
1
1
1
1
1
1
1
1
1
1
1
1
1
1
1
1
1
1
1
1
POINT_DATA 64
VECTORS displacement double
-0.0942898 -0.102027 0 
-0.0992901 -0.150587 0 
-0.147043 -0.0965807 0 
-0.150723 -0.146272 0 
-0.104405 -0.200839 0 
-0.105445 -0.249683 0 
-0.155471 -0.19677 0 
-0.158503 -0.246465 0 
-0.111418 -0.299643 0 
-0.113208 -0.350087 0 
-0.16224 -0.296232 0 
-0.1647 -0.346133 0 
-0.11582 -0.398295 0 
-0.119394 -0.448621 0 
-0.16784 -0.394824 0 
-0.171216 -0.443608 0 
-0.200067 -0.0941874 0 
-0.201793 -0.144622 0 
-0.248085 -0.0864354 0 
-0.251849 -0.137643 0 
-0.204457 -0.193585 0 
-0.208486 -0.243485 0 
-0.253835 -0.188817 0 
-0.257784 -0.240251 0 
-0.213439 -0.294476 0 
-0.214294 -0.344026 0 
-0.263294 -0.289868 0 
-0.265112 -0.341115 0 
-0.217275 -0.393036 0 
-0.221679 -0.443135 0 
-0.268239 -0.39222 0 
-0.272032 -0.441704 0 
-0.298309 -0.0832861 0 
-0.301376 -0.135015 0 
-0.349698 -0.077955 0 
-0.351638 -0.130973 0 
-0.304063 -0.185014 0 
-0.307473 -0.236343 0 
-0.353358 -0.181855 0 
-0.357067 -0.233359 0 
-0.312083 -0.287662 0 
-0.314893 -0.338532 0 
-0.360184 -0.284412 0 
-0.363924 -0.335467 0 
-0.319344 -0.389796 0 
-0.324158 -0.440516 0 
-0.368588 -0.386655 0 
-0.374385 -0.437056 0 
-0.398613 -0.074737 0 
-0.400731 -0.127604 0 
-0.45034 -0.0731581 0 
-0.451039 -0.124897 0 
-0.403196 -0.17768 0 
-0.406518 -0.228588 0 
-0.452965 -0.17421 0 
-0.454277 -0.226402 0 
-0.409749 -0.279817 0 
-0.413406 -0.331524 0 
-0.457063 -0.277959 0 
-0.462941 -0.328268 0 
-0.418029 -0.382565 0 
-0.423526 -0.434182 0 
-0.469409 -0.379442 0 
-0.47412 -0.427879 0 
VECTORS velocity double
-1.7599 0.222778 0 
-1.37045 0.30639 0 
-1.83739 0.214655 0 
-1.38924 0.106744 0 
-1.33631 0.171123 0 
-0.638054 0.726545 0 
-1.40112 -0.201905 0 
-1.47825 -0.0591171 0 
-1.13705 0.346188 0 
-0.480805 0.589839 0 
-1.18921 0.0122552 0 
-0.804623 -0.106452 0 
-0.648234 0.552913 0 
-0.0866873 0.0106353 0 
-0.579327 0.175539 0 
-0.236857 0.158338 0 
-2.10185 -0.276235 0 
-1.26673 -0.184458 0 
-1.98029 0.372382 0 
-1.64547 0.0269043 0 
-0.934287 0.0450763 0 
-1.06743 -0.029292 0 
-1.45259 -0.274326 0 
-1.43781 -0.216398 0 
-1.20961 0.0866893 0 
-0.607027 -0.454956 0 
-1.44036 0.0906135 0 
-0.952992 -0.490677 0 
-0.294029 -0.230474 0 
-0.162686 -0.00675042 0 
-0.759712 -0.480858 0 
-0.486138 -0.539053 0 
-1.79359 -0.637507 0 
-1.13551 -0.0744006 0 
-2.11447 -0.0155618 0 
-1.2912 -0.545666 0 
-1.38995 -0.617112 0 
-0.911392 -0.873551 0 
-1.65165 -0.090218 0 
-1.35021 -0.382663 0 
-0.738249 -0.244085 0 
-0.389703 -0.719523 0 
-0.872558 -0.204179 0 
-0.745448 -0.603919 0 
-0.710777 -0.588979 0 
-0.287565 -0.730807 0 
-1.1688 -0.906789 0 
-0.748609 -0.733738 0 
-1.66242 -0.376366 0 
-1.39407 -0.733113 0 
-1.85536 -0.809507 0 
-1.65287 -1.14876 0 
-1.24577 -0.27174 0 
-1.21818 -0.676012 0 
-1.30664 -0.867688 0 
-0.995431 -1.48633 0 
-1.23466 -0.771072 0 
-0.802091 -0.842867 0 
-0.212922 -1.26939 0 
-0.369304 -1.38338 0 
-0.368693 -1.17547 0 
-0.230401 -1.28788 0 
-1.47627 -1.01439 0 
-0.415718 -0.713634 0 
SCALARS mass double 1
LOOKUP_TABLE default
0.625
0.625
0.625
0.625
0.625
0.625
0.625
0.625
0.625
0.625
0.625
0.625
0.625
0.625
0.625
0.625
0.625
0.625
0.625
0.625
0.625
0.625
0.625
0.625
0.625
0.625
0.625
0.625
0.625
0.625
0.625
0.625
0.625
0.625
0.625
0.625
0.625
0.625
0.625
0.625
0.625
0.625
0.625
0.625
0.625
0.625
0.625
0.625
0.625
0.625
0.625
0.625
0.625
0.625
0.625
0.625
0.625
0.625
0.625
0.625
0.625
0.625
0.625
0.625
SCALARS volume double 1
LOOKUP_TABLE default
0.000622944
0.000617027
0.000635945
0.00061919
0.00063078
0.000614457
0.000611109
0.000604492
0.000618972
0.000599119
0.000618645
0.00058237
0.000631558
0.000539568
0.000628179
0.000563468
0.000613875
0.000644194
0.000625933
0.000625308
0.000554104
0.000622854
0.000642999
0.000607973
0.000626047
0.00061363
0.000623745
0.000651646
0.000590988
0.000549064
0.000642722
0.000615593
0.000602265
0.00061463
0.000618878
0.000636001
0.0006508
0.000600301
0.000613139
0.000614657
0.000618349
0.000617639
0.000617129
0.000623449
0.000627854
0.000603882
0.000617801
0.000598526
0.000617304
0.000612972
0.000634268
0.000610942
0.000631985
0.000626357
0.000605715
0.000573275
0.000616751
0.000633306
0.000523579
0.000558409
0.000630879
0.000615464
0.000634381
0.000621834
VECTORS momentum double
-1.09994 0.139236 0 
-0.856534 0.191494 0 
-1.14837 0.134159 0 
-0.868274 0.0667152 0 
-0.835191 0.106952 0 
-0.398784 0.45409 0 
-0.875699 -0.12619 0 
-0.923907 -0.0369482 0 
-0.710654 0.216368 0 
-0.300503 0.36865 0 
-0.743258 0.00765951 0 
-0.502889 -0.0665327 0 
-0.405146 0.34557 0 
-0.0541796 0.00664705 0 
-0.362079 0.109712 0 
-0.148036 0.0989614 0 
-1.31365 -0.172647 0 
-0.791708 -0.115286 0 
-1.23768 0.232739 0 
-1.02842 0.0168152 0 
-0.58393 0.0281727 0 
-0.667146 -0.0183075 0 
-0.907869 -0.171454 0 
-0.898629 -0.135249 0 
-0.756008 0.0541808 0 
-0.379392 -0.284348 0 
-0.900225 0.0566334 0 
-0.59562 -0.306673 0 
-0.183768 -0.144046 0 
-0.101679 -0.00421901 0 
-0.47482 -0.300536 0 
-0.303836 -0.336908 0 
-1.12099 -0.398442 0 
-0.709696 -0.0465004 0 
-1.32154 -0.0097261 0 
-0.806999 -0.341041 0 
-0.868717 -0.385695 0 
-0.56962 -0.545969 0 
-1.03228 -0.0563862 0 
-0.843884 -0.239164 0 
-0.461406 -0.152553 0 
-0.243564 -0.449702 0 
-0.545349 -0.127612 0 
-0.465905 -0.377449 0 
-0.444236 -0.368112 0 
-0.179728 -0.456755 0 
-0.730501 -0.566743 0 
-0.467881 -0.458586 0 
-1.03901 -0.235229 0 
-0.871297 -0.458195 0 
-1.1596 -0.505942 0 
-1.03304 -0.717976 0 
-0.778609 -0.169838 0 
-0.761365 -0.422507 0 
-0.816652 -0.542305 0 
-0.622145 -0.928956 0 
-0.771664 -0.48192 0 
-0.501307 -0.526792 0 
-0.133076 -0.793367 0 
-0.230815 -0.864615 0 
-0.230433 -0.734666 0 
-0.144001 -0.804923 0 
-0.922666 -0.633996 0 
-0.259824 -0.446021 0 
VECTORS body_force double
0 -9.81 0 
0 -9.81 0 
0 -9.81 0 
0 -9.81 0 
0 -9.81 0 
0 -9.81 0 
0 -9.81 0 
0 -9.81 0 
0 -9.81 0 
0 -9.81 0 
0 -9.81 0 
0 -9.81 0 
0 -9.81 0 
0 -9.81 0 
0 -9.81 0 
0 -9.81 0 
0 -9.81 0 
0 -9.81 0 
0 -9.81 0 
0 -9.81 0 
0 -9.81 0 
0 -9.81 0 
0 -9.81 0 
0 -9.81 0 
0 -9.81 0 
0 -9.81 0 
0 -9.81 0 
0 -9.81 0 
0 -9.81 0 
0 -9.81 0 
0 -9.81 0 
0 -9.81 0 
0 -9.81 0 
0 -9.81 0 
0 -9.81 0 
0 -9.81 0 
0 -9.81 0 
0 -9.81 0 
0 -9.81 0 
0 -9.81 0 
0 -9.81 0 
0 -9.81 0 
0 -9.81 0 
0 -9.81 0 
0 -9.81 0 
0 -9.81 0 
0 -9.81 0 
0 -9.81 0 
0 -9.81 0 
0 -9.81 0 
0 -9.81 0 
0 -9.81 0 
0 -9.81 0 
0 -9.81 0 
0 -9.81 0 
0 -9.81 0 
0 -9.81 0 
0 -9.81 0 
0 -9.81 0 
0 -9.81 0 
0 -9.81 0 
0 -9.81 0 
0 -9.81 0 
0 -9.81 0 
TENSORS cauchy_stress double
-423.163 -733.865 0
-733.865 -210.397 0
0 0 0

-2100.91 -1600.66 0
-1600.66 -368.194 0
0 0 0

2112.94 -1287.86 0
-1287.86 1225.57 0
0 0 0

280.69 -2262.96 0
-2262.96 -2076.6 0
0 0 0

272.697 367.732 0
367.732 1497.61 0
0 0 0

1764.52 1041.89 0
1041.89 -5036.32 0
0 0 0

-477.553 2355.23 0
2355.23 -3844.66 0
0 0 0

116.618 -211.936 0
-211.936 -6532.67 0
0 0 0

-2273.21 946.309 0
946.309 409.414 0
0 0 0

568.353 -2845.47 0
-2845.47 -8701.27 0
0 0 0

2671.72 2130.54 0
2130.54 -4637.04 0
0 0 0

-4915.69 -2039.08 0
-2039.08 -8669.9 0
0 0 0

3115.43 -934.674 0
-934.674 -1108.07 0
0 0 0

-16267.5 -5162.7 0
-5162.7 -11998.6 0
0 0 0

6009.57 4694.9 0
4694.9 -5033.88 0
0 0 0

3741.55 59.4485 0
59.4485 -23672.6 0
0 0 0

-552.086 2649.4 0
2649.4 -2901.81 0
0 0 0

206.02 1929.47 0
1929.47 5610.89 0
0 0 0

-1544.06 -845.492 0
-845.492 1830.93 0
0 0 0

-208.689 -2826.52 0
-2826.52 303.442 0
0 0 0

-8013.87 789.205 0
789.205 -15139.9 0
0 0 0

3.87329 2276.34 0
2276.34 -665.44 0
0 0 0

-424.664 -1516.45 0
-1516.45 5884.53 0
0 0 0

-2519.04 1418.29 0
1418.29 -2792.64 0
0 0 0

1170.52 1437.67 0
1437.67 -848.528 0
0 0 0

476.305 -2354.06 0
-2354.06 -4006.83 0
0 0 0

-1646.1 -2485.63 0
-2485.63 1259.52 0
0 0 0

1578.97 412.598 0
412.598 6449.85 0
0 0 0

-2080.3 5372.58 0
5372.58 -8680.31 0
0 0 0

-8690.62 2424.78 0
2424.78 -16220.4 0
0 0 0

3297.33 1677.96 0
1677.96 2079.75 0
0 0 0

2219.26 -2034.21 0
-2034.21 -5135.64 0
0 0 0

-5556.88 3672.89 0
3672.89 -1568.92 0
0 0 0

-2119.06 65.8633 0
65.8633 -1098.45 0
0 0 0

-2604.49 -2310.61 0
-2310.61 711.628 0
0 0 0

-1132.45 -3611.66 0
-3611.66 4488.02 0
0 0 0

3636.28 -102.468 0
-102.468 4142.63 0
0 0 0

-3313.26 3893.62 0
3893.62 -4440.69 0
0 0 0

-3067.35 -1404.38 0
-1404.38 -617.196 0
0 0 0

-4105.99 -2012.94 0
-2012.94 896.983 0
0 0 0

-4524.26 -437.579 0
-437.579 2466.76 0
0 0 0

-460.93 5770.78 0
5770.78 -1817.37 0
0 0 0

-3053.9 -556.136 0
-556.136 616.816 0
0 0 0

-3513.69 -1828.12 0
-1828.12 3035.98 0
0 0 0

-664.679 4850.37 0
4850.37 1540.74 0
0 0 0

-2312.53 -716.674 0
-716.674 -4297.74 0
0 0 0

-2564.14 2549.76 0
2549.76 336.213 0
0 0 0

-3240.84 3469.16 0
3469.16 -5082.7 0
0 0 0

-805.09 -78.1846 0
-78.1846 -1577.62 0
0 0 0

-4558.41 -2284.89 0
-2284.89 821.529 0
0 0 0

1498.13 -564.393 0
-564.393 1332.67 0
0 0 0

-2528.12 -2935.52 0
-2935.52 -1846.65 0
0 0 0

3191.58 665.149 0
665.149 -1054.17 0
0 0 0

-3571.06 -827.027 0
-827.027 3988.11 0
0 0 0

-5105.44 -1918.4 0
-1918.4 -922.04 0
0 0 0

-16543.4 -1570.1 0
-1570.1 -69.1556 0
0 0 0

-5851.03 5443.33 0
5443.33 3295.91 0
0 0 0

1174.21 4154.94 0
4154.94 1364.53 0
0 0 0

-24476.5 4907.67 0
4907.67 -9574.06 0
0 0 0

-16215.5 7503.09 0
7503.09 -5449.8 0
0 0 0

282.386 4557.03 0
4557.03 1518.11 0
0 0 0

-1471.65 3553.5 0
3553.5 -1484.99 0
0 0 0

3658.49 94.463 0
94.463 -793.369 0
0 0 0

4587.92 -2782.58 0
-2782.58 -5564.64 0
0 0 0

TENSORS velocity_gradient double
1.31551 -5.15335 0
3.39803 -0.58457 0
0 0 0

0.547406 -7.48281 0
3.46628 -1.6198 0
0 0 0

-0.166749 -6.5188 0
3.20432 -0.565365 0
0 0 0

-0.0607464 -7.17061 0
4.03662 -0.926733 0
0 0 0

0.324973 -7.52948 0
3.80209 -1.54935 0
0 0 0

0.747693 -7.25534 0
4.09299 -2.447 0
0 0 0

0.898548 -6.98527 0
5.11979 -0.717458 0
0 0 0

1.41199 -7.07812 0
6.37667 -1.05652 0
0 0 0

1.5877 -7.10374 0
5.68477 -2.26306 0
0 0 0

-0.542818 -8.1973 0
6.5914 0.682295 0
0 0 0

1.20505 -7.11078 0
7.9975 -0.80071 0
0 0 0

0.878442 -9.73196 0
8.63629 -0.386426 0
0 0 0

-2.40333 -8.68713 0
6.72957 0.641196 0
0 0 0

-0.0231435 -7.57851 0
5.13764 4.23517 0
0 0 0

0.357779 -9.80605 0
7.48929 -0.549632 0
0 0 0

-0.0249515 -7.58338 0
5.81603 0.66816 0
0 0 0

-0.131204 -6.91988 0
3.13281 0.241475 0
0 0 0

-0.126741 -6.19012 0
3.9621 0.180376 0
0 0 0

-1.70903 -7.08795 0
4.68525 0.725686 0
0 0 0

-1.65017 -6.46109 0
4.96218 0.883128 0
0 0 0

0.774152 -6.08438 0
4.97933 0.299768 0
0 0 0

1.14264 -7.24356 0
6.18323 0.552969 0
0 0 0

-1.8538 -5.87089 0
5.53966 1.05691 0
0 0 0

-2.04385 -6.85783 0
6.18471 1.35251 0
0 0 0

-0.351235 -7.2924 0
7.42821 0.793755 0
0 0 0

-0.355749 -9.85152 0
8.2008 -1.2141 0
0 0 0

-1.97893 -7.24001 0
6.84664 1.59137 0
0 0 0

-1.452 -7.60454 0
7.67652 0.284953 0
0 0 0

0.878684 -9.73512 0
8.80352 -1.20879 0
0 0 0

2.45623 -8.13388 0
8.85794 -3.16292 0
0 0 0

0.873729 -7.40736 0
8.98932 0.0300187 0
0 0 0

2.42473 -9.00407 0
8.98209 -6.71291 0
0 0 0

-1.72152 -6.99135 0
4.65661 0.947172 0
0 0 0

-1.64256 -6.72663 0
4.91731 1.14893 0
0 0 0

-1.12827 -6.7629 0
7.62285 1.20593 0
0 0 0

-0.68194 -6.72891 0
7.94067 1.23014 0
0 0 0

-1.81693 -6.10739 0
5.44558 1.66043 0
0 0 0

-2.03256 -6.53013 0
6.08882 1.88248 0
0 0 0

-1.22033 -6.6984 0
8.00319 1.88163 0
0 0 0

-2.08767 -6.8303 0
7.98473 1.93899 0
0 0 0

-1.93223 -7.11863 0
7.29142 2.18523 0
0 0 0

-1.35681 -6.22662 0
7.93774 1.50762 0
0 0 0

-1.90674 -6.75737 0
8.07742 2.38102 0
0 0 0

-1.35611 -5.8938 0
8.17043 1.93467 0
0 0 0

0.366159 -5.12497 0
7.88038 0.978386 0
0 0 0

1.60659 -8.95662 0
6.94855 -8.91631 0
0 0 0

0.146119 -3.5318 0
7.91813 0.67351 0
0 0 0

1.55565 -6.58537 0
7.24965 -6.47051 0
0 0 0

-1.18245 -6.38117 0
7.58427 1.47776 0
0 0 0

-0.738669 -6.34451 0
7.90027 1.50386 0
0 0 0

-0.307151 -6.10667 0
6.41246 1.71325 0
0 0 0

-0.245114 -6.10467 0
6.55234 1.71777 0
0 0 0

-1.07026 -7.55198 0
8.00696 1.86017 0
0 0 0

-1.95809 -7.67309 0
7.98464 1.85713 0
0 0 0

-2.18953 -10.4892 0
7.29553 2.72717 0
0 0 0

-7.1162 -10.7813 0
8.97409 2.82672 0
0 0 0

-2.80561 -6.07831 0
7.87308 2.29376 0
0 0 0

-1.02851 -5.65656 0
5.56137 2.0073 0
0 0 0

-6.36985 -2.45161 0
7.48136 -0.381501 0
0 0 0

-1.24294 -1.24645 0
3.56959 -1.30103 0
0 0 0

0.0918566 -2.49677 0
1.88454 0.180984 0
0 0 0

-0.811124 -4.13693 0
-0.0510722 -3.09247 0
0 0 0

0.237689 -3.40384 0
1.25842 -1.00054 0
0 0 0

-0.633673 -3.58189 0
0.186501 -1.21957 0
0 0 0

SCALARS active double 1
LOOKUP_TABLE default
1
1
1
1
1
1
1
1
1
1
1
1
1
1
1
1
1
1
1
1
1
1
1
1
1
1
1
1
1
1
1
1
1
1
1
1
1
1
1
1
1
1
1
1
1
1
1
1
1
1
1
1
1
1
1
1
1
1
1
1
1
1
1
1
SCALARS extent double 1
LOOKUP_TABLE default
0.0125
0.0125
0.0125
0.0125
0.0125
0.0125
0.0125
0.0125
0.0125
0.0125
0.0125
0.0125
0.0125
0.0125
0.0125
0.0125
0.0125
0.0125
0.0125
0.0125
0.0125
0.0125
0.0125
0.0125
0.0125
0.0125
0.0125
0.0125
0.0125
0.0125
0.0125
0.0125
0.0125
0.0125
0.0125
0.0125
0.0125
0.0125
0.0125
0.0125
0.0125
0.0125
0.0125
0.0125
0.0125
0.0125
0.0125
0.0125
0.0125
0.0125
0.0125
0.0125
0.0125
0.0125
0.0125
0.0125
0.0125
0.0125
0.0125
0.0125
0.0125
0.0125
0.0125
0.0125
SCALARS pressure double 1
LOOKUP_TABLE default
316.78
1234.55
-1669.26
897.954
-885.155
1635.9
2161.11
3208.03
931.9
4066.46
982.66
6792.79
-1003.68
14133
-487.846
9965.53
1726.95
-2908.46
-143.437
-47.3763
11576.9
330.783
-2729.94
2655.84
-160.995
1765.26
193.292
-4014.41
5380.31
12455.5
-2688.54
1458.19
3562.9
1608.76
946.431
-1677.79
-3889.45
3876.98
1842.27
1604.5
1028.75
1139.15
1218.54
238.854
-438.032
3305.14
1113.96
4161.77
1191.36
1868.44
-1415.4
2187.39
-1068.71
-208.523
3013.74
8306.29
1277.56
-1269.37
17025.3
10832.7
-900.247
1478.32
-1432.56
488.358
SCALARS density double 1
LOOKUP_TABLE default
1003.3
1012.92
982.79
1009.38
990.837
1017.16
1022.73
1033.93
1009.74
1043.2
1010.27
1073.2
989.616
1158.33
994.939
1109.2
1018.12
970.205
998.509
999.507
1127.95
1003.45
972.008
1028.01
998.327
1018.53
1002.01
959.11
1057.55
1138.3
972.426
1015.28
1037.75
1016.87
1009.89
982.702
960.357
1041.14
1019.34
1016.83
1010.76
1011.92
1012.75
1002.49
995.455
1034.97
1011.65
1044.23
1012.47
1019.62
985.388
1023.01
988.947
997.834
1031.84
1090.23
1013.38
986.885
1193.71
1119.25
990.681
1015.49
985.212
1005.09
