# vtk DataFile Version 3.0
Frame: 3, Time: 0.051
ASCII
DATASET UNSTRUCTURED_GRID
POINTS 64 double
0.31501 0.198106 0 
0.314804 0.223134 0 
0.339808 0.197831 0 
0.339536 0.222873 0 
0.314518 0.248168 0 
0.314023 0.273263 0 
0.339153 0.247922 0 
0.338487 0.273058 0 
0.313499 0.298394 0 
0.312976 0.323667 0 
0.337781 0.298244 0 
0.337073 0.323632 0 
0.312491 0.348971 0 
0.312193 0.374328 0 
0.33641 0.349067 0 
0.33597 0.374605 0 
0.364569 0.197446 0 
0.364188 0.222489 0 
0.389266 0.196823 0 
0.388654 0.221814 0 
0.363657 0.247546 0 
0.362741 0.272745 0 
0.387823 0.246836 0 
0.386406 0.272132 0 
0.361783 0.298017 0 
0.360846 0.323569 0 
0.384947 0.297559 0 
0.383602 0.32345 0 
0.359969 0.349183 0 
0.359358 0.374932 0 
0.382354 0.349426 0 
0.381455 0.375544 0 
0.414018 0.19629 0 
0.413159 0.221186 0 
0.439058 0.196081 0 
0.437975 0.220792 0 
0.412 0.246131 0 
0.41001 0.271527 0 
0.436457 0.245568 0 
0.433625 0.271062 0 
0.407976 0.297121 0 
0.406185 0.323385 0 
0.43078 0.296853 0 
0.428482 0.323529 0 
0.40453 0.349774 0 
0.403308 0.376372 0 
0.426382 0.350444 0 
0.424781 0.37798 0 
0.464175 0.196156 0 
0.462926 0.220708 0 
0.48937 0.196911 0 
0.488441 0.221681 0 
0.461015 0.24529 0 
0.456925 0.270663 0 
0.486274 0.246336 0 
0.479635 0.271 0 
0.452946 0.296523 0 
0.449968 0.323621 0 
0.473521 0.296302 0 
0.469561 0.323343 0 
0.447319 0.351188 0 
0.445283 0.380032 0 
0.465915 0.350972 0 
0.462321 0.380031 0 
CELLS 64 128
1 0
1 1
1 2
1 3
1 4
1 5
1 6
1 7
1 8
1 9
1 10
1 11
1 12
1 13
1 14
1 15
1 16
1 17
1 18
1 19
1 20
1 21
1 22
1 23
1 24
1 25
1 26
1 27
1 28
1 29
1 30
1 31
1 32
1 33
1 34
1 35
1 36
1 37
1 38
1 39
1 40
1 41
1 42
1 43
1 44
1 45
1 46
1 47
1 48
1 49
1 50
1 51
1 52
1 53
1 54
1 55
1 56
1 57
1 58
1 59
1 60
1 61
1 62
1 63
CELL_TYPES 64
1
1
1
1
1
1
1
1
1
1
1
1
1
1
1
1
1
1
1
1
1
1
1
1
1
1
1
1
1
1
1
1
1
1
1
1
1
1
1
1
1
1
1
1
1
1
1
1
1
1
1
1
1
1
1
1
1
1
1
1
1
1
1
1
POINT_DATA 64
VECTORS displacement double
0.10251 -0.014394 0 
0.102304 -0.0143656 0 
0.102308 -0.0146693 0 
0.102036 -0.0146275 0 
0.102018 -0.0143318 0 
0.101523 -0.0142366 0 
0.101653 -0.0145781 0 
0.100987 -0.0144424 0 
0.100999 -0.0141058 0 
0.100476 -0.0138328 0 
0.100281 -0.0142559 0 
0.0995733 -0.0138685 0 
0.0999906 -0.0135292 0 
0.0996934 -0.0131724 0 
0.0989099 -0.0134332 0 
0.0984703 -0.0128947 0 
0.102069 -0.0150539 0 
0.101688 -0.0150111 0 
0.101766 -0.0156773 0 
0.101154 -0.0156864 0 
0.101157 -0.0149538 0 
0.100241 -0.0147551 0 
0.100323 -0.0156641 0 
0.0989064 -0.0153676 0 
0.0992831 -0.014483 0 
0.098346 -0.0139309 0 
0.0974473 -0.0149406 0 
0.0961023 -0.0140495 0 
0.0974688 -0.0133167 0 
0.0968582 -0.0125681 0 
0.0948544 -0.013074 0 
0.0939549 -0.011956 0 
0.101518 -0.0162096 0 
0.100659 -0.0163136 0 
0.101558 -0.0164192 0 
0.100475 -0.0167083 0 
0.0994996 -0.0163686 0 
0.09751 -0.0159733 0 
0.0989574 -0.0169322 0 
0.0961247 -0.0164379 0 
0.0954756 -0.0153793 0 
0.0936846 -0.0141149 0 
0.0932799 -0.0156473 0 
0.0909818 -0.0139713 0 
0.09203 -0.0127258 0 
0.0908078 -0.0111276 0 
0.0888821 -0.0120557 0 
0.0872814 -0.00952009 0 
0.101675 -0.0163444 0 
0.100426 -0.0167918 0 
0.10187 -0.0155886 0 
0.100941 -0.0158188 0 
0.0985152 -0.0172101 0 
0.0944248 -0.0168366 0 
0.0987741 -0.0161637 0 
0.0921353 -0.0165 0 
0.0904459 -0.015977 0 
0.0874679 -0.0138793 0 
0.0860206 -0.0161984 0 
0.0820606 -0.0141571 0 
0.0848194 -0.0113123 0 
0.0827827 -0.00746841 0 
0.0784154 -0.0115275 0 
0.0748213 -0.0074689 0 
VECTORS velocity double
1.69464 -0.683629 0 
1.67088 -0.678994 0 
1.67559 -0.725496 0 
1.6567 -0.710542 0 
1.61651 -0.679583 0 
1.52194 -0.665754 0 
1.59628 -0.703645 0 
1.48717 -0.680633 0 
1.42185 -0.646075 0 
1.3217 -0.607172 0 
1.37156 -0.65161 0 
1.25375 -0.604965 0 
1.22544 -0.553738 0 
1.15012 -0.441596 0 
1.13704 -0.534259 0 
1.02976 -0.357355 0 
1.65923 -0.777667 0 
1.64579 -0.754661 0 
1.66122 -0.854686 0 
1.64302 -0.834656 0 
1.5771 -0.742804 0 
1.44129 -0.71195 0 
1.54649 -0.828828 0 
1.3345 -0.790393 0 
1.29798 -0.6738 0 
1.15536 -0.61548 0 
1.11597 -0.740155 0 
0.923185 -0.655705 0 
1.00997 -0.526734 0 
0.853927 -0.305942 0 
0.720882 -0.54399 0 
0.46192 -0.3348 0 
1.654 -0.923528 0 
1.60559 -0.926067 0 
1.662 -0.92892 0 
1.58086 -0.992903 0 
1.46327 -0.942225 0 
1.18045 -0.872265 0 
1.41805 -1.06367 0 
1.20501 -0.88499 0 
0.891558 -0.789248 0 
0.658939 -0.679773 0 
0.993881 -0.694986 0 
0.856071 -0.6064 0 
0.407569 -0.543912 0 
0.0632131 -0.329092 0 
0.706478 -0.462951 0 
0.513824 -0.0908031 0 
1.64057 -0.878044 0 
1.59869 -0.959416 0 
1.52583 -0.634889 0 
1.88661 -0.472693 0 
1.47497 -1.06262 0 
1.30888 -0.849097 0 
1.91521 -0.412054 0 
0.882166 -0.502406 0 
1.17339 -0.592763 0 
1.13534 -0.548912 0 
0.126604 -0.489801 0 
0.054982 -0.584424 0 
1.12008 -0.365816 0 
1.15912 0.346568 0 
-0.192152 -0.58562 0 
-1.1096 -0.213088 0 
SCALARS mass double 1
LOOKUP_TABLE default
0.625
0.625
0.625
0.625
0.625
0.625
0.625
0.625
0.625
0.625
0.625
0.625
0.625
0.625
0.625
0.625
0.625
0.625
0.625
0.625
0.625
0.625
0.625
0.625
0.625
0.625
0.625
0.625
0.625
0.625
0.625
0.625
0.625
0.625
0.625
0.625
0.625
0.625
0.625
0.625
0.625
0.625
0.625
0.625
0.625
0.625
0.625
0.625
0.625
0.625
0.625
0.625
0.625
0.625
0.625
0.625
0.625
0.625
0.625
0.625
0.625
0.625
0.625
0.625
SCALARS volume double 1
LOOKUP_TABLE default
0.000622324
0.000620616
0.00062104
0.000618244
0.000619967
0.000617647
0.00061706
0.000613441
0.000616844
0.000615232
0.000612187
0.000609745
0.000612806
0.00061057
0.000606954
0.000604219
0.000620112
0.000614348
0.000618116
0.000609291
0.000611014
0.00060343
0.000605377
0.000594735
0.000599256
0.000595088
0.000589438
0.000583129
0.000590894
0.000586528
0.00057592
0.000568615
0.000622788
0.000613884
0.000624777
0.000611861
0.000614205
0.000606284
0.000611873
0.000595083
0.000605433
0.000603338
0.000587023
0.000578641
0.000599711
0.000592587
0.000579126
0.000570586
0.000624308
0.000617473
0.000629397
0.000639502
0.000623784
0.000595542
0.000630179
0.000537775
0.000586763
0.00057913
0.000491681
0.000471888
0.00059768
0.000594201
0.000457943
0.000388918
VECTORS momentum double
1.05915 -0.427268 0 
1.0443 -0.424371 0 
1.04724 -0.453435 0 
1.03544 -0.444089 0 
1.01032 -0.424739 0 
0.951215 -0.416096 0 
0.997678 -0.439778 0 
0.929481 -0.425395 0 
0.888656 -0.403797 0 
0.826064 -0.379482 0 
0.857227 -0.407256 0 
0.783591 -0.378103 0 
0.765903 -0.346087 0 
0.718826 -0.275998 0 
0.71065 -0.333912 0 
0.643603 -0.223347 0 
1.03702 -0.486042 0 
1.02862 -0.471663 0 
1.03826 -0.534179 0 
1.02689 -0.52166 0 
0.98569 -0.464253 0 
0.900804 -0.444969 0 
0.966555 -0.518018 0 
0.834062 -0.493996 0 
0.811235 -0.421125 0 
0.7221 -0.384675 0 
0.697482 -0.462597 0 
0.576991 -0.409816 0 
0.631232 -0.329209 0 
0.533704 -0.191214 0 
0.450551 -0.339994 0 
0.2887 -0.20925 0 
1.03375 -0.577205 0 
1.00349 -0.578792 0 
1.03875 -0.580575 0 
0.988035 -0.620565 0 
0.914544 -0.588891 0 
0.73778 -0.545166 0 
0.886282 -0.664795 0 
0.75313 -0.553119 0 
0.557224 -0.49328 0 
0.411837 -0.424858 0 
0.621175 -0.434366 0 
0.535045 -0.379 0 
0.254731 -0.339945 0 
0.0395082 -0.205682 0 
0.441549 -0.289344 0 
0.32114 -0.0567519 0 
1.02536 -0.548778 0 
0.99918 -0.599635 0 
0.953645 -0.396806 0 
1.17913 -0.295433 0 
0.921857 -0.664135 0 
0.81805 -0.530685 0 
1.19701 -0.257534 0 
0.551354 -0.314004 0 
0.733369 -0.370477 0 
0.709585 -0.34307 0 
0.0791276 -0.306126 0 
0.0343637 -0.365265 0 
0.700049 -0.228635 0 
0.724452 0.216605 0 
-0.120095 -0.366013 0 
-0.693499 -0.13318 0 
VECTORS body_force double
0 -9.81 0 
0 -9.81 0 
0 -9.81 0 
0 -9.81 0 
0 -9.81 0 
0 -9.81 0 
0 -9.81 0 
0 -9.81 0 
0 -9.81 0 
0 -9.81 0 
0 -9.81 0 
0 -9.81 0 
0 -9.81 0 
0 -9.81 0 
0 -9.81 0 
0 -9.81 0 
0 -9.81 0 
0 -9.81 0 
0 -9.81 0 
0 -9.81 0 
0 -9.81 0 
0 -9.81 0 
0 -9.81 0 
0 -9.81 0 
0 -9.81 0 
0 -9.81 0 
0 -9.81 0 
0 -9.81 0 
0 -9.81 0 
0 -9.81 0 
0 -9.81 0 
0 -9.81 0 
0 -9.81 0 
0 -9.81 0 
0 -9.81 0 
0 -9.81 0 
0 -9.81 0 
0 -9.81 0 
0 -9.81 0 
0 -9.81 0 
0 -9.81 0 
0 -9.81 0 
0 -9.81 0 
0 -9.81 0 
0 -9.81 0 
0 -9.81 0 
0 -9.81 0 
0 -9.81 0 
0 -9.81 0 
0 -9.81 0 
0 -9.81 0 
0 -9.81 0 
0 -9.81 0 
0 -9.81 0 
0 -9.81 0 
0 -9.81 0 
0 -9.81 0 
0 -9.81 0 
0 -9.81 0 
0 -9.81 0 
0 -9.81 0 
0 -9.81 0 
0 -9.81 0 
0 -9.81 0 
TENSORS cauchy_stress double
-717.022 -469.348 0
-469.348 -108.01 0
0 0 0

-1014.49 -703.038 0
-703.038 -339.194 0
0 0 0

-1063.13 -608.584 0
-608.584 -159.108 0
0 0 0

-1559.42 -950.606 0
-950.606 -530.516 0
0 0 0

-1287.55 -913.364 0
-913.364 -267.386 0
0 0 0

-1902.44 -1054.53 0
-1054.53 -373.38 0
0 0 0

-2007.26 -1260.06 0
-1260.06 -451.613 0
0 0 0

-2945.11 -1462.97 0
-1462.97 -644.775 0
0 0 0

-2406.15 -980.65 0
-980.65 -119.881 0
0 0 0

-3009.63 -850.267 0
-850.267 -19.7219 0
0 0 0

-3699.74 -1371.12 0
-1371.12 -283.844 0
0 0 0

-4575.49 -1195.59 0
-1195.59 -176.564 0
0 0 0

-3681.06 -470.673 0
-470.673 -107.923 0
0 0 0

-4256.99 -82.8676 0
-82.8676 -235.045 0
0 0 0

-5469.18 -699.916 0
-699.916 -165.055 0
0 0 0

-6232.56 -205.258 0
-205.258 -270.449 0
0 0 0

-1304.76 -1059.93 0
-1059.93 -205.079 0
0 0 0

-2397.48 -1594.45 0
-1594.45 -908.25 0
0 0 0

-1653.28 -1431.88 0
-1431.88 -476.779 0
0 0 0

-3306.49 -2260.69 0
-2260.69 -1588.87 0
0 0 0

-3437.32 -2066.61 0
-2066.61 -914.983 0
0 0 0

-5349.55 -2290.98 0
-2290.98 -1404.56 0
0 0 0

-4760.24 -3036.98 0
-3036.98 -1374.34 0
0 0 0

-7592.29 -3464.32 0
-3464.32 -1953.01 0
0 0 0

-6966 -2058.47 0
-2058.47 -1123.15 0
0 0 0

-8357.88 -1681.01 0
-1681.01 -1073.22 0
0 0 0

-9973.22 -3075.29 0
-3075.29 -1292.67 0
0 0 0

-12124.6 -2433.97 0
-2433.97 -1210.74 0
0 0 0

-9688.6 -944.586 0
-944.586 -1102.82 0
0 0 0

-10871.9 -358.671 0
-358.671 -1345.78 0
0 0 0

-14282 -1329.35 0
-1329.35 -1445.45 0
0 0 0

-16148.7 -406.54 0
-406.54 -2033.81 0
0 0 0

-472.677 -1087.25 0
-1087.25 -209.208 0
0 0 0

-1940.98 -2227.46 0
-2227.46 -1510.12 0
0 0 0

290.188 -1157.93 0
-1157.93 -358.927 0
0 0 0

-1712.77 -2559.43 0
-2559.43 -2373.05 0
0 0 0

-2794.94 -3397.71 0
-3397.71 -555.483 0
0 0 0

-5306.73 -4008.69 0
-4008.69 -539.985 0
0 0 0

-3048.23 -4585.3 0
-4585.3 -1033.78 0
0 0 0

-8078.35 -5698.14 0
-5698.14 -1354.57 0
0 0 0

-7235.2 -3437.03 0
-3437.03 1118.46 0
0 0 0

-8664.12 -2776.05 0
-2776.05 1880.67 0
0 0 0

-12387.7 -4814.31 0
-4814.31 332.303 0
0 0 0

-15462.6 -3716.58 0
-3716.58 641.602 0
0 0 0

-10237.5 -1580.09 0
-1580.09 2294.29 0
0 0 0

-12008 -486.516 0
-486.516 1766.91 0
0 0 0

-17432.7 -2019.81 0
-2019.81 2772.75 0
0 0 0

-19951.7 -59.5859 0
-59.5859 2434.88 0
0 0 0

483.069 -256.807 0
-256.807 -696.255 0
0 0 0

34.0768 -1255.47 0
-1255.47 -2364.12 0
0 0 0

1093.27 449.32 0
449.32 254.947 0
0 0 0

3911 313.071 0
313.071 500.189 0
0 0 0

185.032 -4281.37 0
-4281.37 -559.641 0
0 0 0

-7562.8 -6949.04 0
-6949.04 -1721.72 0
0 0 0

2864.17 -5849.17 0
-5849.17 -1277.33 0
0 0 0

-18244.6 -11132.5 0
-11132.5 -10661.5 0
0 0 0

-13252.8 -6236.34 0
-6236.34 1112.4 0
0 0 0

-16523 -5009.12 0
-5009.12 1864.52 0
0 0 0

-36038.8 -9684.11 0
-9684.11 -10099.8 0
0 0 0

-43816.2 -8218.97 0
-8218.97 -10224.2 0
0 0 0

-16458.9 -3056.64 0
-3056.64 7863.52 0
0 0 0

-18040.5 -976.067 0
-976.067 8322.51 0
0 0 0

-52061.5 -9146.98 0
-9146.98 -7747.48 0
0 0 0

-75202 -10188 0
-10188 -16025.6 0
0 0 0

TENSORS velocity_gradient double
-0.401412 -0.158545 0
-1.16588 0.295014 0
0 0 0

-0.49008 -1.91711 0
-0.991705 0.17832 0
0 0 0

-0.402638 0.0921582 0
-1.16752 0.460495 0
0 0 0

-0.488384 -2.09394 0
-0.99339 0.354059 0
0 0 0

-0.710751 -2.85589 0
-0.80529 0.479224 0
0 0 0

-1.23973 -4.20555 0
-0.554753 0.912263 0
0 0 0

-0.707283 -3.14808 0
-0.807281 0.673575 0
0 0 0

-1.23521 -4.78129 0
-0.556767 1.16922 0
0 0 0

-1.85664 -4.26179 0
-0.274803 1.52979 0
0 0 0

-2.66853 -4.3379 0
0.125304 2.37026 0
0 0 0

-1.85255 -4.93339 0
-0.276753 1.83101 0
0 0 0

-2.66723 -5.15078 0
0.124657 2.77525 0
0 0 0

-3.50333 -3.33723 0
0.583023 2.49942 0
0 0 0

-4.24396 -2.17181 0
1.27054 2.65167 0
0 0 0

-3.50588 -4.07441 0
0.584885 3.03843 0
0 0 0

-4.25102 -2.85507 0
1.27764 3.33912 0
0 0 0

-0.527181 0.2336 0
-2.74417 0.531705 0
0 0 0

-1.10911 -2.55297 0
-2.75745 0.43431 0
0 0 0

-0.521759 0.368337 0
-2.74377 0.518209 0
0 0 0

-1.09112 -3.27808 0
-2.75718 0.423474 0
0 0 0

-1.94144 -3.77431 0
-2.70876 0.865724 0
0 0 0

-3.53256 -5.87502 0
-2.16366 1.59804 0
0 0 0

-1.90952 -4.61879 0
-2.71693 0.992811 0
0 0 0

-3.49363 -7.52635 0
-2.17811 2.21091 0
0 0 0

-5.23404 -5.94286 0
-1.4826 2.30216 0
0 0 0

-6.54135 -6.09533 0
-0.561981 3.38183 0
0 0 0

-5.20923 -7.37137 0
-1.49604 2.94333 0
0 0 0

-6.53628 -7.1982 0
-0.565978 4.25092 0
0 0 0

-7.75301 -4.9226 0
0.309041 3.57432 0
0 0 0

-8.85683 -3.6444 0
0.547512 3.81515 0
0 0 0

-7.76363 -5.89857 0
0.314092 4.07307 0
0 0 0

-8.88209 -4.58709 0
0.550557 3.92876 0
0 0 0

0.0764952 0.320056 0
-0.0660444 0.442566 0
0 0 0

-0.498852 -3.93998 0
-0.491 0.175455 0
0 0 0

0.0809528 -0.0863963 0
-0.0638753 0.314807 0
0 0 0

-0.489639 -4.5378 0
-0.48301 -0.343011 0
0 0 0

-1.12704 -5.23711 0
-0.883196 0.981102 0
0 0 0

-2.09037 -8.92369 0
0.224227 3.10508 0
0 0 0

-1.1094 -5.69736 0
-0.893274 0.759266 0
0 0 0

-2.07112 -9.89728 0
0.197023 4.4809 0
0 0 0

-2.98981 -8.50835 0
1.61476 3.65395 0
0 0 0

-2.74489 -7.82442 0
1.94383 4.96584 0
0 0 0

-2.98848 -8.96498 0
1.60401 4.61992 0
0 0 0

-2.45013 -7.13753 0
2.13847 5.26046 0
0 0 0

-2.81207 -6.4895 0
2.16051 4.58557 0
0 0 0

-3.31319 -5.25443 0
2.89013 4.23975 0
0 0 0

-1.64271 -5.94153 0
2.60701 5.26661 0
0 0 0

-1.16313 -5.0125 0
3.85093 5.2182 0
0 0 0

-0.201249 -0.240337 0
4.72683 0.624123 0
0 0 0

1.36346 -3.92567 0
6.26132 0.20988 0
0 0 0

-0.180503 -0.142805 0
4.75497 1.43654 0
0 0 0

1.43049 -1.8215 0
6.32102 2.08407 0
0 0 0

3.04642 -5.69844 0
7.88874 0.963996 0
0 0 0

-0.838338 -11.8719 0
6.40675 5.01513 0
0 0 0

2.99247 -6.0958 0
7.88647 2.14392 0
0 0 0

-0.827322 -16.6071 0
6.64932 3.25499 0
0 0 0

-5.0402 -10.22 0
3.51098 4.98942 0
0 0 0

-5.85129 -6.91378 0
1.35121 5.03511 0
0 0 0

-6.02304 -13.9538 0
4.5182 3.21434 0
0 0 0

-10.1116 -9.0655 0
0.404174 2.34632 0
0 0 0

-4.81619 -5.79186 0
1.00405 5.74996 0
0 0 0

-3.203 -4.88753 0
2.90668 6.12986 0
0 0 0

-14.7154 -9.40394 0
-4.03276 3.96407 0
0 0 0

-24.0816 -8.76681 0
-7.57968 5.02816 0
0 0 0

SCALARS active double 1
LOOKUP_TABLE default
1
1
1
1
1
1
1
1
1
1
1
1
1
1
1
1
1
1
1
1
1
1
1
1
1
1
1
1
1
1
1
1
1
1
1
1
1
1
1
1
1
1
1
1
1
1
1
1
1
1
1
1
1
1
1
1
1
1
1
1
1
1
1
1
SCALARS extent double 1
LOOKUP_TABLE default
0.0125
0.0125
0.0125
0.0125
0.0125
0.0125
0.0125
0.0125
0.0125
0.0125
0.0125
0.0125
0.0125
0.0125
0.0125
0.0125
0.0125
0.0125
0.0125
0.0125
0.0125
0.0125
0.0125
0.0125
0.0125
0.0125
0.0125
0.0125
0.0125
0.0125
0.0125
0.0125
0.0125
0.0125
0.0125
0.0125
0.0125
0.0125
0.0125
0.0125
0.0125
0.0125
0.0125
0.0125
0.0125
0.0125
0.0125
0.0125
0.0125
0.0125
0.0125
0.0125
0.0125
0.0125
0.0125
0.0125
0.0125
0.0125
0.0125
0.0125
0.0125
0.0125
0.0125
0.0125
SCALARS pressure double 1
LOOKUP_TABLE default
412.516
676.844
611.119
1044.97
777.469
1137.91
1229.44
1794.94
1263.02
1514.68
1991.79
2376.03
1894.49
2246.01
2817.12
3251.5
754.921
1652.86
1065.03
2447.68
2176.15
3377.06
3067.29
4772.65
4044.57
4715.55
5632.94
6667.69
5395.71
6108.83
7863.71
9091.24
340.943
1725.55
34.3695
2042.91
1675.21
2923.36
2041
4716.46
3058.37
3391.72
6027.72
7410.5
3971.6
5120.55
7329.99
8758.43
106.593
1165.02
-674.11
-2205.6
187.305
4642.26
-793.422
14453
6070.2
7329.24
23069.3
27020.2
4297.68
4859.02
29904.5
45613.8
SCALARS density double 1
LOOKUP_TABLE default
1004.3
1007.06
1006.38
1010.93
1008.12
1011.9
1012.87
1018.84
1013.22
1015.88
1020.93
1025.02
1019.9
1023.63
1029.73
1034.39
1007.88
1017.34
1011.14
1025.78
1022.89
1035.75
1032.41
1050.89
1042.96
1050.26
1060.33
1071.8
1057.72
1065.59
1085.22
1099.16
1003.55
1018.11
1000.36
1021.47
1017.57
1030.87
1021.45
1050.27
1032.32
1035.9
1064.69
1080.12
1042.17
1054.7
1079.21
1095.37
1001.11
1012.19
993.014
977.323
1001.95
1049.46
991.782
1162.2
1065.17
1079.2
1271.15
1324.47
1045.71
1051.83
1364.8
1607.02
