# vtk DataFile Version 3.0
Frame: 2, Time: 0.034
ASCII
DATASET UNSTRUCTURED_GRID
POINTS 64 double
0.544286 0.306046 0 
0.544118 0.33122 0 
0.568142 0.306139 0 
0.568084 0.331253 0 
0.543903 0.356358 0 
0.543567 0.381405 0 
0.56801 0.356344 0 
0.567892 0.381371 0 
0.543215 0.406433 0 
0.542832 0.431411 0 
0.567773 0.406388 0 
0.56765 0.431378 0 
0.542547 0.456386 0 
0.54252 0.481358 0 
0.567553 0.456366 0 
0.567523 0.481348 0 
0.592779 0.306256 0 
0.592752 0.331296 0 
0.617631 0.306295 0 
0.617618 0.33131 0 
0.592719 0.356328 0 
0.592669 0.38134 0 
0.617602 0.356323 0 
0.617579 0.381329 0 
0.592618 0.406348 0 
0.592568 0.431344 0 
0.617556 0.406333 0 
0.617534 0.431331 0 
0.592528 0.456339 0 
0.592516 0.481334 0 
0.617516 0.456329 0 
0.61751 0.481327 0 
0.642547 0.306311 0 
0.642543 0.331317 0 
0.667519 0.306317 0 
0.667517 0.331319 0 
0.642537 0.356321 0 
0.642529 0.381323 0 
0.667515 0.35632 0 
0.667512 0.381321 0 
0.642521 0.406324 0 
0.642513 0.431324 0 
0.667509 0.406322 0 
0.667506 0.431321 0 
0.642507 0.456323 0 
0.642504 0.481323 0 
0.667503 0.456321 0 
0.667502 0.481321 0 
0.692506 0.306319 0 
0.692505 0.331319 0 
0.717502 0.306319 0 
0.717502 0.33132 0 
0.692504 0.35632 0 
0.692504 0.38132 0 
0.717502 0.35632 0 
0.717501 0.38132 0 
0.692503 0.40632 0 
0.692502 0.43132 0 
0.717501 0.40632 0 
0.717501 0.43132 0 
0.692501 0.45632 0 
0.692501 0.48132 0 
0.7175 0.45632 0 
0.7175 0.48132 0 
CELLS 64 128
1 0
1 1
1 2
1 3
1 4
1 5
1 6
1 7
1 8
1 9
1 10
1 11
1 12
1 13
1 14
1 15
1 16
1 17
1 18
1 19
1 20
1 21
1 22
1 23
1 24
1 25
1 26
1 27
1 28
1 29
1 30
1 31
1 32
1 33
1 34
1 35
1 36
1 37
1 38
1 39
1 40
1 41
1 42
1 43
1 44
1 45
1 46
1 47
1 48
1 49
1 50
1 51
1 52
1 53
1 54
1 55
1 56
1 57
1 58
1 59
1 60
1 61
1 62
1 63
CELL_TYPES 64
1
1
1
1
1
1
1
1
1
1
1
1
1
1
1
1
1
1
1
1
1
1
1
1
1
1
1
1
1
1
1
1
1
1
1
1
1
1
1
1
1
1
1
1
1
1
1
1
1
1
1
1
1
1
1
1
1
1
1
1
1
1
1
1
POINT_DATA 64
VECTORS displacement double
-0.0682141 -0.00645413 0 
-0.0683816 -0.00628049 0 
-0.0693575 -0.00636124 0 
-0.0694157 -0.00624665 0 
-0.0685967 -0.00614227 0 
-0.068933 -0.00609498 0 
-0.0694904 -0.00615635 0 
-0.0696078 -0.00612888 0 
-0.0692847 -0.00606686 0 
-0.0696678 -0.00608935 0 
-0.0697269 -0.00611175 0 
-0.0698497 -0.00612173 0 
-0.0699528 -0.00611373 0 
-0.0699798 -0.00614217 0 
-0.0699467 -0.00613406 0 
-0.0699765 -0.00615244 0 
-0.0697211 -0.00624355 0 
-0.0697479 -0.00620405 0 
-0.0698689 -0.00620546 0 
-0.069882 -0.00618978 0 
-0.0697813 -0.00617206 0 
-0.0698314 -0.00615967 0 
-0.0698979 -0.00617681 0 
-0.069921 -0.00617093 0 
-0.0698815 -0.00615183 0 
-0.0699318 -0.00615596 0 
-0.069944 -0.00616718 0 
-0.0699664 -0.00616904 0 
-0.0699716 -0.00616051 0 
-0.0699844 -0.00616614 0 
-0.0699843 -0.0061709 0 
-0.0699903 -0.00617277 0 
-0.0699529 -0.00618862 0 
-0.0699575 -0.00618316 0 
-0.0699808 -0.00618336 0 
-0.0699826 -0.00618123 0 
-0.069963 -0.00617869 0 
-0.0699711 -0.00617683 0 
-0.0699848 -0.00617951 0 
-0.069988 -0.00617886 0 
-0.0699791 -0.00617564 0 
-0.069987 -0.00617624 0 
-0.0699912 -0.00617846 0 
-0.0699943 -0.00617867 0 
-0.0699933 -0.00617682 0 
-0.0699955 -0.00617736 0 
-0.0699968 -0.00617886 0 
-0.0699978 -0.00617902 0 
-0.0699944 -0.00618131 0 
-0.0699949 -0.00618061 0 
-0.069998 -0.00618068 0 
-0.0699982 -0.00618042 0 
-0.0699955 -0.00618005 0 
-0.0699964 -0.00617984 0 
-0.0699984 -0.00618021 0 
-0.0699987 -0.00618013 0 
-0.0699973 -0.0061797 0 
-0.0699982 -0.00617976 0 
-0.069999 -0.00618007 0 
-0.0699993 -0.00618009 0 
-0.069999 -0.00617982 0 
-0.0699992 -0.00617985 0 
-0.0699996 -0.00618011 0 
-0.0699997 -0.00618011 0 
VECTORS velocity double
-1.08451 -0.512525 0 
-1.17289 -0.397526 0 
-1.88347 -0.452409 0 
-1.89361 -0.378232 0 
-1.28555 -0.308868 0 
-1.45957 -0.28709 0 
-1.90639 -0.322064 0 
-1.92607 -0.312123 0 
-1.64668 -0.275483 0 
-1.86072 -0.290685 0 
-1.94636 -0.306362 0 
-1.96829 -0.311428 0 
-2.01328 -0.307478 0 
-2.00403 -0.327646 0 
-1.98628 -0.31865 0 
-1.99382 -0.331396 0 
-1.90165 -0.37191 0 
-1.91202 -0.352179 0 
-1.94326 -0.351748 0 
-1.94958 -0.34576 0 
-1.92434 -0.336874 0 
-1.94153 -0.333021 0 
-1.95694 -0.340977 0 
-1.96686 -0.339302 0 
-1.95883 -0.330753 0 
-1.97636 -0.332616 0 
-1.97676 -0.338308 0 
-1.98657 -0.339084 0 
-1.99019 -0.334783 0 
-1.99464 -0.337728 0 
-1.99423 -0.339808 0 
-1.99652 -0.340385 0 
-1.98416 -0.346986 0 
-1.98592 -0.34436 0 
-1.99465 -0.345069 0 
-1.99522 -0.343814 0 
-1.98792 -0.342302 0 
-1.99055 -0.341733 0 
-1.99586 -0.342844 0 
-1.99668 -0.342628 0 
-1.99317 -0.341393 0 
-1.99577 -0.341655 0 
-1.99751 -0.342499 0 
-1.99834 -0.3426 0 
-1.99783 -0.341893 0 
-1.9985 -0.342065 0 
-1.99901 -0.342689 0 
-1.99926 -0.342745 0 
-1.99802 -0.343909 0 
-1.99822 -0.343503 0 
-1.99913 -0.343548 0 
-1.99921 -0.343404 0 
-1.99845 -0.34319 0 
-1.99875 -0.343119 0 
-1.99931 -0.343292 0 
-1.99944 -0.343266 0 
-1.99906 -0.343077 0 
-1.99936 -0.343108 0 
-1.99957 -0.343249 0 
-1.99971 -0.34326 0 
-1.99961 -0.343132 0 
-1.9997 -0.343138 0 
-1.99981 -0.343267 0 
-1.99985 -0.343264 0 
SCALARS mass double 1
LOOKUP_TABLE default
0.625
0.625
0.625
0.625
0.625
0.625
0.625
0.625
0.625
0.625
0.625
0.625
0.625
0.625
0.625
0.625
0.625
0.625
0.625
0.625
0.625
0.625
0.625
0.625
0.625
0.625
0.625
0.625
0.625
0.625
0.625
0.625
0.625
0.625
0.625
0.625
0.625
0.625
0.625
0.625
0.625
0.625
0.625
0.625
0.625
0.625
0.625
0.625
0.625
0.625
0.625
0.625
0.625
0.625
0.625
0.625
0.625
0.625
0.625
0.625
0.625
0.625
0.625
0.625
SCALARS volume double 1
LOOKUP_TABLE default
0.000547753
0.000555364
0.000618421
0.000619235
0.000562343
0.000577693
0.000618151
0.000619895
0.000592954
0.000612712
0.000620748
0.000622625
0.000626828
0.000625221
0.000623898
0.00062434
0.000617918
0.00061861
0.000623168
0.000623393
0.000618849
0.000620337
0.000623422
0.000623821
0.000621451
0.00062306
0.000624023
0.000624411
0.000624298
0.000624676
0.000624718
0.000624817
0.000623408
0.000623585
0.0006247
0.000624733
0.000623709
0.000624017
0.000624736
0.000624796
0.000624261
0.000624557
0.000624835
0.000624893
0.000624794
0.000624871
0.000624941
0.000624959
0.000624723
0.00062475
0.000624982
0.000624984
0.000624772
0.000624822
0.000624982
0.000624986
0.000624865
0.000624913
0.000624988
0.000624991
0.000624953
0.000624968
0.000624995
0.000624996
VECTORS momentum double
-0.67782 -0.320328 0 
-0.733054 -0.248454 0 
-1.17717 -0.282756 0 
-1.18351 -0.236395 0 
-0.803471 -0.193043 0 
-0.91223 -0.179431 0 
-1.19149 -0.20129 0 
-1.20379 -0.195077 0 
-1.02918 -0.172177 0 
-1.16295 -0.181678 0 
-1.21647 -0.191476 0 
-1.23018 -0.194643 0 
-1.2583 -0.192174 0 
-1.25252 -0.204779 0 
-1.24143 -0.199156 0 
-1.24614 -0.207123 0 
-1.18853 -0.232443 0 
-1.19501 -0.220112 0 
-1.21454 -0.219842 0 
-1.21849 -0.2161 0 
-1.20271 -0.210546 0 
-1.21346 -0.208138 0 
-1.22309 -0.213111 0 
-1.22929 -0.212064 0 
-1.22427 -0.206721 0 
-1.23523 -0.207885 0 
-1.23548 -0.211442 0 
-1.2416 -0.211928 0 
-1.24387 -0.20924 0 
-1.24665 -0.21108 0 
-1.2464 -0.21238 0 
-1.24782 -0.212741 0 
-1.2401 -0.216866 0 
-1.2412 -0.215225 0 
-1.24666 -0.215668 0 
-1.24701 -0.214884 0 
-1.24245 -0.213939 0 
-1.24409 -0.213583 0 
-1.24741 -0.214277 0 
-1.24793 -0.214142 0 
-1.24573 -0.213371 0 
-1.24735 -0.213535 0 
-1.24844 -0.214062 0 
-1.24896 -0.214125 0 
-1.24864 -0.213683 0 
-1.24906 -0.213791 0 
-1.24938 -0.214181 0 
-1.24954 -0.214216 0 
-1.24876 -0.214943 0 
-1.24889 -0.21469 0 
-1.24946 -0.214718 0 
-1.24951 -0.214627 0 
-1.24903 -0.214493 0 
-1.24922 -0.21445 0 
-1.24957 -0.214557 0 
-1.24965 -0.214541 0 
-1.24941 -0.214423 0 
-1.2496 -0.214442 0 
-1.24973 -0.214531 0 
-1.24982 -0.214537 0 
-1.24976 -0.214457 0 
-1.24981 -0.214461 0 
-1.24988 -0.214542 0 
-1.24991 -0.21454 0 
VECTORS body_force double
0 -9.81 0 
0 -9.81 0 
0 -9.81 0 
0 -9.81 0 
0 -9.81 0 
0 -9.81 0 
0 -9.81 0 
0 -9.81 0 
0 -9.81 0 
0 -9.81 0 
0 -9.81 0 
0 -9.81 0 
0 -9.81 0 
0 -9.81 0 
0 -9.81 0 
0 -9.81 0 
0 -9.81 0 
0 -9.81 0 
0 -9.81 0 
0 -9.81 0 
0 -9.81 0 
0 -9.81 0 
0 -9.81 0 
0 -9.81 0 
0 -9.81 0 
0 -9.81 0 
0 -9.81 0 
0 -9.81 0 
0 -9.81 0 
0 -9.81 0 
0 -9.81 0 
0 -9.81 0 
0 -9.81 0 
0 -9.81 0 
0 -9.81 0 
0 -9.81 0 
0 -9.81 0 
0 -9.81 0 
0 -9.81 0 
0 -9.81 0 
0 -9.81 0 
0 -9.81 0 
0 -9.81 0 
0 -9.81 0 
0 -9.81 0 
0 -9.81 0 
0 -9.81 0 
0 -9.81 0 
0 -9.81 0 
0 -9.81 0 
0 -9.81 0 
0 -9.81 0 
0 -9.81 0 
0 -9.81 0 
0 -9.81 0 
0 -9.81 0 
0 -9.81 0 
0 -9.81 0 
0 -9.81 0 
0 -9.81 0 
0 -9.81 0 
0 -9.81 0 
0 -9.81 0 
0 -9.81 0 
TENSORS cauchy_stress double
-18292.1 -269.175 0
-269.175 -7078.7 0
0 0 0

-16434.5 -275.6 0
-275.6 -6282.33 0
0 0 0

-1776.84 99.6689 0
99.6689 -258.046 0
0 0 0

-1599.67 -21.7482 0
-21.7482 -182.297 0
0 0 0

-14362.7 -564.676 0
-564.676 -5952.5 0
0 0 0

-10738 -610.076 0
-610.076 -4398.22 0
0 0 0

-1567.44 -207.511 0
-207.511 -551.714 0
0 0 0

-1188.13 -231.527 0
-231.527 -389.004 0
0 0 0

-7012.48 -689.852 0
-689.852 -3109.69 0
0 0 0

-2599.26 -636.79 0
-636.79 -1219.35 0
0 0 0

-887.817 -253.844 0
-253.844 -424.985 0
0 0 0

-481.375 -244.485 0
-244.485 -250.856 0
0 0 0

480.662 -39.4191 0
-39.4191 80.8833 0
0 0 0

135.187 -39.2844 0
-39.2844 -67.1811 0
0 0 0

-180.935 -88.3446 0
-88.3446 -158.387 0
0 0 0

-85.5917 -67.7553 0
-67.7553 -117.565 0
0 0 0

-1655.71 111.167 0
111.167 -535.765 0
0 0 0

-1504.94 14.2715 0
14.2715 -471.311 0
0 0 0

-443.488 6.83375 0
6.83375 -121.137 0
0 0 0

-394.871 -9.57934 0
-9.57934 -100.299 0
0 0 0

-1369.33 -97.49 0
-97.49 -532.555 0
0 0 0

-1046.14 -118.223 0
-118.223 -393.986 0
0 0 0

-358.292 -38.7045 0
-38.7045 -127.752 0
0 0 0

-272.334 -45.1302 0
-45.1302 -90.9032 0
0 0 0

-753.853 -131.209 0
-131.209 -341.32 0
0 0 0

-405.657 -123.353 0
-123.353 -192.119 0
0 0 0

-204.792 -48.1164 0
-48.1164 -95.9491 0
0 0 0

-121.103 -46.084 0
-46.084 -60.085 0
0 0 0

-133.94 -55.2102 0
-55.2102 -82.1479 0
0 0 0

-52.3669 -38.4885 0
-38.4885 -47.2056 0
0 0 0

-55.0961 -18.712 0
-18.712 -31.8148 0
0 0 0

-33.7102 -16.565 0
-16.565 -22.6504 0
0 0 0

-360.221 15.5522 0
15.5522 -130.367 0
0 0 0

-321.985 1.91285 0
1.91285 -113.983 0
0 0 0

-71.1845 0.510136 0
0.510136 -21.1505 0
0 0 0

-64.0565 -1.77588 0
-1.77588 -18.0956 0
0 0 0

-284.145 -14.9286 0
-14.9286 -113.603 0
0 0 0

-217.63 -20.3561 0
-20.3561 -85.0939 0
0 0 0

-58.7541 -5.81986 0
-5.81986 -22.3592 0
0 0 0

-45.8293 -6.50879 0
-6.50879 -16.8199 0
0 0 0

-157.46 -23.4153 0
-23.4153 -70.1072 0
0 0 0

-93.5736 -21.7559 0
-21.7559 -42.728 0
0 0 0

-34.9789 -6.79215 0
-6.79215 -15.9157 0
0 0 0

-22.4503 -6.55321 0
-6.55321 -10.5463 0
0 0 0

-42.7481 -11.501 0
-11.501 -20.6922 0
0 0 0

-26.0982 -9.7817 0
-9.7817 -13.557 0
0 0 0

-12.2108 -2.98831 0
-2.98831 -5.93971 0
0 0 0

-8.38332 -2.78432 0
-2.78432 -4.29937 0
0 0 0

-61.8879 1.98326 0
1.98326 -23.4505 0
0 0 0

-55.9006 0.0433923 0
0.0433923 -20.8846 0
0 0 0

-4.71733 0.103763 0
0.103763 -0.879138 0
0 0 0

-4.2242 -0.150311 0
-0.150311 -0.667797 0
0 0 0

-49.7298 -2.1421 0
-2.1421 -20.3894 0
0 0 0

-38.9728 -2.73267 0
-2.73267 -15.7792 0
0 0 0

-4.05227 -0.555497 0
-0.555497 -1.3847 0
0 0 0

-3.21795 -0.62531 0
-0.62531 -1.02714 0
0 0 0

-28.9371 -3.06725 0
-3.06725 -12.673 0
0 0 0

-18.5275 -2.87002 0
-2.87002 -8.21182 0
0 0 0

-2.61993 -0.659134 0
-0.659134 -1.21107 0
0 0 0

-1.80474 -0.639394 0
-0.639394 -0.8617 0
0 0 0

-10.0416 -1.72758 0
-1.72758 -4.45414 0
0 0 0

-6.87409 -1.56134 0
-1.56134 -3.09665 0
0 0 0

-1.10968 -0.308734 0
-0.308734 -0.496828 0
0 0 0

-0.860973 -0.30378 0
-0.30378 -0.390238 0
0 0 0

TENSORS velocity_gradient double
-35.2479 -2.4497 0
-0.222113 3.02948 0
0 0 0

-31.807 -2.46018 0
-0.081398 3.03148 0
0 0 0

-7.24081 -1.09002 0
2.14741 2.10738 0
0 0 0

-6.62751 -1.09078 0
0.808437 2.10904 0
0 0 0

-27.2709 -5.1459 0
-0.11035 0.964488 0
0 0 0

-19.6997 -5.18874 0
-0.683258 0.968396 0
0 0 0

-5.81761 -2.20403 0
-0.258761 0.58911 0
0 0 0

-4.46776 -2.2074 0
-0.57986 0.589914 0
0 0 0

-11.8819 -5.41586 0
-0.94358 -0.438229 0
0 0 0

-3.79383 -5.46712 0
-0.317582 -0.442153 0
0 0 0

-3.0873 -2.30108 0
-0.783488 -0.197 0
0 0 0

-1.62313 -2.30491 0
-0.666189 -0.197307 0
0 0 0

1.96508 -0.472529 0
0.141015 -0.514548 0
0 0 0

0.671583 -0.472202 0
0.0909186 -0.514601 0
0 0 0

-0.462202 -0.54817 0
-0.515878 -0.346588 0
0 0 0

-0.131446 -0.548384 0
-0.275188 -0.346743 0
0 0 0

-6.8101 -0.491249 0
2.01461 0.802059 0
0 0 0

-6.23804 -0.49147 0
0.760229 0.802511 0
0 0 0

-1.31651 -0.238451 0
0.358908 0.331057 0
0 0 0

-1.17144 -0.238492 0
0.147993 0.331117 0
0 0 0

-5.48198 -0.882349 0
-0.242704 0.274132 0
0 0 0

-4.21876 -0.883238 0
-0.548531 0.274362 0
0 0 0

-1.0029 -0.390313 0
-0.0303427 0.131657 0
0 0 0

-0.769788 -0.390438 0
-0.119045 0.131705 0
0 0 0

-2.92228 -0.861705 0
-0.744022 -0.08157 0
0 0 0

-1.54279 -0.862667 0
-0.63398 -0.0816512 0
0 0 0

-0.542734 -0.358535 0
-0.177679 -0.0357902 0
0 0 0

-0.332326 -0.358648 0
-0.153673 -0.0358032 0
0 0 0

-0.444049 -0.221651 0
-0.492366 -0.109248 0
0 0 0

-0.129965 -0.221707 0
-0.264966 -0.109286 0
0 0 0

-0.162785 -0.10025 0
-0.129639 -0.034289 0
0 0 0

-0.105611 -0.100258 0
-0.105528 -0.0342924 0
0 0 0

-1.25269 -0.0955318 0
0.339525 0.123407 0
0 0 0

-1.11505 -0.0955393 0
0.139747 0.123417 0
0 0 0

-0.285726 -0.0402102 0
0.0466997 0.0495085 0
0 0 0

-0.257868 -0.0402111 0
0.0147364 0.0495095 0
0 0 0

-0.955055 -0.160447 0
-0.0291762 0.0443142 0
0 0 0

-0.733535 -0.16047 0
-0.113078 0.0443223 0
0 0 0

-0.224633 -0.0690212 0
-0.0114319 0.0156859 0
0 0 0

-0.176604 -0.069024 0
-0.0216536 0.0156865 0
0 0 0

-0.517605 -0.150803 0
-0.1686 -0.0121255 0
0 0 0

-0.317276 -0.150823 0
-0.145919 -0.0121277 0
0 0 0

-0.129122 -0.0662277 0
-0.0283762 -0.00426658 0
0 0 0

-0.0831444 -0.0662304 0
-0.0254709 -0.00426675 0
0 0 0

-0.155741 -0.0437392 0
-0.123199 -0.0105083 0
0 0 0

-0.10119 -0.0437409 0
-0.100403 -0.0105089 0
0 0 0

-0.045767 -0.019817 0
-0.0227016 -0.00301108 0
0 0 0

-0.0320556 -0.0198173 0
-0.0203064 -0.00301112 0
0 0 0

-0.269943 -0.0127458 0
0.0442781 0.0179699 0
0 0 0

-0.243632 -0.0127459 0
0.0139768 0.01797 0
0 0 0

-0.0234893 -0.00449447 0
0.00647999 0.00712144 0
0 0 0

-0.0212591 -0.00449448 0
0.00211544 0.00712145 0
0 0 0

-0.212246 -0.0216707 0
-0.010829 0.00560195 0
0 0 0

-0.166894 -0.0216711 0
-0.0205094 0.00560203 0
0 0 0

-0.0186635 -0.00763121 0
-0.00140922 0.00227213 0
0 0 0

-0.0150627 -0.00763122 0
-0.00262247 0.00227214 0
0 0 0

-0.122055 -0.0208933 0
-0.0268775 -0.00140073 0
0 0 0

-0.0786322 -0.0208937 0
-0.0241293 -0.00140076 0
0 0 0

-0.0114903 -0.00741656 0
-0.00343212 -0.000487721 0
0 0 0

-0.00799633 -0.00741657 0
-0.00313104 -0.000487723 0
0 0 0

-0.0433292 -0.00629609 0
-0.021513 -0.000651399 0
0 0 0

-0.0303782 -0.00629613 0
-0.0192596 -0.000651405 0
0 0 0

-0.00515445 -0.00227287 0
-0.00290083 -6.16553e-05 0
0 0 0

-0.00410723 -0.00227287 0
-0.00286568 -6.16553e-05 0
0 0 0

SCALARS active double 1
LOOKUP_TABLE default
1
1
1
1
1
1
1
1
1
1
1
1
1
1
1
1
1
1
1
1
1
1
1
1
1
1
1
1
1
1
1
1
1
1
1
1
1
1
1
1
1
1
1
1
1
1
1
1
1
1
1
1
1
1
1
1
1
1
1
1
1
1
1
1
SCALARS extent double 1
LOOKUP_TABLE default
0.0125
0.0125
0.0125
0.0125
0.0125
0.0125
0.0125
0.0125
0.0125
0.0125
0.0125
0.0125
0.0125
0.0125
0.0125
0.0125
0.0125
0.0125
0.0125
0.0125
0.0125
0.0125
0.0125
0.0125
0.0125
0.0125
0.0125
0.0125
0.0125
0.0125
0.0125
0.0125
0.0125
0.0125
0.0125
0.0125
0.0125
0.0125
0.0125
0.0125
0.0125
0.0125
0.0125
0.0125
0.0125
0.0125
0.0125
0.0125
0.0125
0.0125
0.0125
0.0125
0.0125
0.0125
0.0125
0.0125
0.0125
0.0125
0.0125
0.0125
0.0125
0.0125
0.0125
0.0125
SCALARS pressure double 1
LOOKUP_TABLE default
12685.4
11358.4
1017.44
890.986
10157.6
7568.1
1059.58
788.568
5061.09
1909.3
656.401
366.116
-280.772
-34.0029
169.661
101.578
1095.74
988.126
282.313
247.585
950.945
720.065
243.022
181.619
547.586
298.888
150.371
90.5938
108.044
49.7862
43.4554
28.1803
245.294
217.984
46.1675
41.076
198.874
151.362
40.5567
31.3246
113.784
68.1508
25.4473
16.4983
31.7202
19.8276
9.07526
6.34134
42.6692
38.3926
2.79823
2.446
35.0596
27.376
2.71849
2.12255
20.8051
13.3697
1.9155
1.33322
7.24786
4.98537
0.803255
0.625605
SCALARS density double 1
LOOKUP_TABLE default
1141.03
1125.39
1010.64
1009.31
1111.42
1081.89
1011.08
1008.23
1054.05
1020.06
1006.85
1003.81
997.084
999.646
1001.77
1001.06
1011.46
1010.33
1002.94
1002.58
1009.94
1007.52
1002.53
1001.89
1005.71
1003.11
1001.57
1000.94
1001.12
1000.52
1000.45
1000.29
1002.55
1002.27
1000.48
1000.43
1002.07
1001.58
1000.42
1000.33
1001.18
1000.71
1000.26
1000.17
1000.33
1000.21
1000.09
1000.07
1000.44
1000.4
1000.03
1000.03
1000.36
1000.28
1000.03
1000.02
1000.22
1000.14
1000.02
1000.01
1000.08
1000.05
1000.01
1000.01
