# vtk DataFile Version 3.0
Frame: 19, Time: 0.323
ASCII
DATASET UNSTRUCTURED_GRID
POINTS 64 double
0.966813 0.0800087 0 
0.946227 0.066958 0 
0.952778 0.102013 0 
0.932998 0.0885028 0 
0.922737 0.0552344 0 
0.901701 0.0440887 0 
0.909619 0.0769271 0 
0.888353 0.0653209 0 
0.876121 0.0353809 0 
0.847572 0.0308521 0 
0.866093 0.0550361 0 
0.840627 0.0492316 0 
0.818954 0.0266669 0 
0.787681 0.021982 0 
0.814195 0.0425878 0 
0.78507 0.0344095 0 
0.938857 0.124209 0 
0.919104 0.110384 0 
0.927186 0.145247 0 
0.906365 0.132376 0 
0.89785 0.0992581 0 
0.876306 0.0870161 0 
0.884333 0.120462 0 
0.862963 0.107527 0 
0.853046 0.0761013 0 
0.829321 0.0688251 0 
0.840841 0.0970718 0 
0.816711 0.0875723 0 
0.804683 0.0601669 0 
0.77757 0.0501693 0 
0.792611 0.0766994 0 
0.767138 0.0657336 0 
0.91313 0.166614 0 
0.892025 0.152899 0 
0.899193 0.188043 0 
0.878255 0.174422 0 
0.870142 0.140917 0 
0.848964 0.128171 0 
0.856841 0.16182 0 
0.835158 0.148863 0 
0.826744 0.116949 0 
0.803994 0.106322 0 
0.81368 0.136616 0 
0.791122 0.125102 0 
0.780489 0.094385 0 
0.755793 0.0822803 0 
0.768154 0.113298 0 
0.745042 0.100727 0 
0.885367 0.208973 0 
0.86439 0.195219 0 
0.871734 0.229757 0 
0.850227 0.216234 0 
0.843254 0.182145 0 
0.821474 0.1696 0 
0.828811 0.202888 0 
0.806988 0.19006 0 
0.800248 0.156917 0 
0.777733 0.144564 0 
0.785933 0.177295 0 
0.764209 0.165306 0 
0.754972 0.132628 0 
0.73269 0.119443 0 
0.741276 0.152811 0 
0.7192 0.139392 0 
CELLS 64 128
1 0
1 1
1 2
1 3
1 4
1 5
1 6
1 7
1 8
1 9
1 10
1 11
1 12
1 13
1 14
1 15
1 16
1 17
1 18
1 19
1 20
1 21
1 22
1 23
1 24
1 25
1 26
1 27
1 28
1 29
1 30
1 31
1 32
1 33
1 34
1 35
1 36
1 37
1 38
1 39
1 40
1 41
1 42
1 43
1 44
1 45
1 46
1 47
1 48
1 49
1 50
1 51
1 52
1 53
1 54
1 55
1 56
1 57
1 58
1 59
1 60
1 61
1 62
1 63
CELL_TYPES 64
1
1
1
1
1
1
1
1
1
1
1
1
1
1
1
1
1
1
1
1
1
1
1
1
1
1
1
1
1
1
1
1
1
1
1
1
1
1
1
1
1
1
1
1
1
1
1
1
1
1
1
1
1
1
1
1
1
1
1
1
1
1
1
1
POINT_DATA 64
VECTORS displacement double
0.354313 -0.232491 0 
0.333727 -0.270542 0 
0.315278 -0.210487 0 
0.295498 -0.248997 0 
0.310237 -0.307266 0 
0.289201 -0.343411 0 
0.272119 -0.285573 0 
0.250853 -0.322179 0 
0.263621 -0.377119 0 
0.235072 -0.406648 0 
0.228593 -0.357464 0 
0.203127 -0.388268 0 
0.206454 -0.435833 0 
0.175181 -0.465518 0 
0.176695 -0.419912 0 
0.14757 -0.453091 0 
0.276357 -0.188291 0 
0.256604 -0.227116 0 
0.239686 -0.167253 0 
0.218865 -0.205124 0 
0.23535 -0.263242 0 
0.213806 -0.300484 0 
0.196833 -0.242038 0 
0.175463 -0.279973 0 
0.190546 -0.336399 0 
0.166821 -0.368675 0 
0.153341 -0.315428 0 
0.129211 -0.349928 0 
0.142183 -0.402333 0 
0.11507 -0.437331 0 
0.105111 -0.385801 0 
0.0796379 -0.421766 0 
0.20063 -0.145886 0 
0.179525 -0.184601 0 
0.161693 -0.124457 0 
0.140755 -0.163078 0 
0.157642 -0.221583 0 
0.136464 -0.259329 0 
0.119341 -0.20068 0 
0.0976582 -0.238637 0 
0.114244 -0.295551 0 
0.091494 -0.331178 0 
0.0761797 -0.275884 0 
0.0536218 -0.312398 0 
0.0679895 -0.368115 0 
0.043293 -0.40522 0 
0.0306539 -0.349202 0 
0.00754234 -0.386773 0 
0.122867 -0.103527 0 
0.10189 -0.142281 0 
0.0842342 -0.082743 0 
0.0627274 -0.121266 0 
0.080754 -0.180355 0 
0.0589738 -0.2179 0 
0.0413112 -0.159612 0 
0.0194884 -0.19744 0 
0.0377477 -0.255583 0 
0.0152329 -0.292936 0 
-0.00156685 -0.235205 0 
-0.0232913 -0.272194 0 
-0.00752766 -0.329872 0 
-0.0298104 -0.368057 0 
-0.0462244 -0.309689 0 
-0.0682998 -0.348108 0 
VECTORS velocity double
1.43208 -0.708577 0 
1.81606 -1.15836 0 
1.03161 -0.872284 0 
1.43323 -1.51359 0 
1.66316 -1.05729 0 
1.61482 -1.2823 0 
1.43922 -1.38866 0 
0.907996 -1.18385 0 
1.6709 -1.06965 0 
1.31952 -0.860421 0 
0.855254 -0.864068 0 
0.710524 -0.548142 0 
1.75601 -0.337105 0 
1.1081 -0.650782 0 
0.590403 0.407999 0 
0.0309224 -0.216973 0 
1.0765 -1.16542 0 
1.15469 -1.3631 0 
1.00422 -0.874684 0 
1.28543 -1.44455 0 
1.47672 -1.40294 0 
1.30138 -1.19233 0 
1.23076 -1.52352 0 
1.17777 -1.46108 0 
1.38177 -1.21189 0 
1.22878 -0.970957 0 
1.26792 -1.31396 0 
1.127 -0.871247 0 
0.920003 -0.233751 0 
0.138888 -0.498397 0 
0.86341 -0.65664 0 
0.260638 -1.27197 0 
0.722383 -1.57035 0 
0.990803 -1.98364 0 
0.651394 -1.4073 0 
0.557529 -1.8552 0 
1.06433 -1.81025 0 
1.13073 -1.59507 0 
0.654578 -1.65467 0 
0.602465 -1.65272 0 
1.15074 -1.47858 0 
0.989887 -1.22792 0 
0.753181 -1.62711 0 
0.595969 -1.57623 0 
0.745116 -1.06137 0 
0.620064 -1.56604 0 
0.409504 -1.22273 0 
0.380269 -1.73654 0 
0.568725 -1.57868 0 
0.818512 -1.82173 0 
0.00202997 -1.73414 0 
0.0869469 -2.20357 0 
0.92335 -1.92899 0 
0.99506 -1.77385 0 
0.220365 -2.17905 0 
0.160102 -2.09128 0 
0.874325 -1.78285 0 
0.656626 -1.83274 0 
0.209547 -2.00156 0 
0.321204 -2.16668 0 
0.705233 -1.46056 0 
0.682979 -2.30631 0 
-0.00147413 -1.82844 0 
0.225215 -2.39244 0 
SCALARS mass double 1
LOOKUP_TABLE default
0.625
0.625
0.625
0.625
0.625
0.625
0.625
0.625
0.625
0.625
0.625
0.625
0.625
0.625
0.625
0.625
0.625
0.625
0.625
0.625
0.625
0.625
0.625
0.625
0.625
0.625
0.625
0.625
0.625
0.625
0.625
0.625
0.625
0.625
0.625
0.625
0.625
0.625
0.625
0.625
0.625
0.625
0.625
0.625
0.625
0.625
0.625
0.625
0.625
0.625
0.625
0.625
0.625
0.625
0.625
0.625
0.625
0.625
0.625
0.625
0.625
0.625
0.625
0.625
SCALARS volume double 1
LOOKUP_TABLE default
0.00062454
0.000628973
0.000632178
0.000620574
0.000611586
0.000556099
0.000608177
0.000611526
0.000466638
0.000428266
0.000602652
0.000580432
0.00038127
0.000316337
0.000552219
0.000480686
0.000611831
0.000622762
0.000624081
0.000611755
0.000598636
0.000599433
0.000615129
0.000602875
0.000582793
0.00055877
0.000601635
0.000560457
0.000524805
0.000525448
0.000536254
0.000522254
0.000622694
0.000624802
0.000628765
0.000607303
0.000605469
0.000589792
0.000608473
0.000611919
0.000577635
0.000576352
0.000598404
0.000579521
0.000586255
0.000552811
0.000578161
0.000571581
0.000616608
0.000618134
0.000628446
0.000618729
0.000611155
0.000607634
0.00062971
0.000609624
0.000603834
0.000608057
0.000608328
0.000617724
0.0005954
0.00058762
0.000622626
0.000629931
VECTORS momentum double
0.895051 -0.44286 0 
1.13504 -0.723972 0 
0.644757 -0.545177 0 
0.89577 -0.945996 0 
1.03948 -0.660805 0 
1.00926 -0.801437 0 
0.89951 -0.867913 0 
0.567497 -0.739906 0 
1.04432 -0.668531 0 
0.824702 -0.537763 0 
0.534534 -0.540043 0 
0.444078 -0.342589 0 
1.09751 -0.210691 0 
0.692563 -0.406739 0 
0.369002 0.255 0 
0.0193265 -0.135608 0 
0.67281 -0.728386 0 
0.721678 -0.851936 0 
0.627639 -0.546678 0 
0.803392 -0.902842 0 
0.922948 -0.876835 0 
0.813362 -0.745209 0 
0.769225 -0.952203 0 
0.736108 -0.913177 0 
0.863603 -0.75743 0 
0.767985 -0.606848 0 
0.792453 -0.821225 0 
0.704377 -0.54453 0 
0.575002 -0.146094 0 
0.0868052 -0.311498 0 
0.539631 -0.4104 0 
0.162899 -0.794984 0 
0.451489 -0.981471 0 
0.619252 -1.23977 0 
0.407121 -0.879559 0 
0.348456 -1.1595 0 
0.665209 -1.13141 0 
0.706706 -0.996922 0 
0.409111 -1.03417 0 
0.376541 -1.03295 0 
0.719214 -0.924115 0 
0.618679 -0.767451 0 
0.470738 -1.01695 0 
0.37248 -0.985146 0 
0.465698 -0.663355 0 
0.38754 -0.978775 0 
0.25594 -0.764204 0 
0.237668 -1.08534 0 
0.355453 -0.986676 0 
0.51157 -1.13858 0 
0.00126873 -1.08384 0 
0.0543418 -1.37723 0 
0.577094 -1.20562 0 
0.621912 -1.10866 0 
0.137728 -1.3619 0 
0.100064 -1.30705 0 
0.546453 -1.11428 0 
0.410392 -1.14547 0 
0.130967 -1.25098 0 
0.200752 -1.35417 0 
0.440771 -0.912851 0 
0.426862 -1.44144 0 
-0.000921332 -1.14278 0 
0.140759 -1.49527 0 
VECTORS body_force double
0 -9.81 0 
0 -9.81 0 
0 -9.81 0 
0 -9.81 0 
0 -9.81 0 
0 -9.81 0 
0 -9.81 0 
0 -9.81 0 
0 -9.81 0 
0 -9.81 0 
0 -9.81 0 
0 -9.81 0 
0 -9.81 0 
0 -9.81 0 
0 -9.81 0 
0 -9.81 0 
0 -9.81 0 
0 -9.81 0 
0 -9.81 0 
0 -9.81 0 
0 -9.81 0 
0 -9.81 0 
0 -9.81 0 
0 -9.81 0 
0 -9.81 0 
0 -9.81 0 
0 -9.81 0 
0 -9.81 0 
0 -9.81 0 
0 -9.81 0 
0 -9.81 0 
0 -9.81 0 
0 -9.81 0 
0 -9.81 0 
0 -9.81 0 
0 -9.81 0 
0 -9.81 0 
0 -9.81 0 
0 -9.81 0 
0 -9.81 0 
0 -9.81 0 
0 -9.81 0 
0 -9.81 0 
0 -9.81 0 
0 -9.81 0 
0 -9.81 0 
0 -9.81 0 
0 -9.81 0 
0 -9.81 0 
0 -9.81 0 
0 -9.81 0 
0 -9.81 0 
0 -9.81 0 
0 -9.81 0 
0 -9.81 0 
0 -9.81 0 
0 -9.81 0 
0 -9.81 0 
0 -9.81 0 
0 -9.81 0 
0 -9.81 0 
0 -9.81 0 
0 -9.81 0 
0 -9.81 0 
TENSORS cauchy_stress double
-758.787 -438.417 0
-438.417 617.102 0
0 0 0

1415.03 -873.328 0
-873.328 -196.538 0
0 0 0

1783.49 -3783.94 0
-3783.94 412.552 0
0 0 0

-835.173 -1729.49 0
-1729.49 -531.582 0
0 0 0

-1536.66 -1380.93 0
-1380.93 -2635.53 0
0 0 0

-4981.08 1007.64 0
1007.64 -17481.4 0
0 0 0

359.262 -4761.04 0
-4761.04 -5606.53 0
0 0 0

-488.712 -5238.57 0
-5238.57 -3702.51 0
0 0 0

-12889.7 7610.29 0
7610.29 -43302.2 0
0 0 0

-13010.5 6230.96 0
6230.96 -59683.3 0
0 0 0

3860.9 -6115.15 0
-6115.15 -10863.3 0
0 0 0

3874.78 -4776.81 0
-4776.81 -18101.4 0
0 0 0

-16102 10119.1 0
10119.1 -78944.7 0
0 0 0

-25260.6 17789.3 0
17789.3 -105690 0
0 0 0

3123.47 1135.05 0
1135.05 -26932.5 0
0 0 0

-2069.42 12246.2 0
12246.2 -48418.5 0
0 0 0

-2954.22 1406.71 0
1406.71 -1141.12 0
0 0 0

-1701.31 -1560.76 0
-1560.76 1011.53 0
0 0 0

1154.2 -1884.89 0
-1884.89 -1437.14 0
0 0 0

-1267.73 -1455.66 0
-1455.66 -2851.5 0
0 0 0

-3980.91 -3503.94 0
-3503.94 -4307.1 0
0 0 0

-2053.7 2710.6 0
2710.6 -5978.51 0
0 0 0

1701.37 -2207.01 0
-2207.01 -4762.99 0
0 0 0

278.494 -3434.53 0
-3434.53 -7209.48 0
0 0 0

-1728.48 -3982.74 0
-3982.74 -11717.6 0
0 0 0

-366.543 -2671.66 0
-2671.66 -21174.7 0
0 0 0

4013.66 -5043.69 0
-5043.69 -11340.8 0
0 0 0

-120.334 422.239 0
422.239 -20841.1 0
0 0 0

-2526.78 4249.84 0
4249.84 -31074 0
0 0 0

40.6151 9136.77 0
9136.77 -33406 0
0 0 0

-1421.9 4170.65 0
4170.65 -28028.9 0
0 0 0

-2588.97 7538.54 0
7538.54 -31949 0
0 0 0

980.623 -193.455 0
-193.455 -1691.42 0
0 0 0

142.65 -2132.03 0
-2132.03 -203.537 0
0 0 0

1414.83 -691.318 0
-691.318 -259.851 0
0 0 0

-2019.96 -1624.83 0
-1624.83 -3503.9 0
0 0 0

-413.664 -1017.02 0
-1017.02 -5691.73 0
0 0 0

-2351.21 -1920.3 0
-1920.3 -8799.09 0
0 0 0

-239.715 242.603 0
242.603 -4914.02 0
0 0 0

-2432.91 -885.084 0
-885.084 -1634.7 0
0 0 0

-2020.46 -865.062 0
-865.062 -13135.1 0
0 0 0

488.956 -243.23 0
-243.23 -16072.1 0
0 0 0

581.624 -2848.73 0
-2848.73 -8944.28 0
0 0 0

-118.085 1707.02 0
1707.02 -14410.6 0
0 0 0

1442.48 2652.29 0
2652.29 -13749.7 0
0 0 0

-3485.9 8091.88 0
8091.88 -20117.2 0
0 0 0

-2417.71 1954.77 0
1954.77 -12562.8 0
0 0 0

-4274.45 5185.14 0
5185.14 -12907.3 0
0 0 0

289.291 -148.27 0
-148.27 -2888.81 0
0 0 0

-334.135 105.386 0
105.386 -1790.12 0
0 0 0

1494.41 -492.61 0
-492.61 -436.979 0
0 0 0

-2016.55 -655.045 0
-655.045 77.2988 0
0 0 0

2402.15 -2697.43 0
-2697.43 -6710.05 0
0 0 0

-72.2963 -724.439 0
-724.439 -5346.81 0
0 0 0

2624.59 -281.568 0
-281.568 -1180.83 0
0 0 0

-1902.78 -1788.9 0
-1788.9 -2887.62 0
0 0 0

303.95 708.009 0
708.009 -6929.51 0
0 0 0

1851.81 -713.168 0
-713.168 -7136.86 0
0 0 0

-1660.25 -1501.15 0
-1501.15 -3539.24 0
0 0 0

3392.12 -915.205 0
-915.205 -5644.01 0
0 0 0

-277.5 822.15 0
822.15 -9052.9 0
0 0 0

-1474.58 3273.61 0
3273.61 -10385.2 0
0 0 0

455.493 1125.4 0
1125.4 -1187.43 0
0 0 0

2520.02 1672.22 0
1672.22 -1008.76 0
0 0 0

TENSORS velocity_gradient double
-2.07487 -5.19443 0
8.7548 0.418879 0
0 0 0

2.45796 -5.64732 0
3.235 -0.437055 0
0 0 0

-1.78143 -6.87046 0
8.00664 -0.138488 0
0 0 0

1.02138 -4.57459 0
4.50563 -1.44841 0
0 0 0

3.93873 -3.66586 0
1.86846 -2.26987 0
0 0 0

4.79861 24.6585 0
-2.79928 -20.9454 0
0 0 0

2.02968 -2.52575 0
3.59416 -3.30048 0
0 0 0

5.09924 -0.62995 0
-6.21513 -5.79872 0
0 0 0

4.75664 24.7166 0
-6.17899 -19.3529 0
0 0 0

3.92989 21.0231 0
-4.33318 -14.709 0
0 0 0

6.0202 1.87032 0
-7.66885 -9.1456 0
0 0 0

5.80215 11.5047 0
-5.80296 -12.6736 0
0 0 0

3.32625 17.5024 0
-3.43103 -11.0216 0
0 0 0

3.48092 13.2475 0
4.53242 -11.2415 0
0 0 0

5.3087 16.8839 0
-5.47592 -10.3836 0
0 0 0

5.45194 12.815 0
7.09884 -11.8047 0
0 0 0

0.589884 -5.67511 0
7.06654 -1.10067 0
0 0 0

0.335512 -6.04269 0
6.1246 -2.46181 0
0 0 0

0.933617 -6.31129 0
8.32353 -2.25422 0
0 0 0

0.83492 -6.26441 0
7.16024 -3.3352 0
0 0 0

1.87846 -4.14495 0
0.00506169 -4.2444 0
0 0 0

3.12673 0.45623 0
-3.11246 -7.50723 0
0 0 0

1.94356 -6.28118 0
0.448448 -5.13674 0
0 0 0

2.01539 -6.16305 0
-0.673577 -6.98208 0
0 0 0

4.91847 2.33796 0
-4.79644 -10.6053 0
0 0 0

6.32943 2.54697 0
-5.36622 -12.1721 0
0 0 0

6.44345 -0.380705 0
-3.83841 -10.6015 0
0 0 0

6.48471 2.44376 0
-4.40849 -12.8086 0
0 0 0

6.52097 2.37587 0
-2.85909 -13.3002 0
0 0 0

7.34615 6.55734 0
9.49369 -12.9506 0
0 0 0

7.36674 2.45099 0
9.03576 -13.264 0
0 0 0

7.54878 2.87393 0
9.49203 -12.2039 0
0 0 0

0.75793 -7.53627 0
7.48537 -2.51844 0
0 0 0

1.82422 -7.24242 0
3.04313 -2.40969 0
0 0 0

1.40734 -7.40131 0
5.19648 -2.00639 0
0 0 0

1.93803 -7.47008 0
4.08689 -2.70901 0
0 0 0

1.82994 -6.20373 0
2.22337 -6.34659 0
0 0 0

4.12047 -5.92377 0
-0.489171 -8.16948 0
0 0 0

1.90033 -7.58814 0
3.45578 -3.70957 0
0 0 0

4.33673 -6.29186 0
0.303395 -6.73207 0
0 0 0

5.75596 -5.01283 0
-2.27126 -10.0572 0
0 0 0

6.38067 -4.02837 0
-0.570581 -11.6862 0
0 0 0

4.86578 -4.43453 0
-0.58222 -11.1545 0
0 0 0

6.33268 -3.6193 0
5.27514 -11.2335 0
0 0 0

7.0575 1.76194 0
8.21992 -12.3639 0
0 0 0

6.67952 3.01106 0
9.61019 -11.6039 0
0 0 0

6.62463 -3.05311 0
6.52499 -8.80963 0
0 0 0

1.49256 -1.05905 0
13.9757 -7.24801 0
0 0 0

1.82788 -8.48409 0
5.45056 -0.470649 0
0 0 0

2.01035 -7.66683 0
5.02454 -2.71969 0
0 0 0

1.34671 -8.17432 0
5.93701 -0.783815 0
0 0 0

1.54624 -7.57085 0
4.3384 -1.36533 0
0 0 0

3.06152 -7.35101 0
1.66149 -4.26091 0
0 0 0

3.53326 -6.53324 0
1.20269 -5.05625 0
0 0 0

2.17574 -6.50529 0
2.48541 -2.59355 0
0 0 0

2.76062 -5.99628 0
1.95414 -5.57848 0
0 0 0

4.6289 -5.64161 0
1.49253 -5.46838 0
0 0 0

5.79106 -3.48522 0
3.22682 -8.66717 0
0 0 0

3.81655 -4.78803 0
0.668406 -4.75969 0
0 0 0

4.61314 -3.3503 0
1.54247 -3.18213 0
0 0 0

5.54109 -2.76749 0
5.11607 -7.38553 0
0 0 0

1.61538 -2.94127 0
11.2103 -4.23613 0
0 0 0

2.74693 -3.38443 0
5.51764 -0.518393 0
0 0 0

1.98167 -3.185 0
8.13245 -2.18806 0
0 0 0

SCALARS active double 1
LOOKUP_TABLE default
1
1
1
1
1
1
1
1
1
1
1
1
1
1
1
1
1
1
1
1
1
1
1
1
1
1
1
1
1
1
1
1
1
1
1
1
1
1
1
1
1
1
1
1
1
1
1
1
1
1
1
1
1
1
1
1
1
1
1
1
1
1
1
1
SCALARS extent double 1
LOOKUP_TABLE default
0.0125
0.0125
0.0125
0.0125
0.0125
0.0125
0.0125
0.0125
0.0125
0.0125
0.0125
0.0125
0.0125
0.0125
0.0125
0.0125
0.0125
0.0125
0.0125
0.0125
0.0125
0.0125
0.0125
0.0125
0.0125
0.0125
0.0125
0.0125
0.0125
0.0125
0.0125
0.0125
0.0125
0.0125
0.0125
0.0125
0.0125
0.0125
0.0125
0.0125
0.0125
0.0125
0.0125
0.0125
0.0125
0.0125
0.0125
0.0125
0.0125
0.0125
0.0125
0.0125
0.0125
0.0125
0.0125
0.0125
0.0125
0.0125
0.0125
0.0125
0.0125
0.0125
0.0125
0.0125
SCALARS pressure double 1
LOOKUP_TABLE default
70.8423
-609.244
-1098.02
683.378
2086.1
11231.3
2623.64
2095.61
28096
36346.9
3501.2
7113.3
47523.4
65475.2
11904.5
25244
2047.67
344.887
141.47
2059.61
4144.01
4016.11
1530.81
3465.49
6723.04
10770.6
3663.56
10480.7
16800.4
16682.7
14725.4
17269
355.397
30.4431
-577.487
2761.93
3052.69
5575.15
2576.87
2033.81
7577.79
7791.6
4181.33
7264.32
6153.61
11801.6
7490.26
8590.85
1299.76
1062.13
-528.718
969.627
2153.95
2709.55
-721.876
2395.2
3312.78
2642.53
2599.74
1125.94
4665.2
5929.87
365.968
-755.63
SCALARS density double 1
LOOKUP_TABLE default
1000.74
993.684
988.646
1007.13
1021.93
1123.9
1027.66
1022.03
1339.37
1459.37
1037.08
1076.78
1639.26
1975.74
1131.8
1300.22
1021.52
1003.59
1001.47
1021.65
1044.04
1042.65
1016.05
1036.7
1072.42
1118.53
1038.84
1115.16
1190.92
1189.46
1165.49
1196.74
1003.7
1000.32
994.012
1029.14
1032.26
1059.7
1027.16
1021.38
1082
1084.41
1044.45
1078.48
1066.09
1130.59
1081.01
1093.46
1013.61
1011.11
994.516
1010.14
1022.65
1028.58
992.521
1025.22
1035.05
1027.86
1027.41
1011.78
1049.71
1063.61
1003.81
992.172
