# vtk DataFile Version 3.0
Frame: 7, Time: 0.119
ASCII
DATASET UNSTRUCTURED_GRID
POINTS 64 double
0.602394 0.251605 0 
0.590996 0.273942 0 
0.626991 0.262744 0 
0.614381 0.283702 0 
0.579578 0.297437 0 
0.566083 0.318243 0 
0.60185 0.308437 0 
0.58852 0.330359 0 
0.553503 0.339919 0 
0.542931 0.362516 0 
0.576404 0.35197 0 
0.565072 0.374156 0 
0.529143 0.38356 0 
0.516605 0.404961 0 
0.550563 0.395724 0 
0.538122 0.417602 0 
0.648955 0.276889 0 
0.634886 0.29706 0 
0.668151 0.291045 0 
0.655187 0.311966 0 
0.622813 0.319863 0 
0.609631 0.341792 0 
0.643601 0.333037 0 
0.63104 0.354251 0 
0.597775 0.364731 0 
0.585611 0.386321 0 
0.619129 0.377104 0 
0.606406 0.399131 0 
0.571398 0.407474 0 
0.559299 0.429644 0 
0.592825 0.420359 0 
0.580747 0.442336 0 
0.689414 0.306139 0 
0.676538 0.327285 0 
0.711725 0.319558 0 
0.698692 0.34046 0 
0.66446 0.348095 0 
0.652106 0.368959 0 
0.685916 0.361737 0 
0.673071 0.383065 0 
0.64016 0.390695 0 
0.627369 0.412039 0 
0.660659 0.404208 0 
0.64847 0.425566 0 
0.614385 0.433418 0 
0.60132 0.455116 0 
0.635672 0.446879 0 
0.621803 0.468104 0 
0.733453 0.332337 0 
0.7207 0.353435 0 
0.754772 0.344464 0 
0.742056 0.366616 0 
0.707981 0.374668 0 
0.694937 0.396092 0 
0.729254 0.388347 0 
0.716226 0.409723 0 
0.682139 0.417682 0 
0.669835 0.43958 0 
0.703213 0.431593 0 
0.691021 0.453281 0 
0.656354 0.460913 0 
0.642368 0.482136 0 
0.676826 0.47453 0 
0.663477 0.495797 0 
CELLS 64 128
1 0
1 1
1 2
1 3
1 4
1 5
1 6
1 7
1 8
1 9
1 10
1 11
1 12
1 13
1 14
1 15
1 16
1 17
1 18
1 19
1 20
1 21
1 22
1 23
1 24
1 25
1 26
1 27
1 28
1 29
1 30
1 31
1 32
1 33
1 34
1 35
1 36
1 37
1 38
1 39
1 40
1 41
1 42
1 43
1 44
1 45
1 46
1 47
1 48
1 49
1 50
1 51
1 52
1 53
1 54
1 55
1 56
1 57
1 58
1 59
1 60
1 61
1 62
1 63
CELL_TYPES 64
1
1
1
1
1
1
1
1
1
1
1
1
1
1
1
1
1
1
1
1
1
1
1
1
1
1
1
1
1
1
1
1
1
1
1
1
1
1
1
1
1
1
1
1
1
1
1
1
1
1
1
1
1
1
1
1
1
1
1
1
1
1
1
1
POINT_DATA 64
VECTORS displacement double
-0.0101065 -0.0608952 0 
-0.0215039 -0.0635581 0 
-0.0105094 -0.0497556 0 
-0.023119 -0.0537982 0 
-0.0329217 -0.0650629 0 
-0.0464168 -0.0692574 0 
-0.0356502 -0.0540628 0 
-0.0489801 -0.0571406 0 
-0.058997 -0.0725807 0 
-0.0695688 -0.0749842 0 
-0.0610957 -0.0605296 0 
-0.072428 -0.0633442 0 
-0.0833571 -0.0789395 0 
-0.0958947 -0.0825386 0 
-0.086937 -0.0667764 0 
-0.0993776 -0.0698981 0 
-0.0135453 -0.0356115 0 
-0.0276144 -0.0404399 0 
-0.0193492 -0.021455 0 
-0.0323127 -0.0255336 0 
-0.0396872 -0.0426368 0 
-0.0528693 -0.0457084 0 
-0.0438993 -0.0294628 0 
-0.0564596 -0.0332495 0 
-0.0647253 -0.0477687 0 
-0.0768887 -0.0511792 0 
-0.068371 -0.0353956 0 
-0.0810937 -0.0383689 0 
-0.0911019 -0.0550261 0 
-0.103201 -0.0578558 0 
-0.094675 -0.0421407 0 
-0.106753 -0.0451639 0 
-0.0230858 -0.00636092 0 
-0.0359624 -0.0102154 0 
-0.0257746 0.00705761 0 
-0.0388081 0.00296025 0 
-0.0480403 -0.0144052 0 
-0.0603945 -0.0185408 0 
-0.0515844 -0.000762853 0 
-0.0644286 -0.00443459 0 
-0.0723397 -0.021805 0 
-0.0851314 -0.0254611 0 
-0.0768405 -0.00829203 0 
-0.0890298 -0.0119339 0 
-0.0981153 -0.0290823 0 
-0.11118 -0.0323839 0 
-0.101828 -0.0156213 0 
-0.115697 -0.0193955 0 
-0.0290475 0.0198373 0 
-0.0418004 0.0159346 0 
-0.0327283 0.0319641 0 
-0.0454439 0.0291155 0 
-0.0545191 0.0121677 0 
-0.0675634 0.00859227 0 
-0.0582458 0.025847 0 
-0.0712738 0.0222227 0 
-0.0803611 0.00518208 0 
-0.092665 0.00208034 0 
-0.0842867 0.0190931 0 
-0.096479 0.0157807 0 
-0.106146 -0.00158748 0 
-0.120132 -0.00536404 0 
-0.110674 0.0120299 0 
-0.124023 0.00829691 0 
VECTORS velocity double
3.32612 -0.944273 0 
2.54773 -1.00285 0 
3.55953 0.484178 0 
2.61122 -0.461118 0 
1.60656 -0.371936 0 
1.34839 -0.837232 0 
1.77915 0.127147 0 
1.5125 -0.275218 0 
1.34893 -0.922396 0 
1.10988 -1.01538 0 
1.17645 -0.686874 0 
0.792985 -0.630071 0 
0.898095 -1.5858 0 
0.400983 -1.75957 0 
0.760268 -0.673628 0 
0.199804 -0.948682 0 
2.25063 -0.253836 0 
0.86294 -0.28572 0 
2.02017 -0.47114 0 
1.14679 -0.0350855 0 
1.20592 -0.0459477 0 
1.47784 -0.366991 0 
1.39667 -0.156204 0 
1.37224 -0.324337 0 
1.04287 -0.810963 0 
0.588032 -0.785194 0 
0.860852 -0.361079 0 
0.62156 -0.344524 0 
0.812844 -0.739464 0 
0.189992 -1.09235 0 
0.967878 -0.482703 0 
0.00799207 -1.00772 0 
1.98101 0.247391 0 
1.48693 0.242024 0 
1.61943 0.354562 0 
1.25199 -0.00936129 0 
1.74985 0.312009 0 
1.25917 -0.0363243 0 
1.37692 0.240957 0 
0.944588 0.0324708 0 
0.637442 -0.244288 0 
0.614069 -0.212472 0 
0.413773 -0.421491 0 
0.443018 -0.344026 0 
0.924328 -0.260248 0 
-0.127183 -0.657132 0 
0.588745 -0.330997 0 
-0.0758214 -0.640822 0 
1.30455 0.225747 0 
0.716495 -0.385296 0 
1.15712 0.784014 0 
0.494784 0.683779 0 
0.81619 -0.192826 0 
0.758427 0.0537724 0 
0.571899 0.683892 0 
0.71365 0.615881 0 
0.435901 -0.206236 0 
0.336822 -0.258289 0 
0.416351 0.200954 0 
0.202146 0.14888 0 
0.485302 -0.439474 0 
0.172238 -1.00083 0 
0.125174 0.345169 0 
-0.132101 -0.206276 0 
SCALARS mass double 1
LOOKUP_TABLE default
0.625
0.625
0.625
0.625
0.625
0.625
0.625
0.625
0.625
0.625
0.625
0.625
0.625
0.625
0.625
0.625
0.625
0.625
0.625
0.625
0.625
0.625
0.625
0.625
0.625
0.625
0.625
0.625
0.625
0.625
0.625
0.625
0.625
0.625
0.625
0.625
0.625
0.625
0.625
0.625
0.625
0.625
0.625
0.625
0.625
0.625
0.625
0.625
0.625
0.625
0.625
0.625
0.625
0.625
0.625
0.625
0.625
0.625
0.625
0.625
0.625
0.625
0.625
0.625
SCALARS volume double 1
LOOKUP_TABLE default
0.000656305
0.00062645
0.00065695
0.000645704
0.000606057
0.000628855
0.000646232
0.000629094
0.000608801
0.000620324
0.000625541
0.000624845
0.000606768
0.000632851
0.000612435
0.000621624
0.000561352
0.000643118
0.000645144
0.00062075
0.000598005
0.00060018
0.000603041
0.000663595
0.000598273
0.000621816
0.000633849
0.000610465
0.000604571
0.000619303
0.000625814
0.000617822
0.000670251
0.000637347
0.000637611
0.000629068
0.000599206
0.000617401
0.000625391
0.000628072
0.000603355
0.000626544
0.000618172
0.000622002
0.000636129
0.000606754
0.000630172
0.000623979
0.000606012
0.000622697
0.000629653
0.00061745
0.000634119
0.000634189
0.000627343
0.000616885
0.000635435
0.000627047
0.00063626
0.000630757
0.000616597
0.000630816
0.000626347
0.000625285
VECTORS momentum double
2.07883 -0.59017 0 
1.59233 -0.626781 0 
2.22471 0.302611 0 
1.63201 -0.288199 0 
1.0041 -0.23246 0 
0.842741 -0.52327 0 
1.11197 0.0794666 0 
0.94531 -0.172011 0 
0.843084 -0.576498 0 
0.693675 -0.63461 0 
0.735279 -0.429296 0 
0.495616 -0.393794 0 
0.56131 -0.991123 0 
0.250615 -1.09973 0 
0.475168 -0.421017 0 
0.124877 -0.592926 0 
1.40664 -0.158648 0 
0.539338 -0.178575 0 
1.26261 -0.294463 0 
0.716741 -0.0219284 0 
0.753701 -0.0287173 0 
0.92365 -0.229369 0 
0.872918 -0.0976274 0 
0.857647 -0.202711 0 
0.651791 -0.506852 0 
0.36752 -0.490746 0 
0.538033 -0.225675 0 
0.388475 -0.215328 0 
0.508028 -0.462165 0 
0.118745 -0.68272 0 
0.604924 -0.301689 0 
0.00499505 -0.629827 0 
1.23813 0.154619 0 
0.92933 0.151265 0 
1.01215 0.221601 0 
0.782491 -0.00585081 0 
1.09366 0.195006 0 
0.786981 -0.0227027 0 
0.860575 0.150598 0 
0.590368 0.0202942 0 
0.398401 -0.15268 0 
0.383793 -0.132795 0 
0.258608 -0.263432 0 
0.276886 -0.215016 0 
0.577705 -0.162655 0 
-0.0794895 -0.410707 0 
0.367966 -0.206873 0 
-0.0473883 -0.400514 0 
0.815342 0.141092 0 
0.447809 -0.24081 0 
0.723198 0.490009 0 
0.30924 0.427362 0 
0.510119 -0.120516 0 
0.474017 0.0336078 0 
0.357437 0.427432 0 
0.446032 0.384926 0 
0.272438 -0.128897 0 
0.210514 -0.161431 0 
0.260219 0.125596 0 
0.126341 0.0930502 0 
0.303313 -0.274671 0 
0.107649 -0.62552 0 
0.078234 0.215731 0 
-0.0825631 -0.128923 0 
VECTORS body_force double
0 -9.81 0 
0 -9.81 0 
0 -9.81 0 
0 -9.81 0 
0 -9.81 0 
0 -9.81 0 
0 -9.81 0 
0 -9.81 0 
0 -9.81 0 
0 -9.81 0 
0 -9.81 0 
0 -9.81 0 
0 -9.81 0 
0 -9.81 0 
0 -9.81 0 
0 -9.81 0 
0 -9.81 0 
0 -9.81 0 
0 -9.81 0 
0 -9.81 0 
0 -9.81 0 
0 -9.81 0 
0 -9.81 0 
0 -9.81 0 
0 -9.81 0 
0 -9.81 0 
0 -9.81 0 
0 -9.81 0 
0 -9.81 0 
0 -9.81 0 
0 -9.81 0 
0 -9.81 0 
0 -9.81 0 
0 -9.81 0 
0 -9.81 0 
0 -9.81 0 
0 -9.81 0 
0 -9.81 0 
0 -9.81 0 
0 -9.81 0 
0 -9.81 0 
0 -9.81 0 
0 -9.81 0 
0 -9.81 0 
0 -9.81 0 
0 -9.81 0 
0 -9.81 0 
0 -9.81 0 
0 -9.81 0 
0 -9.81 0 
0 -9.81 0 
0 -9.81 0 
0 -9.81 0 
0 -9.81 0 
0 -9.81 0 
0 -9.81 0 
0 -9.81 0 
0 -9.81 0 
0 -9.81 0 
0 -9.81 0 
0 -9.81 0 
0 -9.81 0 
0 -9.81 0 
0 -9.81 0 
TENSORS cauchy_stress double
6939.32 -1145.26 0
-1145.26 2459.44 0
0 0 0

3707.25 -3751.25 0
-3751.25 -3261.66 0
0 0 0

6582.65 6801.62 0
6801.62 3005.09 0
0 0 0

2192.89 -2354.81 0
-2354.81 4074.26 0
0 0 0

-698.917 -3744.99 0
-3744.99 -5219.94 0
0 0 0

2950.19 -2759.45 0
-2759.45 -1767.71 0
0 0 0

-358.011 824.928 0
824.928 6782.45 0
0 0 0

106.596 1360.33 0
1360.33 1148.94 0
0 0 0

-183.281 1928.38 0
1928.38 -4866.85 0
0 0 0

1039.94 -1158.53 0
-1158.53 -2484.23 0
0 0 0

-887.997 2905.63 0
2905.63 1054.47 0
0 0 0

-397.976 -2421.17 0
-2421.17 350.251 0
0 0 0

1225.37 -2801.41 0
-2801.41 -6918.62 0
0 0 0

1902.53 -38.2614 0
-38.2614 498.114 0
0 0 0

-1896.74 -1581.68 0
-1581.68 -2008.9 0
0 0 0

-2033.41 -405.417 0
-405.417 991.951 0
0 0 0

-10629.3 -730.412 0
-730.412 -10025.3 0
0 0 0

-1169.97 -931.159 0
-931.159 6665.53 0
0 0 0

1311.34 758.232 0
758.232 4789.05 0
0 0 0

-4489.76 4830.78 0
4830.78 3177.64 0
0 0 0

-6489.67 -1426.68 0
-1426.68 -2001.36 0
0 0 0

-5139.67 -4133.94 0
-4133.94 -2652.98 0
0 0 0

-4548.27 4339.05 0
4339.05 -2329.75 0
0 0 0

2590.38 2023.49 0
2023.49 8932.87 0
0 0 0

-6248.31 309.72 0
309.72 -2156.55 0
0 0 0

-325.652 -2442.33 0
-2442.33 -656.43 0
0 0 0

-2375.67 2564.03 0
2564.03 5079.4 0
0 0 0

-1575.82 -2388.67 0
-2388.67 -2949.41 0
0 0 0

-3584.25 -1396.65 0
-1396.65 -2806.68 0
0 0 0

-176.65 -2075.62 0
-2075.62 -1584.4 0
0 0 0

-1569.93 1485.18 0
1485.18 1820.32 0
0 0 0

-1068.23 -1167.29 0
-1167.29 -1153.15 0
0 0 0

5911.64 1908.38 0
1908.38 7530.73 0
0 0 0

1417.48 3412.67 0
3412.67 2344.7 0
0 0 0

2017.5 1689.33 0
1689.33 1824.08 0
0 0 0

3666.1 -322.529 0
-322.529 -2418.48 0
0 0 0

-6019.43 4607.43 0
4607.43 -2085.62 0
0 0 0

-4261.14 2782.36 0
2782.36 1908.52 0
0 0 0

970.034 808.946 0
808.946 -849.887 0
0 0 0

970.203 936.613 0
936.613 -27.1636 0
0 0 0

-7039.1 2065.15 0
2065.15 260.924 0
0 0 0

752.011 262.718 0
262.718 -277.379 0
0 0 0

-2871.49 3137 0
3137 759.054 0
0 0 0

-1730.49 1759.06 0
1759.06 805.727 0
0 0 0

98.3091 2077.67 0
2077.67 3296.01 0
0 0 0

-2325.87 -3337.72 0
-3337.72 -3371.89 0
0 0 0

201.358 413.791 0
413.791 1383.48 0
0 0 0

-442.511 -979.649 0
-979.649 127.949 0
0 0 0

-5469.07 1339.89 0
1339.89 -463.99 0
0 0 0

-47.9435 1118.52 0
1118.52 -661.948 0
0 0 0

532.351 -274.756 0
-274.756 894.134 0
0 0 0

-567.939 -918.516 0
-918.516 -1769.25 0
0 0 0

-470.247 2452 0
2452 3255.86 0
0 0 0

1170.41 834.419 0
834.419 1636.47 0
0 0 0

28.5082 -438.118 0
-438.118 691.181 0
0 0 0

-451.066 438.06 0
438.06 -2062.16 0
0 0 0

193.232 108.788 0
108.788 2990.91 0
0 0 0

-1493.82 1441.37 0
1441.37 2122.64 0
0 0 0

406.006 1015.78 0
1015.78 3027.73 0
0 0 0

-1404.26 1602.59 0
1602.59 3167.59 0
0 0 0

-1734.79 -1713.02 0
-1713.02 -868.27 0
0 0 0

-982.193 43.0217 0
43.0217 2763.55 0
0 0 0

1202.04 -1336.37 0
-1336.37 -788.036 0
0 0 0

-212.591 886.885 0
886.885 300.345 0
0 0 0

TENSORS velocity_gradient double
-2.97099 -17.044 0
11.4274 3.98883 0
0 0 0

3.20742 -24.1472 0
13.037 6.56609 0
0 0 0

-6.8509 -20.9719 0
5.96247 2.83926 0
0 0 0

-4.27649 -22.4738 0
4.27514 3.82366 0
0 0 0

3.45664 -19.8964 0
9.66099 4.46135 0
0 0 0

2.96835 -10.7591 0
8.3732 -2.48168 0
0 0 0

0.881716 -11.4934 0
6.36996 -3.32664 0
0 0 0

2.57611 -11.4967 0
7.91105 -3.3508 0
0 0 0

2.2095 -10.4376 0
9.32503 -2.36757 0
0 0 0

1.91117 -9.40634 0
13.6875 -1.80199 0
0 0 0

2.02812 -9.94161 0
7.39872 -1.83729 0
0 0 0

2.06059 -9.51317 0
8.05335 -1.79691 0
0 0 0

1.46093 -9.11886 0
12.3775 -0.965574 0
0 0 0

0.938183 -6.73469 0
11.0142 1.08151 0
0 0 0

1.65149 -9.09127 0
10.2127 -1.7743 0
0 0 0

0.544645 -7.41945 0
10.1806 -0.36906 0
0 0 0

-4.45762 -18.2516 0
4.39138 1.3098 0
0 0 0

-2.68593 -16.7371 0
3.5698 1.63685 0
0 0 0

-0.928555 -16.1295 0
4.38625 2.35226 0
0 0 0

-0.973 -7.35133 0
4.29888 1.88626 0
0 0 0

-0.265068 -9.75703 0
5.52355 -1.16681 0
0 0 0

1.98023 -11.0741 0
8.30845 -2.8004 0
0 0 0

1.062 -7.63068 0
7.16955 1.47056 0
0 0 0

2.28293 -11.2114 0
8.74624 -2.55743 0
0 0 0

1.92518 -9.48526 0
7.79078 -0.819244 0
0 0 0

2.11453 -9.42062 0
8.47822 -1.06791 0
0 0 0

0.705981 -10.7225 0
7.04775 -2.01735 0
0 0 0

-0.518395 -9.16861 0
5.63538 -1.62164 0
0 0 0

2.03577 -8.1581 0
8.75609 -1.66432 0
0 0 0

1.66389 -7.95975 0
8.25756 -1.39842 0
0 0 0

1.82363 -8.51641 0
8.4717 -2.14465 0
0 0 0

1.45486 -8.31847 0
7.97734 -1.8793 0
0 0 0

-0.491084 -9.84739 0
4.7223 -0.600625 0
0 0 0

-2.13455 -8.79444 0
2.9783 0.380511 0
0 0 0

-5.82148 -10.3107 0
5.67459 -1.05945 0
0 0 0

-3.68277 -10.3226 0
3.37854 -1.20999 0
0 0 0

-3.43737 -9.35804 0
1.70101 -0.142133 0
0 0 0

-0.907999 -12.6641 0
5.25988 -3.95853 0
0 0 0

-3.0637 -10.5943 0
2.55448 -0.27276 0
0 0 0

-1.50792 -11.513 0
5.23074 -1.85306 0
0 0 0

-0.312245 -12.3211 0
5.94196 -3.75347 0
0 0 0

-0.592982 -7.77917 0
5.22902 -2.25535 0
0 0 0

-0.341606 -7.82196 0
7.3296 -2.213 0
0 0 0

-0.188609 -7.15788 0
6.12944 -2.17022 0
0 0 0

0.103163 -8.19422 0
5.27889 -2.28508 0
0 0 0

0.899489 -4.69639 0
5.91454 -0.637916 0
0 0 0

0.465974 -6.72444 0
5.26394 -2.08389 0
0 0 0

0.48686 -4.65815 0
4.87596 -1.37568 0
0 0 0

-5.28683 -9.38207 0
6.44775 0.283411 0
0 0 0

-4.29648 -8.66406 0
7.57445 1.49751 0
0 0 0

1.04842 -7.6677 0
8.55297 0.923127 0
0 0 0

-3.51655 -6.9198 0
7.96249 2.68684 0
0 0 0

-2.99801 -9.0492 0
8.17653 1.80786 0
0 0 0

-0.685822 -9.37945 0
6.79522 0.474575 0
0 0 0

-2.15723 -7.71106 0
8.52359 2.36022 0
0 0 0

-0.449521 -5.38827 0
8.36725 -1.9984 0
0 0 0

-0.259103 -6.98937 0
7.68758 -1.58833 0
0 0 0

-0.233582 -7.00345 0
8.1154 -1.82431 0
0 0 0

1.20977 -6.51533 0
7.47304 -1.48562 0
0 0 0

-0.326374 -6.03856 0
8.44727 -0.84544 0
0 0 0

-0.449046 -4.9999 0
8.64023 -1.83725 0
0 0 0

0.384042 -4.81006 0
4.54604 -1.86313 0
0 0 0

-0.754584 -5.44239 0
9.15036 -1.14651 0
0 0 0

-1.16194 -5.51349 0
9.56548 -1.07754 0
0 0 0

SCALARS active double 1
LOOKUP_TABLE default
1
1
1
1
1
1
1
1
1
1
1
1
1
1
1
1
1
1
1
1
1
1
1
1
1
1
1
1
1
1
1
1
1
1
1
1
1
1
1
1
1
1
1
1
1
1
1
1
1
1
1
1
1
1
1
1
1
1
1
1
1
1
1
1
SCALARS extent double 1
LOOKUP_TABLE default
0.0125
0.0125
0.0125
0.0125
0.0125
0.0125
0.0125
0.0125
0.0125
0.0125
0.0125
0.0125
0.0125
0.0125
0.0125
0.0125
0.0125
0.0125
0.0125
0.0125
0.0125
0.0125
0.0125
0.0125
0.0125
0.0125
0.0125
0.0125
0.0125
0.0125
0.0125
0.0125
0.0125
0.0125
0.0125
0.0125
0.0125
0.0125
0.0125
0.0125
0.0125
0.0125
0.0125
0.0125
0.0125
0.0125
0.0125
0.0125
0.0125
0.0125
0.0125
0.0125
0.0125
0.0125
0.0125
0.0125
0.0125
0.0125
0.0125
0.0125
0.0125
0.0125
0.0125
0.0125
SCALARS pressure double 1
LOOKUP_TABLE default
-4699.38
-222.796
-4793.87
-3133.58
2959.43
-591.242
-3212.22
-627.765
2525.07
722.143
-83.2351
23.8625
2846.62
-1200.32
1952.82
520.729
10327.3
-2747.78
-3050.2
656.061
4245.51
3896.32
3439.01
-5761.63
4202.43
491.041
-1351.87
2262.61
3195.46
880.525
-125.192
1110.69
-6721.18
-1881.09
-1920.79
-623.806
4052.53
1176.31
-60.0733
-471.519
3389.09
-237.316
1056.22
462.38
-1697.16
2848.88
-792.421
157.281
2966.53
354.946
-713.243
1168.59
-1392.81
-1403.44
-359.845
1256.61
-1592.07
-314.413
-1716.87
-881.662
1301.53
-890.681
-207.001
-43.8768
SCALARS density double 1
LOOKUP_TABLE default
952.302
997.686
951.366
967.936
1031.26
993.87
967.145
993.493
1026.61
1007.54
999.135
1000.25
1030.05
987.594
1020.52
1005.43
1113.38
971.828
968.776
1006.85
1045.14
1041.35
1036.41
941.839
1044.67
1005.12
986.039
1023.81
1033.79
1009.2
998.699
1011.62
932.487
980.627
980.222
993.533
1043.05
1012.31
999.375
995.108
1035.88
997.535
1011.05
1004.82
982.504
1030.07
991.793
1001.64
1031.33
1003.7
992.61
1012.23
985.619
985.51
996.265
1013.15
983.579
996.735
982.303
990.873
1013.63
990.78
997.85
999.544
