# vtk DataFile Version 3.0
Frame: 46, Time: 0.782
ASCII
DATASET UNSTRUCTURED_GRID
POINTS 64 double
0.133744 0.255241 0 
0.154258 0.241804 0 
0.119363 0.234409 0 
0.140715 0.221517 0 
0.174568 0.227831 0 
0.196289 0.214551 0 
0.16098 0.206811 0 
0.1818 0.193417 0 
0.214957 0.200396 0 
0.23469 0.186889 0 
0.201835 0.178805 0 
0.221914 0.165089 0 
0.253338 0.174417 0 
0.271548 0.158786 0 
0.240608 0.151683 0 
0.259995 0.13814 0 
0.105147 0.214419 0 
0.126183 0.199562 0 
0.0916563 0.193102 0 
0.112624 0.179109 0 
0.146599 0.185559 0 
0.167229 0.171517 0 
0.133097 0.164458 0 
0.153779 0.150839 0 
0.187029 0.157941 0 
0.207533 0.144089 0 
0.174008 0.135988 0 
0.194714 0.122345 0 
0.226817 0.129519 0 
0.248358 0.114864 0 
0.216017 0.10771 0 
0.236948 0.0949097 0 
0.0772031 0.172081 0 
0.098531 0.158171 0 
0.0634935 0.151405 0 
0.0845218 0.137163 0 
0.119063 0.143474 0 
0.140118 0.12961 0 
0.104648 0.123426 0 
0.125675 0.109217 0 
0.160327 0.11631 0 
0.180973 0.102508 0 
0.146557 0.0962315 0 
0.166834 0.0826253 0 
0.202429 0.0883359 0 
0.223919 0.0758599 0 
0.18913 0.0688095 0 
0.211095 0.0560943 0 
0.048845 0.130552 0 
0.0703165 0.117268 0 
0.0345635 0.11016 0 
0.0563469 0.09561 0 
0.0902451 0.102652 0 
0.111598 0.089024 0 
0.0758742 0.0806128 0 
0.0973365 0.0682896 0 
0.131722 0.0761227 0 
0.151715 0.0645119 0 
0.116518 0.0553416 0 
0.136094 0.044059 0 
0.17346 0.0509492 0 
0.196133 0.0392291 0 
0.155293 0.0340235 0 
0.174748 0.0259644 0 
CELLS 64 128
1 0
1 1
1 2
1 3
1 4
1 5
1 6
1 7
1 8
1 9
1 10
1 11
1 12
1 13
1 14
1 15
1 16
1 17
1 18
1 19
1 20
1 21
1 22
1 23
1 24
1 25
1 26
1 27
1 28
1 29
1 30
1 31
1 32
1 33
1 34
1 35
1 36
1 37
1 38
1 39
1 40
1 41
1 42
1 43
1 44
1 45
1 46
1 47
1 48
1 49
1 50
1 51
1 52
1 53
1 54
1 55
1 56
1 57
1 58
1 59
1 60
1 61
1 62
1 63
CELL_TYPES 64
1
1
1
1
1
1
1
1
1
1
1
1
1
1
1
1
1
1
1
1
1
1
1
1
1
1
1
1
1
1
1
1
1
1
1
1
1
1
1
1
1
1
1
1
1
1
1
1
1
1
1
1
1
1
1
1
1
1
1
1
1
1
1
1
POINT_DATA 64
VECTORS displacement double
-0.0787561 0.0427413 0 
-0.0582422 0.00430371 0 
-0.118137 0.0219085 0 
-0.0967845 -0.0159829 0 
-0.037932 -0.0346694 0 
-0.0162115 -0.0729488 0 
-0.0765198 -0.0556887 0 
-0.0557004 -0.0940831 0 
0.00245705 -0.112104 0 
0.0221899 -0.150611 0 
-0.0356649 -0.133695 0 
-0.0155864 -0.172411 0 
0.0408382 -0.188083 0 
0.0590478 -0.228714 0 
0.0031077 -0.210817 0 
0.0224951 -0.24936 0 
-0.157353 0.00191888 0 
-0.136317 -0.0379378 0 
-0.195844 -0.0193983 0 
-0.174876 -0.0583909 0 
-0.115901 -0.0769411 0 
-0.0952713 -0.115983 0 
-0.154403 -0.0980421 0 
-0.133721 -0.136661 0 
-0.0754714 -0.154559 0 
-0.0549671 -0.193411 0 
-0.113492 -0.176512 0 
-0.0927857 -0.215155 0 
-0.0356828 -0.232981 0 
-0.0141421 -0.272636 0 
-0.0714834 -0.25479 0 
-0.0505516 -0.29259 0 
-0.235297 -0.0404189 0 
-0.213969 -0.0793294 0 
-0.274007 -0.0610953 0 
-0.252978 -0.100337 0 
-0.193437 -0.119026 0 
-0.172382 -0.15789 0 
-0.232852 -0.139074 0 
-0.211825 -0.178283 0 
-0.152173 -0.19619 0 
-0.131527 -0.234992 0 
-0.190943 -0.216269 0 
-0.170666 -0.254875 0 
-0.110071 -0.274164 0 
-0.0885813 -0.31164 0 
-0.14837 -0.29369 0 
-0.126405 -0.331406 0 
-0.313655 -0.0819483 0 
-0.292183 -0.120232 0 
-0.352937 -0.10234 0 
-0.331153 -0.14189 0 
-0.272255 -0.159848 0 
-0.250902 -0.198476 0 
-0.311626 -0.181887 0 
-0.290163 -0.21921 0 
-0.230778 -0.236377 0 
-0.210785 -0.272988 0 
-0.270982 -0.257158 0 
-0.251406 -0.293441 0 
-0.18904 -0.311551 0 
-0.166367 -0.348271 0 
-0.232207 -0.328477 0 
-0.212752 -0.361536 0 
VECTORS velocity double
-0.404895 -2.34359 0 
-0.326142 -2.14872 0 
-0.28412 -2.74197 0 
-0.0701762 -2.38754 0 
-0.446653 -1.8499 0 
-0.18981 -2.14191 0 
-0.184813 -2.44532 0 
-0.219881 -2.17193 0 
-0.473532 -1.52179 0 
-0.232509 -1.67831 0 
-0.143908 -2.02471 0 
-0.18315 -1.6963 0 
-0.45956 -1.57232 0 
-0.792544 -1.25304 0 
-0.107894 -1.87514 0 
-0.695727 -1.37169 0 
-0.188173 -2.42487 0 
0.255892 -2.22298 0 
-0.218109 -2.82807 0 
-0.0460763 -2.55292 0 
-0.180984 -2.20118 0 
-0.0255124 -2.20547 0 
-0.195457 -2.30881 0 
0.0894267 -2.16293 0 
-0.111219 -2.16357 0 
-0.114309 -2.13518 0 
0.088515 -1.79541 0 
-0.0442596 -1.89053 0 
0.209798 -1.77575 0 
0.454988 -1.83228 0 
0.197975 -1.91895 0 
0.810816 -1.85358 0 
-0.0249617 -2.73658 0 
0.205038 -2.44103 0 
0.0766095 -2.88229 0 
0.297173 -2.44446 0 
0.205835 -2.46116 0 
0.248894 -2.46208 0 
0.173223 -2.4001 0 
0.312614 -2.31285 0 
0.103372 -2.01555 0 
0.279751 -1.94891 0 
0.307697 -2.08246 0 
0.499907 -1.84691 0 
0.502126 -1.89664 0 
0.793341 -1.61003 0 
0.517922 -1.83919 0 
1.03783 -1.5426 0 
0.0652242 -2.84037 0 
0.417452 -2.59809 0 
0.34419 -2.9999 0 
0.462485 -2.74412 0 
0.06586 -2.36902 0 
0.26344 -2.25629 0 
0.39482 -2.70082 0 
0.386484 -2.61361 0 
0.23482 -1.90565 0 
0.243185 -1.2366 0 
0.262092 -2.33904 0 
0.232625 -1.48832 0 
0.397965 -1.03674 0 
1.16697 -1.12547 0 
0.213475 -1.04907 0 
0.771967 -1.18894 0 
SCALARS mass double 1
LOOKUP_TABLE default
0.625
0.625
0.625
0.625
0.625
0.625
0.625
0.625
0.625
0.625
0.625
0.625
0.625
0.625
0.625
0.625
0.625
0.625
0.625
0.625
0.625
0.625
0.625
0.625
0.625
0.625
0.625
0.625
0.625
0.625
0.625
0.625
0.625
0.625
0.625
0.625
0.625
0.625
0.625
0.625
0.625
0.625
0.625
0.625
0.625
0.625
0.625
0.625
0.625
0.625
0.625
0.625
0.625
0.625
0.625
0.625
0.625
0.625
0.625
0.625
0.625
0.625
0.625
0.625
SCALARS volume double 1
LOOKUP_TABLE default
0.000624584
0.000618799
0.000622533
0.000621489
0.000609999
0.000615231
0.000620387
0.000598481
0.000599163
0.000588052
0.000617728
0.000588267
0.000563375
0.00053182
0.000618931
0.000488775
0.000628931
0.000612933
0.000624055
0.00062415
0.000617576
0.000621233
0.000612568
0.000606616
0.000612354
0.000582989
0.000607382
0.000612439
0.000591988
0.000586819
0.000608882
0.000626606
0.000618628
0.000622039
0.000622327
0.000612557
0.000598965
0.000615221
0.000615855
0.000598113
0.000600114
0.000605856
0.00060616
0.000587318
0.000595247
0.000607629
0.000600056
0.000585896
0.000621129
0.000613235
0.000623876
0.000616566
0.000617659
0.000608618
0.000613972
0.000607598
0.00058263
0.000573521
0.000597798
0.000529947
0.000594333
0.000525883
0.000449938
0.000353479
VECTORS momentum double
-0.253059 -1.46475 0 
-0.203839 -1.34295 0 
-0.177575 -1.71373 0 
-0.0438601 -1.49221 0 
-0.279158 -1.15619 0 
-0.118631 -1.33869 0 
-0.115508 -1.52833 0 
-0.137425 -1.35745 0 
-0.295958 -0.951118 0 
-0.145318 -1.04894 0 
-0.0899422 -1.26545 0 
-0.114469 -1.06019 0 
-0.287225 -0.9827 0 
-0.49534 -0.783148 0 
-0.067434 -1.17196 0 
-0.434829 -0.857307 0 
-0.117608 -1.51555 0 
0.159933 -1.38936 0 
-0.136318 -1.76754 0 
-0.0287977 -1.59558 0 
-0.113115 -1.37573 0 
-0.0159453 -1.37842 0 
-0.12216 -1.443 0 
0.0558917 -1.35183 0 
-0.0695118 -1.35223 0 
-0.071443 -1.33449 0 
0.0553219 -1.12213 0 
-0.0276623 -1.18158 0 
0.131124 -1.10984 0 
0.284367 -1.14518 0 
0.123734 -1.19934 0 
0.50676 -1.15848 0 
-0.0156011 -1.71036 0 
0.128149 -1.52564 0 
0.047881 -1.80143 0 
0.185733 -1.52779 0 
0.128647 -1.53823 0 
0.155559 -1.5388 0 
0.108264 -1.50007 0 
0.195384 -1.44553 0 
0.0646077 -1.25972 0 
0.174845 -1.21807 0 
0.19231 -1.30154 0 
0.312442 -1.15432 0 
0.313829 -1.1854 0 
0.495838 -1.00627 0 
0.323701 -1.14949 0 
0.648647 -0.964125 0 
0.0407651 -1.77523 0 
0.260907 -1.62381 0 
0.215119 -1.87493 0 
0.289053 -1.71507 0 
0.0411625 -1.48064 0 
0.16465 -1.41018 0 
0.246762 -1.68801 0 
0.241553 -1.6335 0 
0.146762 -1.19103 0 
0.151991 -0.772878 0 
0.163808 -1.4619 0 
0.14539 -0.9302 0 
0.248728 -0.647962 0 
0.729358 -0.703421 0 
0.133422 -0.655666 0 
0.48248 -0.74309 0 
VECTORS body_force double
0 -9.81 0 
0 -9.81 0 
0 -9.81 0 
0 -9.81 0 
0 -9.81 0 
0 -9.81 0 
0 -9.81 0 
0 -9.81 0 
0 -9.81 0 
0 -9.81 0 
0 -9.81 0 
0 -9.81 0 
0 -9.81 0 
0 -9.81 0 
0 -9.81 0 
0 -9.81 0 
0 -9.81 0 
0 -9.81 0 
0 -9.81 0 
0 -9.81 0 
0 -9.81 0 
0 -9.81 0 
0 -9.81 0 
0 -9.81 0 
0 -9.81 0 
0 -9.81 0 
0 -9.81 0 
0 -9.81 0 
0 -9.81 0 
0 -9.81 0 
0 -9.81 0 
0 -9.81 0 
0 -9.81 0 
0 -9.81 0 
0 -9.81 0 
0 -9.81 0 
0 -9.81 0 
0 -9.81 0 
0 -9.81 0 
0 -9.81 0 
0 -9.81 0 
0 -9.81 0 
0 -9.81 0 
0 -9.81 0 
0 -9.81 0 
0 -9.81 0 
0 -9.81 0 
0 -9.81 0 
0 -9.81 0 
0 -9.81 0 
0 -9.81 0 
0 -9.81 0 
0 -9.81 0 
0 -9.81 0 
0 -9.81 0 
0 -9.81 0 
0 -9.81 0 
0 -9.81 0 
0 -9.81 0 
0 -9.81 0 
0 -9.81 0 
0 -9.81 0 
0 -9.81 0 
0 -9.81 0 
TENSORS cauchy_stress double
-589.251 530.627 0
530.627 461.221 0
0 0 0

-656.119 1322.12 0
1322.12 -1261.54 0
0 0 0

-1264.78 -834.881 0
-834.881 504.152 0
0 0 0

-1331.23 1826.69 0
1826.69 247.757 0
0 0 0

-4626.32 890.606 0
890.606 -45.761 0
0 0 0

-2159.67 3231.97 0
3231.97 -869.823 0
0 0 0

-2505.89 -1029.79 0
-1029.79 1081.33 0
0 0 0

-5468.98 2417.01 0
2417.01 -2868.76 0
0 0 0

-5744.39 2746.52 0
2746.52 -2374.37 0
0 0 0

-9854.35 3690.88 0
3690.88 -1864.2 0
0 0 0

-707.555 1191.15 0
1191.15 -1543.12 0
0 0 0

-10425.2 811.609 0
811.609 -1223.09 0
0 0 0

-14556.3 1730.65 0
1730.65 -5406.28 0
0 0 0

-21625.3 4350.49 0
4350.49 -9422.33 0
0 0 0

-5488.08 3706.67 0
3706.67 3611.42 0
0 0 0

-36428.2 1549.34 0
1549.34 -10850.4 0
0 0 0

439.007 160.608 0
160.608 766.606 0
0 0 0

-1202.74 -1061.19 0
-1061.19 -2546.42 0
0 0 0

-470.884 -21.4956 0
-21.4956 179.762 0
0 0 0

-368.717 916.139 0
916.139 107.021 0
0 0 0

-1082.99 774.101 0
774.101 -1214.91 0
0 0 0

-2816.63 1487.07 0
1487.07 1653.94 0
0 0 0

-3519.19 359 0
359 -344.714 0
0 0 0

-3752.11 -767.437 0
-767.437 -1989.24 0
0 0 0

-4545.92 163.029 0
163.029 614.815 0
0 0 0

-10056.8 778.375 0
778.375 -3324.52 0
0 0 0

-2056.67 571.277 0
571.277 -3442.16 0
0 0 0

-3612.87 -2180.97 0
-2180.97 -291.32 0
0 0 0

-6966.19 -2331.09 0
-2331.09 -3469.41 0
0 0 0

-10433.1 -4114.96 0
-4114.96 -1689.14 0
0 0 0

-3148.25 -2056.27 0
-2056.27 -1876.12 0
0 0 0

-1376.14 -4045.92 0
-4045.92 1869.81 0
0 0 0

-1431.44 -545.777 0
-545.777 -539.238 0
0 0 0

50.8615 74.7491 0
74.7491 -964.174 0
0 0 0

-245.698 62.1203 0
62.1203 -578.395 0
0 0 0

-1066.63 1286.73 0
1286.73 -2800.69 0
0 0 0

-5409.63 -2321.76 0
-2321.76 -2772.7 0
0 0 0

-253.131 2523.78 0
2523.78 -2779.47 0
0 0 0

-1665.62 518.277 0
518.277 -1169.02 0
0 0 0

-2718.11 400.048 0
400.048 -5738.16 0
0 0 0

-5512.46 -1712.26 0
-1712.26 -2301.26 0
0 0 0

-1782.07 1377.87 0
1377.87 -4200.6 0
0 0 0

-723.083 982.841 0
982.841 -5162.88 0
0 0 0

-1921.58 -856.83 0
-856.83 -10037.1 0
0 0 0

-2525.37 -2740.89 0
-2740.89 -6854.47 0
0 0 0

-730.36 -2797.66 0
-2797.66 -4690.26 0
0 0 0

2142.09 -1975.89 0
-1975.89 -9974.51 0
0 0 0

-3759.05 -2469.32 0
-2469.32 -8665.99 0
0 0 0

-1072.51 -322.672 0
-322.672 -122.192 0
0 0 0

-1837.2 -513.646 0
-513.646 -1817.3 0
0 0 0

46.2687 444.728 0
444.728 -392.53 0
0 0 0

-444.738 677.43 0
677.43 -2167.96 0
0 0 0

-2135.82 1838.91 0
1838.91 -136.38 0
0 0 0

-1207.47 1054.73 0
1054.73 -3900.41 0
0 0 0

-1866.98 1685.63 0
1685.63 -1556.67 0
0 0 0

-2338.17 2088.45 0
2088.45 -3092.11 0
0 0 0

-4946.99 3248.06 0
3248.06 -8553 0
0 0 0

-5384.64 2736.27 0
2736.27 -11145.4 0
0 0 0

-2048.94 5154.87 0
5154.87 -6508.49 0
0 0 0

-10069.1 6221.06 0
6221.06 -21656.8 0
0 0 0

2645.87 -755.746 0
-755.746 -12321.4 0
0 0 0

-4239.67 2037.42 0
2037.42 -28966.5 0
0 0 0

-14324.5 5987.13 0
5987.13 -48876 0
0 0 0

-27674.9 7735.12 0
7735.12 -81926.7 0
0 0 0

TENSORS velocity_gradient double
-0.608369 -3.29817 0
4.04577 -1.39546 0
0 0 0

-0.754 -3.06188 0
5.25992 -0.12082 0
0 0 0

-0.935047 -3.47545 0
5.03619 0.379143 0
0 0 0

-1.01789 -3.3395 0
5.17408 0.152848 0
0 0 0

-1.2955 -2.28459 0
5.59978 -0.460265 0
0 0 0

-1.78363 -1.45493 0
6.10165 -0.899608 0
0 0 0

-2.13672 -2.83338 0
6.03574 -0.175857 0
0 0 0

-2.48447 -3.56984 0
6.05319 -0.519756 0
0 0 0

-1.81907 -1.73854 0
6.97861 -0.702131 0
0 0 0

-2.3014 -2.11 0
6.85985 0.631031 0
0 0 0

-2.63783 -3.57006 0
6.36705 0.0187528 0
0 0 0

-3.3231 -2.71563 0
6.47115 0.400622 0
0 0 0

-8.58914 -2.22187 0
5.01592 0.368675 0
0 0 0

-7.65306 -4.76149 0
6.20925 -1.35062 0
0 0 0

-3.70399 -4.63766 0
6.10981 1.00318 0
0 0 0

-10.0252 -11.4104 0
8.91635 1.19483 0
0 0 0

-1.02338 -3.54688 0
5.16299 0.540455 0
0 0 0

-1.15432 -3.64911 0
5.39837 -0.224303 0
0 0 0

-0.0526006 -4.1067 0
4.71434 -0.674017 0
0 0 0

-1.26135 -4.132 0
5.55535 -1.15032 0
0 0 0

-1.53791 -3.96474 0
5.59773 -1.33575 0
0 0 0

-2.59909 -3.88085 0
5.47823 -0.920986 0
0 0 0

-1.33472 -4.03056 0
5.65826 -1.2926 0
0 0 0

-2.28306 -4.08474 0
5.06594 -1.93965 0
0 0 0

-2.65106 -3.80568 0
5.09082 -0.360654 0
0 0 0

-3.3897 -8.59066 0
5.66802 -1.17865 0
0 0 0

-1.58274 -6.31857 0
4.35443 -3.22899 0
0 0 0

-0.335517 -8.24272 0
3.81391 -2.4202 0
0 0 0

-1.65382 -12.2655 0
4.27212 0.479389 0
0 0 0

-6.48222 -13.9532 0
6.25565 2.07364 0
0 0 0

1.22229 -10.8055 0
2.06032 -0.643371 0
0 0 0

2.20086 -9.15445 0
0.743583 -3.44998 0
0 0 0

-0.156774 -4.35162 0
5.0118 -0.756265 0
0 0 0

-0.669973 -4.20991 0
5.38764 -1.02634 0
0 0 0

-0.319989 -4.23729 0
5.31103 -0.619945 0
0 0 0

-0.60301 -2.66546 0
5.69916 -1.58183 0
0 0 0

-1.2193 -3.14237 0
5.97721 -2.60264 0
0 0 0

-0.741124 -3.73146 0
6.50756 -3.73356 0
0 0 0

-0.58485 -2.4676 0
6.66627 -2.30872 0
0 0 0

0.0166314 -3.1912 0
7.32748 -3.14898 0
0 0 0

0.239214 -5.04151 0
3.60656 -3.7532 0
0 0 0

1.57797 -6.74886 0
3.04295 -4.03101 0
0 0 0

0.775456 -2.2413 0
7.39179 -8.68352 0
0 0 0

4.24398 -3.51463 0
1.72165 -11.3113 0
0 0 0

2.67715 -8.08094 0
0.779384 -8.49352 0
0 0 0

2.06769 -8.04123 0
-1.24273 -6.33606 0
0 0 0

6.31295 -6.78445 0
0.656198 -9.62742 0
0 0 0

1.69774 -8.28177 0
-3.31383 -7.68271 0
0 0 0

-0.682349 -3.47534 0
4.77535 -0.376657 0
0 0 0

-1.13674 -3.04955 0
6.3867 -1.08706 0
0 0 0

-0.36284 -3.38858 0
4.57101 0.0179477 0
0 0 0

-1.67109 -2.35001 0
7.09014 -0.206534 0
0 0 0

-1.53097 -2.37799 0
6.89825 -1.71907 0
0 0 0

0.491986 -0.859159 0
9.72051 -3.98534 0
0 0 0

-2.03009 -1.31484 0
7.64847 -0.640133 0
0 0 0

-1.52993 -0.902117 0
9.71638 -1.68048 0
0 0 0

0.56691 -0.973186 0
12.6513 -8.44585 0
0 0 0

4.48649 -1.62872 0
6.16767 -11.7347 0
0 0 0

0.684293 -0.886883 0
17.2431 -5.06987 0
0 0 0

0.643333 5.34686 0
16.6616 -29.496 0
0 0 0

8.33214 0.338503 0
-0.536562 -16.1638 0
0 0 0

6.64213 14.9683 0
-1.0941 -28.3531 0
0 0 0

5.94198 7.65215 0
0.727276 -27.8103 0
0 0 0

4.98536 11.1723 0
-0.480091 -27.9172 0
0 0 0

SCALARS active double 1
LOOKUP_TABLE default
1
1
1
1
1
1
1
1
1
1
1
1
1
1
1
1
1
1
1
1
1
1
1
1
1
1
1
1
1
1
1
1
1
1
1
1
1
1
1
1
1
1
1
1
1
1
1
1
1
1
1
1
1
1
1
1
1
1
1
1
1
1
1
1
SCALARS extent double 1
LOOKUP_TABLE default
0.0125
0.0125
0.0125
0.0125
0.0125
0.0125
0.0125
0.0125
0.0125
0.0125
0.0125
0.0125
0.0125
0.0125
0.0125
0.0125
0.0125
0.0125
0.0125
0.0125
0.0125
0.0125
0.0125
0.0125
0.0125
0.0125
0.0125
0.0125
0.0125
0.0125
0.0125
0.0125
0.0125
0.0125
0.0125
0.0125
0.0125
0.0125
0.0125
0.0125
0.0125
0.0125
0.0125
0.0125
0.0125
0.0125
0.0125
0.0125
0.0125
0.0125
0.0125
0.0125
0.0125
0.0125
0.0125
0.0125
0.0125
0.0125
0.0125
0.0125
0.0125
0.0125
0.0125
0.0125
SCALARS pressure double 1
LOOKUP_TABLE default
64.0154
958.828
380.313
541.739
2336.04
1514.74
712.28
4168.87
4059.38
5859.27
1125.34
5824.16
9981.28
15523.8
938.328
23639.3
-602.806
1874.58
145.561
130.848
1148.95
581.346
1931.95
2870.67
1965.55
6690.66
2749.41
1952.1
5217.8
6061.13
2512.19
-246.832
985.337
456.656
412.046
1933.66
4091.17
1516.3
1417.32
4228.14
3906.86
2991.34
2942.98
5979.35
4689.92
2710.31
3916.21
6212.52
597.352
1827.25
173.13
1306.35
1136.1
2553.94
1711.83
2715.14
6750
8265.02
4278.71
15862.9
4837.75
16603.1
31600.2
54800.8
SCALARS density double 1
LOOKUP_TABLE default
1000.67
1010.02
1003.96
1005.65
1024.59
1015.88
1007.44
1044.31
1043.12
1062.83
1011.77
1062.44
1109.38
1175.21
1009.81
1278.71
993.75
1019.69
1001.51
1001.36
1012.02
1006.06
1020.3
1030.31
1020.65
1072.06
1029.01
1020.51
1055.76
1065.06
1026.47
997.436
1010.3
1004.76
1004.29
1020.31
1043.47
1015.89
1014.85
1044.95
1041.47
1031.6
1031.08
1064.16
1049.98
1028.59
1041.57
1066.74
1006.23
1019.19
1001.8
1013.68
1011.89
1026.92
1017.96
1028.64
1072.72
1089.76
1045.5
1179.36
1051.6
1188.48
1389.08
1768.14
