# vtk DataFile Version 3.0
Frame: 27, Time: 0.459
ASCII
DATASET UNSTRUCTURED_GRID
POINTS 64 double
0.151337 0.436848 0 
0.141603 0.414154 0 
0.129723 0.447452 0 
0.119849 0.424882 0 
0.13133 0.390777 0 
0.122544 0.367186 0 
0.108815 0.402257 0 
0.0992882 0.379156 0 
0.110574 0.345714 0 
0.100608 0.322987 0 
0.0879426 0.356452 0 
0.0777167 0.333381 0 
0.0922365 0.300513 0 
0.0801391 0.276619 0 
0.0684959 0.311126 0 
0.0577729 0.28577 0 
0.108587 0.458893 0 
0.0964232 0.436425 0 
0.0856751 0.469654 0 
0.0746543 0.447202 0 
0.0855377 0.413662 0 
0.0751792 0.390233 0 
0.0629481 0.424318 0 
0.0530605 0.40083 0 
0.0657711 0.367703 0 
0.0552926 0.344546 0 
0.0420642 0.377626 0 
0.0320095 0.355171 0 
0.044543 0.321535 0 
0.0339524 0.297573 0 
0.0211838 0.331852 0 
0.0121386 0.309209 0 
0.0629202 0.481162 0 
0.0519266 0.45811 0 
0.0403273 0.491727 0 
0.0287743 0.468696 0 
0.0404772 0.435448 0 
0.0302357 0.411934 0 
0.0181103 0.44676 0 
0.00755767 0.423338 0 
0.0200651 0.389094 0 
0.00972405 0.366427 0 
0.997431 0.399987 0 
0.987064 0.377316 0 
0.999889 0.3431 0 
0.990084 0.320456 0 
0.976971 0.352996 0 
0.967075 0.330955 0 
0.0172426 0.502664 0 
0.00674909 0.479534 0 
0.994445 0.513278 0 
0.98324 0.489298 0 
0.995185 0.457346 0 
0.985078 0.433462 0 
0.971398 0.466941 0 
0.962205 0.442656 0 
0.974888 0.410601 0 
0.965073 0.388247 0 
0.951501 0.420509 0 
0.941043 0.398309 0 
0.954402 0.365148 0 
0.944659 0.341821 0 
0.930622 0.376999 0 
0.921615 0.35394 0 
CELLS 64 128
1 0
1 1
1 2
1 3
1 4
1 5
1 6
1 7
1 8
1 9
1 10
1 11
1 12
1 13
1 14
1 15
1 16
1 17
1 18
1 19
1 20
1 21
1 22
1 23
1 24
1 25
1 26
1 27
1 28
1 29
1 30
1 31
1 32
1 33
1 34
1 35
1 36
1 37
1 38
1 39
1 40
1 41
1 42
1 43
1 44
1 45
1 46
1 47
1 48
1 49
1 50
1 51
1 52
1 53
1 54
1 55
1 56
1 57
1 58
1 59
1 60
1 61
1 62
1 63
CELL_TYPES 64
1
1
1
1
1
1
1
1
1
1
1
1
1
1
1
1
1
1
1
1
1
1
1
1
1
1
1
1
1
1
1
1
1
1
1
1
1
1
1
1
1
1
1
1
1
1
1
1
1
1
1
1
1
1
1
1
1
1
1
1
1
1
1
1
POINT_DATA 64
VECTORS displacement double
-0.0611626 0.224348 0 
-0.070897 0.176654 0 
-0.107777 0.234952 0 
-0.117651 0.187382 0 
-0.0811699 0.128277 0 
-0.0899561 0.0796864 0 
-0.128685 0.139757 0 
-0.138212 0.0916564 0 
-0.101926 0.0332145 0 
-0.111892 -0.014513 0 
-0.149557 0.0439516 0 
-0.159783 -0.00411941 0 
-0.120264 -0.0619868 0 
-0.132361 -0.110881 0 
-0.169004 -0.0513738 0 
-0.179727 -0.10173 0 
-0.153913 0.246393 0 
-0.166077 0.198925 0 
-0.201825 0.257154 0 
-0.212846 0.209702 0 
-0.176962 0.151162 0 
-0.187321 0.102733 0 
-0.224552 0.161818 0 
-0.234439 0.11333 0 
-0.196729 0.055203 0 
-0.207207 0.00704633 0 
-0.245436 0.0651263 0 
-0.25549 0.0176712 0 
-0.217957 -0.0409649 0 
-0.228548 -0.0899267 0 
-0.266316 -0.0306479 0 
-0.275361 -0.0782911 0 
-0.24958 0.268662 0 
-0.260573 0.22061 0 
-0.297173 0.279227 0 
-0.308726 0.231196 0 
-0.272023 0.172948 0 
-0.282264 0.124434 0 
-0.31939 0.18426 0 
-0.329942 0.135838 0 
-0.292435 0.0765941 0 
-0.302776 0.0289265 0 
-0.340069 0.0874866 0 
-0.350436 0.0398156 0 
-0.312611 -0.0194001 0 
-0.322416 -0.0670444 0 
-0.360529 -0.00950393 0 
-0.370425 -0.0565446 0 
-0.345257 0.290164 0 
-0.355751 0.242034 0 
-0.393055 0.300778 0 
-0.40426 0.251798 0 
-0.367315 0.194846 0 
-0.377422 0.145962 0 
-0.416102 0.204441 0 
-0.425295 0.155156 0 
-0.387612 0.0981007 0 
-0.397427 0.0507465 0 
-0.435999 0.108009 0 
-0.446457 0.0608088 0 
-0.408098 0.00264846 0 
-0.417841 -0.0456794 0 
-0.456878 0.014499 0 
-0.465885 -0.0335598 0 
VECTORS velocity double
0.471056 1.4307 0 
0.251587 1.34652 0 
0.0340271 1.24927 0 
-0.100113 1.10892 0 
0.696285 1.9861 0 
0.935101 1.35269 0 
0.49011 1.04345 0 
0.441082 0.962939 0 
1.10532 1.59247 0 
1.17111 0.976676 0 
0.402963 0.908904 0 
0.661677 0.765683 0 
0.510067 1.1045 0 
0.342312 0.800869 0 
0.694173 0.965953 0 
0.93677 0.944811 0 
0.350339 1.09182 0 
0.283542 1.10123 0 
-0.290378 0.90272 0 
0.171877 0.881722 0 
0.0726897 1.07489 0 
0.484782 0.739203 0 
-0.110645 1.11169 0 
0.205512 0.669935 0 
0.722108 0.926973 0 
0.776683 0.608895 0 
0.65778 0.957732 0 
0.488674 0.963489 0 
0.938858 1.11115 0 
1.01824 0.997492 0 
0.563091 1.37536 0 
0.596273 0.348626 0 
-0.0285925 1.05967 0 
0.302948 0.655994 0 
-0.150205 0.627235 0 
0.0018975 0.377368 0 
0.223089 1.03058 0 
0.206597 0.592415 0 
-0.0168697 0.995864 0 
0.231564 0.973597 0 
0.218075 0.430271 0 
0.281782 0.251906 0 
0.220589 0.654004 0 
0.178105 0.295946 0 
0.881073 0.704918 0 
0.727491 0.0612598 0 
0.670273 0.680213 0 
0.6693 0.531374 0 
-0.201061 0.834365 0 
-0.138143 0.231935 0 
-0.188754 0.666809 0 
-0.200675 0.410743 0 
-0.175652 0.536822 0 
0.457039 0.554953 0 
-0.20237 0.204576 0 
0.0369536 0.267933 0 
0.698381 0.711214 0 
0.528504 0.511272 0 
0.146665 0.517322 0 
0.105856 -0.161649 0 
0.700331 0.803655 0 
0.863037 0.0557657 0 
0.330376 0.144468 0 
0.804516 0.0367801 0 
SCALARS mass double 1
LOOKUP_TABLE default
0.625
0.625
0.625
0.625
0.625
0.625
0.625
0.625
0.625
0.625
0.625
0.625
0.625
0.625
0.625
0.625
0.625
0.625
0.625
0.625
0.625
0.625
0.625
0.625
0.625
0.625
0.625
0.625
0.625
0.625
0.625
0.625
0.625
0.625
0.625
0.625
0.625
0.625
0.625
0.625
0.625
0.625
0.625
0.625
0.625
0.625
0.625
0.625
0.625
0.625
0.625
0.625
0.625
0.625
0.625
0.625
0.625
0.625
0.625
0.625
0.625
0.625
0.625
0.625
SCALARS volume double 1
LOOKUP_TABLE default
0.000625864
0.000609506
0.000604803
0.000614661
0.000625307
0.000605957
0.000650979
0.000615644
0.000641732
0.000605141
0.000632078
0.000596684
0.00060332
0.00060098
0.000676124
0.000657024
0.000634481
0.000612155
0.000613824
0.000629393
0.000641594
0.000638678
0.000633329
0.000630945
0.000622969
0.00061319
0.000625943
0.000636136
0.000649968
0.000607473
0.000628022
0.000651592
0.000621872
0.000631619
0.000636344
0.00062292
0.000607682
0.000650876
0.000626058
0.000621797
0.000634277
0.000597169
0.000643743
0.000629736
0.000606095
0.000653761
0.000668014
0.000568966
0.000627705
0.000619255
0.000640044
0.000622386
0.000625648
0.000611107
0.000625332
0.00062905
0.000621682
0.00061367
0.000625828
0.00062056
0.000625166
0.000650345
0.000613801
0.000612521
VECTORS momentum double
0.29441 0.894189 0 
0.157242 0.841575 0 
0.0212669 0.780793 0 
-0.0625704 0.693074 0 
0.435178 1.24131 0 
0.584438 0.845432 0 
0.306319 0.652157 0 
0.275676 0.601837 0 
0.690823 0.995297 0 
0.731947 0.610423 0 
0.251852 0.568065 0 
0.413548 0.478552 0 
0.318792 0.69031 0 
0.213945 0.500543 0 
0.433858 0.603721 0 
0.585481 0.590507 0 
0.218962 0.682385 0 
0.177214 0.688272 0 
-0.181486 0.5642 0 
0.107423 0.551076 0 
0.0454311 0.671804 0 
0.302989 0.462002 0 
-0.0691531 0.694808 0 
0.128445 0.418709 0 
0.451317 0.579358 0 
0.485427 0.38056 0 
0.411112 0.598582 0 
0.305421 0.60218 0 
0.586786 0.69447 0 
0.636397 0.623433 0 
0.351932 0.859599 0 
0.372671 0.217891 0 
-0.0178703 0.662292 0 
0.189342 0.409996 0 
-0.0938779 0.392022 0 
0.00118594 0.235855 0 
0.139431 0.644111 0 
0.129123 0.370259 0 
-0.0105436 0.622415 0 
0.144727 0.608498 0 
0.136297 0.268919 0 
0.176114 0.157441 0 
0.137868 0.408753 0 
0.111316 0.184966 0 
0.550671 0.440574 0 
0.454682 0.0382874 0 
0.418921 0.425133 0 
0.418313 0.332109 0 
-0.125663 0.521478 0 
-0.0863396 0.14496 0 
-0.117971 0.416755 0 
-0.125422 0.256714 0 
-0.109782 0.335514 0 
0.285649 0.346846 0 
-0.126481 0.12786 0 
0.023096 0.167458 0 
0.436488 0.444509 0 
0.330315 0.319545 0 
0.0916657 0.323326 0 
0.06616 -0.101031 0 
0.437707 0.502285 0 
0.539398 0.0348535 0 
0.206485 0.0902928 0 
0.502822 0.0229876 0 
VECTORS body_force double
0 -9.81 0 
0 -9.81 0 
0 -9.81 0 
0 -9.81 0 
0 -9.81 0 
0 -9.81 0 
0 -9.81 0 
0 -9.81 0 
0 -9.81 0 
0 -9.81 0 
0 -9.81 0 
0 -9.81 0 
0 -9.81 0 
0 -9.81 0 
0 -9.81 0 
0 -9.81 0 
0 -9.81 0 
0 -9.81 0 
0 -9.81 0 
0 -9.81 0 
0 -9.81 0 
0 -9.81 0 
0 -9.81 0 
0 -9.81 0 
0 -9.81 0 
0 -9.81 0 
0 -9.81 0 
0 -9.81 0 
0 -9.81 0 
0 -9.81 0 
0 -9.81 0 
0 -9.81 0 
0 -9.81 0 
0 -9.81 0 
0 -9.81 0 
0 -9.81 0 
0 -9.81 0 
0 -9.81 0 
0 -9.81 0 
0 -9.81 0 
0 -9.81 0 
0 -9.81 0 
0 -9.81 0 
0 -9.81 0 
0 -9.81 0 
0 -9.81 0 
0 -9.81 0 
0 -9.81 0 
0 -9.81 0 
0 -9.81 0 
0 -9.81 0 
0 -9.81 0 
0 -9.81 0 
0 -9.81 0 
0 -9.81 0 
0 -9.81 0 
0 -9.81 0 
0 -9.81 0 
0 -9.81 0 
0 -9.81 0 
0 -9.81 0 
0 -9.81 0 
0 -9.81 0 
0 -9.81 0 
TENSORS cauchy_stress double
607.785 953.145 0
953.145 -342.081 0
0 0 0

-3391.69 -598.587 0
-598.587 -1435.76 0
0 0 0

-3742.15 2644.05 0
2644.05 -2574.86 0
0 0 0

-829.215 -2896.02 0
-2896.02 -2378.62 0
0 0 0

-162.436 -1256.18 0
-1256.18 256.795 0
0 0 0

-1667.2 -4018.03 0
-4018.03 -4283.23 0
0 0 0

4599.6 1176.32 0
1176.32 3232.25 0
0 0 0

-820.902 -4585.9 0
-4585.9 -2079.74 0
0 0 0

2494.96 58.2978 0
58.2978 2585.68 0
0 0 0

-1611.82 -1356.56 0
-1356.56 -4597.69 0
0 0 0

-3320.35 614.541 0
614.541 5485.99 0
0 0 0

-2518.38 -818.271 0
-818.271 -6397.84 0
0 0 0

-7293.21 -2502.2 0
-2502.2 503.994 0
0 0 0

-7634.62 -1306.5 0
-1306.5 97.9324 0
0 0 0

8689.16 -648.029 0
-648.029 6430.89 0
0 0 0

5766.26 2284.24 0
2284.24 3843.02 0
0 0 0

3423.72 633.193 0
633.193 -528.249 0
0 0 0

-4199.16 1119.99 0
1119.99 205.672 0
0 0 0

-1395.32 -352.846 0
-352.846 -2074.65 0
0 0 0

701.063 -242.798 0
-242.798 645.891 0
0 0 0

2344.15 144.346 0
144.346 2694.96 0
0 0 0

2884.74 -1920.33 0
-1920.33 1278.57 0
0 0 0

1377.37 193.742 0
193.742 1168.58 0
0 0 0

-1429.77 853.711 0
853.711 3250.25 0
0 0 0

67.7549 750.016 0
750.016 -693.738 0
0 0 0

-2112.91 63.9236 0
63.9236 -1555.68 0
0 0 0

-913.536 -3197.51 0
-3197.51 1203.47 0
0 0 0

2071.93 -303.98 0
-303.98 1324.44 0
0 0 0

2750.84 -753.374 0
-753.374 4782.27 0
0 0 0

-3899.41 -231.018 0
-231.018 -1570.63 0
0 0 0

-2777.26 -1496.58 0
-1496.58 3704.74 0
0 0 0

5630.62 -2831.35 0
-2831.35 2382.16 0
0 0 0

230.816 623.894 0
623.894 -1195.6 0
0 0 0

946.687 598.355 0
598.355 1079.07 0
0 0 0

2121.09 1093.87 0
1093.87 1337.98 0
0 0 0

-69.8563 -1195.34 0
-1195.34 -571.333 0
0 0 0

-3721.66 1290.49 0
1290.49 -1682.06 0
0 0 0

2282.26 -2985.76 0
-2985.76 5519.24 0
0 0 0

806.968 -437.956 0
-437.956 -481.825 0
0 0 0

-2215.93 -670.69 0
-670.69 1227.99 0
0 0 0

2476.81 1945.02 0
1945.02 356.713 0
0 0 0

-4918.52 -3124.85 0
-3124.85 -3841.45 0
0 0 0

747.613 -350.959 0
-350.959 4934.74 0
0 0 0

-686.546 -1403.94 0
-1403.94 2138.17 0
0 0 0

-4578.67 1860.34 0
1860.34 -1328.06 0
0 0 0

5153.09 3106.69 0
3106.69 3498.93 0
0 0 0

1893.38 -1332.44 0
-1332.44 10906.2 0
0 0 0

-4035.94 -4651.82 0
-4651.82 -14027.9 0
0 0 0

2204.72 490.394 0
490.394 -1374.36 0
0 0 0

-624.238 1217.95 0
1217.95 -1151.64 0
0 0 0

2059.82 1516.61 0
1516.61 2514.25 0
0 0 0

53.7601 985.822 0
985.822 -859.703 0
0 0 0

1558.13 521.561 0
521.561 -1358.74 0
0 0 0

-3123.96 784.866 0
784.866 -1198.92 0
0 0 0

-952.177 1397.43 0
1397.43 1054.24 0
0 0 0

1191.48 1236.66 0
1236.66 50.5367 0
0 0 0

-911.563 230.47 0
230.47 -112.077 0
0 0 0

372.43 1087.64 0
1087.64 -3890.63 0
0 0 0

621.996 -683.867 0
-683.867 -367.29 0
0 0 0

1606.8 -369.246 0
-369.246 -2977.9 0
0 0 0

-89.1758 -1851.39 0
-1851.39 140.274 0
0 0 0

2904.37 70.0753 0
70.0753 4740.21 0
0 0 0

-979.723 -2273.33 0
-2273.33 -2497.43 0
0 0 0

-2675.11 1995.7 0
1995.7 -1203.4 0
0 0 0

TENSORS velocity_gradient double
1.64063 -3.71886 0
1.43008 -3.06559 0
0 0 0

1.70783 -4.01024 0
7.02315 -3.03183 0
0 0 0

2.44196 -4.63563 0
5.48346 -2.0326 0
0 0 0

1.9976 -4.58614 0
6.5124 -2.01675 0
0 0 0

1.36164 -8.09908 0
7.93293 -1.22627 0
0 0 0

1.3474 -8.1045 0
8.62552 -0.962528 0
0 0 0

1.46418 -6.21255 0
7.5256 -1.11304 0
0 0 0

1.72211 -8.02462 0
6.46941 -0.413405 0
0 0 0

2.38065 -0.899565 0
9.02386 2.71396 0
0 0 0

3.22072 0.507337 0
5.51214 2.55509 0
0 0 0

2.47322 -7.26549 0
5.10803 -0.256767 0
0 0 0

1.14739 -0.642351 0
3.38801 0.579204 0
0 0 0

-1.6042 2.59056 0
0.351866 1.71552 0
0 0 0

-3.29599 3.48185 0
-0.798229 0.966465 0
0 0 0

-0.752135 -1.43205 0
1.20433 -0.32863 0
0 0 0

-2.66701 1.93518 0
-0.4213 0.039594 0
0 0 0

1.93285 -3.83605 0
5.08868 0.288515 0
0 0 0

0.89771 -4.94808 0
4.86134 -1.04438 0
0 0 0

0.73768 -3.4327 0
5.20898 -0.238272 0
0 0 0

0.344751 -4.3276 0
4.4327 -0.577457 0
0 0 0

1.11497 -4.73791 0
5.10543 -0.764204 0
0 0 0

1.69287 -7.50176 0
5.3344 -0.458807 0
0 0 0

0.846025 -4.17574 0
4.85998 -0.251151 0
0 0 0

0.975677 -5.4825 0
5.11533 -0.329902 0
0 0 0

2.24187 -7.26851 0
5.20993 -0.511688 0
0 0 0

2.05111 -2.49389 0
4.57965 -1.48406 0
0 0 0

0.574757 -6.53413 0
4.63999 -0.568057 0
0 0 0

1.4944 -5.66196 0
4.77261 -0.578884 0
0 0 0

1.3812 -3.01919 0
6.65502 -1.65519 0
0 0 0

1.00446 -0.0731677 0
7.65871 -1.21864 0
0 0 0

1.51253 -3.29774 0
5.98417 -0.111439 0
0 0 0

1.24514 -3.40561 0
7.48639 0.49459 0
0 0 0

1.08353 -4.10677 0
5.80375 -1.39748 0
0 0 0

0.661106 -4.34796 0
4.80229 -1.762 0
0 0 0

0.794631 -4.39184 0
3.75278 -1.6684 0
0 0 0

1.03302 -4.27125 0
4.68939 -1.19463 0
0 0 0

0.71433 -4.17694 0
5.15878 -0.127396 0
0 0 0

-0.0590819 -4.51772 0
4.75563 -0.305033 0
0 0 0

1.04015 -4.77014 0
5.28707 -0.55691 0
0 0 0

0.320576 -5.26317 0
4.95353 -0.693609 0
0 0 0

0.0737143 -5.58522 0
4.60161 -0.495371 0
0 0 0

1.05326 -5.13261 0
4.67664 -0.460701 0
0 0 0

-0.697435 -5.19 0
4.54728 -0.51827 0
0 0 0

-1.51029 -5.1402 0
4.71123 -0.360756 0
0 0 0

-0.335341 -3.31881 0
5.11765 1.15321 0
0 0 0

-0.688562 -2.96478 0
5.56866 1.50765 0
0 0 0

-2.08973 -4.49199 0
4.8721 0.330878 0
0 0 0

-1.26581 -1.71265 0
5.31511 2.05763 0
0 0 0

0.526742 -3.99355 0
3.89632 1.11733 0
0 0 0

0.919661 -4.04381 0
4.24401 -0.301035 0
0 0 0

-1.28737 -2.16271 0
0.907665 0.920168 0
0 0 0

0.435204 -4.33285 0
2.16872 0.338634 0
0 0 0

-0.0966215 -4.10031 0
3.12329 0.0681345 0
0 0 0

-0.539447 -5.62654 0
3.55123 -0.344597 0
0 0 0

-0.0470579 -4.59084 0
2.65463 0.598573 0
0 0 0

-0.465148 -5.80951 0
3.25864 0.375898 0
0 0 0

-0.722361 -5.70929 0
4.27153 -0.0187375 0
0 0 0

-1.17444 -5.80846 0
4.65406 -0.247007 0
0 0 0

-0.931505 -5.61848 0
3.9009 0.913609 0
0 0 0

0.419377 -5.92008 0
5.83959 0.555424 0
0 0 0

-1.49806 -6.12279 0
5.08635 -0.184837 0
0 0 0

-1.92431 -2.07972 0
5.07649 1.38899 0
0 0 0

0.293926 -6.61286 0
6.26865 0.0323849 0
0 0 0

-0.353623 -6.77248 0
6.27593 -0.409875 0
0 0 0

SCALARS active double 1
LOOKUP_TABLE default
1
1
1
1
1
1
1
1
1
1
1
1
1
1
1
1
1
1
1
1
1
1
1
1
1
1
1
1
1
1
1
1
1
1
1
1
1
1
1
1
1
1
1
1
1
1
1
1
1
1
1
1
1
1
1
1
1
1
1
1
1
1
1
1
SCALARS extent double 1
LOOKUP_TABLE default
0.0125
0.0125
0.0125
0.0125
0.0125
0.0125
0.0125
0.0125
0.0125
0.0125
0.0125
0.0125
0.0125
0.0125
0.0125
0.0125
0.0125
0.0125
0.0125
0.0125
0.0125
0.0125
0.0125
0.0125
0.0125
0.0125
0.0125
0.0125
0.0125
0.0125
0.0125
0.0125
0.0125
0.0125
0.0125
0.0125
0.0125
0.0125
0.0125
0.0125
0.0125
0.0125
0.0125
0.0125
0.0125
0.0125
0.0125
0.0125
0.0125
0.0125
0.0125
0.0125
0.0125
0.0125
0.0125
0.0125
0.0125
0.0125
0.0125
0.0125
0.0125
0.0125
0.0125
0.0125
SCALARS pressure double 1
LOOKUP_TABLE default
-132.852
2413.73
3158.5
1603.92
-47.1796
2975.21
-3915.93
1450.32
-2540.32
3104.76
-1082.82
4458.11
3394.61
3768.34
-7560.03
-4804.64
-1447.73
1996.74
1734.99
-673.477
-2519.56
-2081.65
-1272.98
-910.242
312.991
1834.3
-144.967
-1698.18
-3766.55
2735.02
-463.744
-4006.39
482.392
-1012.88
-1729.54
320.594
2701.86
-3900.75
-162.571
493.97
-1416.76
4379.99
-2841.17
-725.81
2953.36
-4326.01
-6399.8
9031.9
-415.18
887.939
-2287.04
402.972
-99.6961
2161.44
-51.0328
-621.008
511.82
1759.1
-127.353
685.55
-25.5493
-3822.29
1738.58
1939.25
SCALARS density double 1
LOOKUP_TABLE default
998.619
1025.42
1033.39
1016.82
999.509
1031.43
960.093
1015.2
973.927
1032.82
988.802
1047.46
1035.93
1039.97
924.387
951.26
985.056
1020.98
1018.21
993.02
974.137
978.583
986.848
990.578
1003.26
1019.26
998.493
982.494
961.585
1028.85
995.189
959.19
1005.03
989.521
982.174
1003.34
1028.5
960.244
998.311
1005.15
985.374
1046.61
970.884
992.48
1031.19
956.007
935.609
1098.48
995.691
1009.28
976.495
1004.2
998.964
1022.73
999.469
993.562
1005.34
1018.46
998.676
1007.16
999.734
961.028
1018.25
1020.37
