# vtk DataFile Version 3.0
Frame: 26, Time: 0.442
ASCII
DATASET UNSTRUCTURED_GRID
POINTS 64 double
0.149384 0.413644 0 
0.138804 0.391207 0 
0.128037 0.425839 0 
0.117471 0.403801 0 
0.125312 0.368759 0 
0.112958 0.346404 0 
0.104463 0.382196 0 
0.0916354 0.360461 0 
0.0985915 0.326627 0 
0.0869566 0.305185 0 
0.0771694 0.338972 0 
0.0647464 0.316651 0 
0.0777585 0.283891 0 
0.0656691 0.261515 0 
0.053617 0.294911 0 
0.0421363 0.270733 0 
0.107382 0.439053 0 
0.0943632 0.41727 0 
0.0849827 0.451232 0 
0.0729562 0.429351 0 
0.0822017 0.395234 0 
0.0690255 0.37301 0 
0.0600625 0.407378 0 
0.0481872 0.384931 0 
0.0564535 0.351581 0 
0.0433034 0.329147 0 
0.0340951 0.36282 0 
0.021367 0.341295 0 
0.0304921 0.306497 0 
0.0183849 0.283328 0 
0.00843071 0.318494 0 
0.997558 0.296454 0 
0.0627612 0.464191 0 
0.050742 0.441498 0 
0.0408286 0.476613 0 
0.0285887 0.453987 0 
0.0380942 0.419767 0 
0.0260675 0.397027 0 
0.0168068 0.432615 0 
0.00412265 0.409675 0 
0.013272 0.375171 0 
1.00041 0.35375 0 
0.991628 0.387251 0 
0.97889 0.366008 0 
0.988331 0.331215 0 
0.976774 0.309483 0 
0.966098 0.342509 0 
0.954644 0.321583 0 
0.0186246 0.489424 0 
0.00749462 0.466781 0 
0.996471 0.501822 0 
0.984792 0.478783 0 
0.995129 0.445347 0 
0.98288 0.422303 0 
0.972057 0.457621 0 
0.96111 0.434328 0 
0.970557 0.400422 0 
0.958297 0.37898 0 
0.948479 0.41312 0 
0.936214 0.391821 0 
0.944755 0.356348 0 
0.932782 0.33384 0 
0.923318 0.371036 0 
0.911363 0.348292 0 
CELLS 64 128
1 0
1 1
1 2
1 3
1 4
1 5
1 6
1 7
1 8
1 9
1 10
1 11
1 12
1 13
1 14
1 15
1 16
1 17
1 18
1 19
1 20
1 21
1 22
1 23
1 24
1 25
1 26
1 27
1 28
1 29
1 30
1 31
1 32
1 33
1 34
1 35
1 36
1 37
1 38
1 39
1 40
1 41
1 42
1 43
1 44
1 45
1 46
1 47
1 48
1 49
1 50
1 51
1 52
1 53
1 54
1 55
1 56
1 57
1 58
1 59
1 60
1 61
1 62
1 63
CELL_TYPES 64
1
1
1
1
1
1
1
1
1
1
1
1
1
1
1
1
1
1
1
1
1
1
1
1
1
1
1
1
1
1
1
1
1
1
1
1
1
1
1
1
1
1
1
1
1
1
1
1
1
1
1
1
1
1
1
1
1
1
1
1
1
1
1
1
POINT_DATA 64
VECTORS displacement double
-0.0631158 0.201144 0 
-0.0736957 0.153707 0 
-0.109463 0.213339 0 
-0.120029 0.166301 0 
-0.0871878 0.106259 0 
-0.0995422 0.0589037 0 
-0.133037 0.119696 0 
-0.145865 0.0729608 0 
-0.113909 0.0141272 0 
-0.125543 -0.0323149 0 
-0.160331 0.0264715 0 
-0.172754 -0.0208494 0 
-0.134742 -0.0786092 0 
-0.146831 -0.125985 0 
-0.183883 -0.0675888 0 
-0.195364 -0.116767 0 
-0.155118 0.226553 0 
-0.168137 0.17977 0 
-0.202517 0.238732 0 
-0.214544 0.191851 0 
-0.180298 0.132734 0 
-0.193475 0.0855095 0 
-0.227437 0.144878 0 
-0.239313 0.0974309 0 
-0.206046 0.0390811 0 
-0.219197 -0.00835273 0 
-0.253405 0.0503198 0 
-0.266133 0.00379473 0 
-0.232008 -0.0560032 0 
-0.244115 -0.104172 0 
-0.279069 -0.0440062 0 
-0.289942 -0.0910461 0 
-0.249739 0.251691 0 
-0.261758 0.203998 0 
-0.296671 0.264113 0 
-0.308911 0.216487 0 
-0.274406 0.157267 0 
-0.286432 0.109527 0 
-0.320693 0.170115 0 
-0.333377 0.122175 0 
-0.299228 0.0626707 0 
-0.312089 0.0162499 0 
-0.345872 0.0747507 0 
-0.35861 0.0285082 0 
-0.324169 -0.0312846 0 
-0.335726 -0.0780166 0 
-0.371402 -0.019991 0 
-0.382856 -0.0659175 0 
-0.343875 0.276924 0 
-0.355005 0.229281 0 
-0.391029 0.289322 0 
-0.402708 0.241283 0 
-0.367371 0.182847 0 
-0.37962 0.134803 0 
-0.415443 0.195121 0 
-0.42639 0.146828 0 
-0.391943 0.0879216 0 
-0.404203 0.0414804 0 
-0.439021 0.10062 0 
-0.451286 0.0543214 0 
-0.417745 -0.00615234 0 
-0.429718 -0.0536597 0 
-0.464182 0.00853625 0 
-0.476137 -0.0392079 0 
VECTORS velocity double
0.11847 1.54698 0 
-0.122512 1.20061 0 
-0.23884 1.38569 0 
-0.184979 1.27665 0 
0.214387 1.56037 0 
0.414898 0.826486 0 
0.391914 1.20214 0 
0.215925 1.04089 0 
0.7321 1.42655 0 
1.02803 1.08511 0 
0.158643 0.971767 0 
0.558047 0.870419 0 
0.786532 1.27014 0 
1.31458 0.82763 0 
0.771691 1.0312 0 
1.66602 0.953346 0 
0.287575 1.28016 0 
0.351218 1.42342 0 
-0.440508 0.938956 0 
0.141714 1.14303 0 
0.157226 1.32212 0 
0.459679 0.885512 0 
-0.0592786 1.28819 0 
0.283584 0.770534 0 
0.666444 1.08795 0 
0.768623 0.771102 0 
0.737339 1.14719 0 
0.612634 1.20445 0 
0.915355 1.07274 0 
1.24322 0.989421 0 
0.609776 1.40595 0 
0.558079 0.287091 0 
-0.140387 1.25401 0 
0.196022 0.899944 0 
-0.129629 1.1927 0 
0.0392772 0.855622 0 
0.222272 1.26602 0 
0.276322 0.742835 0 
0.0886951 1.54009 0 
0.323584 1.32586 0 
0.324377 0.633891 0 
0.504736 0.551673 0 
0.255966 0.851953 0 
0.243775 0.481269 0 
1.07862 0.88403 0 
0.967469 0.384919 0 
0.780948 0.846576 0 
1.03868 1.08401 0 
-0.195669 1.20066 0 
-0.0699902 0.72205 0 
-0.115572 1.04067 0 
-0.257509 0.45925 0 
0.0378445 1.23757 0 
0.518061 0.9439 0 
-0.168981 0.408146 0 
-0.00832863 0.434757 0 
0.587692 0.836523 0 
0.377195 0.573842 0 
-0.0725234 0.591649 0 
-0.00474025 -0.0289988 0 
0.600963 0.833722 0 
0.707732 0.172212 0 
0.350666 0.378494 0 
0.679925 0.232594 0 
SCALARS mass double 1
LOOKUP_TABLE default
0.625
0.625
0.625
0.625
0.625
0.625
0.625
0.625
0.625
0.625
0.625
0.625
0.625
0.625
0.625
0.625
0.625
0.625
0.625
0.625
0.625
0.625
0.625
0.625
0.625
0.625
0.625
0.625
0.625
0.625
0.625
0.625
0.625
0.625
0.625
0.625
0.625
0.625
0.625
0.625
0.625
0.625
0.625
0.625
0.625
0.625
0.625
0.625
0.625
0.625
0.625
0.625
0.625
0.625
0.625
0.625
0.625
0.625
0.625
0.625
0.625
0.625
0.625
0.625
SCALARS volume double 1
LOOKUP_TABLE default
0.000631789
0.000624284
0.000610771
0.000628618
0.000629136
0.000599904
0.000648676
0.000608155
0.000619682
0.000595596
0.000632719
0.00060274
0.000590036
0.000605333
0.000681292
0.000651103
0.000630831
0.000622847
0.000614293
0.000631492
0.000643955
0.000633998
0.00063287
0.000630442
0.000618856
0.000617387
0.000620103
0.000637212
0.000652787
0.000596598
0.000628316
0.000639214
0.000633414
0.000632009
0.000639911
0.000622037
0.00060188
0.000659494
0.000622806
0.0006385
0.000628745
0.0005824
0.000625778
0.00062899
0.000607654
0.000642362
0.000673119
0.000554147
0.000621523
0.000617134
0.000632648
0.000615126
0.000634488
0.000620063
0.000621877
0.000638242
0.000624349
0.000625962
0.000625932
0.000617878
0.000640886
0.000647245
0.000618002
0.000623291
VECTORS momentum double
0.0740436 0.966861 0 
-0.07657 0.750381 0 
-0.149275 0.866055 0 
-0.115612 0.797908 0 
0.133992 0.97523 0 
0.259311 0.516554 0 
0.244946 0.751338 0 
0.134953 0.650556 0 
0.457562 0.891593 0 
0.642519 0.678196 0 
0.0991516 0.607354 0 
0.348779 0.544012 0 
0.491583 0.793839 0 
0.82161 0.517269 0 
0.482307 0.644502 0 
1.04126 0.595841 0 
0.179734 0.8001 0 
0.219511 0.889637 0 
-0.275317 0.586848 0 
0.0885713 0.714395 0 
0.098266 0.826323 0 
0.2873 0.553445 0 
-0.0370491 0.805116 0 
0.17724 0.481584 0 
0.416527 0.679971 0 
0.48039 0.481939 0 
0.460837 0.716995 0 
0.382896 0.752778 0 
0.572097 0.670461 0 
0.77701 0.618388 0 
0.38111 0.878722 0 
0.348799 0.179432 0 
-0.087742 0.783754 0 
0.122514 0.562465 0 
-0.0810182 0.745437 0 
0.0245482 0.534764 0 
0.13892 0.791262 0 
0.172701 0.464272 0 
0.0554344 0.962558 0 
0.20224 0.82866 0 
0.202735 0.396182 0 
0.31546 0.344795 0 
0.159979 0.53247 0 
0.15236 0.300793 0 
0.674138 0.552519 0 
0.604668 0.240575 0 
0.488092 0.52911 0 
0.649176 0.677507 0 
-0.122293 0.750415 0 
-0.0437439 0.451282 0 
-0.0722322 0.650416 0 
-0.160943 0.287031 0 
0.0236528 0.773484 0 
0.323788 0.589938 0 
-0.105613 0.255091 0 
-0.0052054 0.271723 0 
0.367307 0.522827 0 
0.235747 0.358652 0 
-0.0453271 0.369781 0 
-0.00296266 -0.0181242 0 
0.375602 0.521076 0 
0.442332 0.107632 0 
0.219166 0.236558 0 
0.424953 0.145371 0 
VECTORS body_force double
0 -9.81 0 
0 -9.81 0 
0 -9.81 0 
0 -9.81 0 
0 -9.81 0 
0 -9.81 0 
0 -9.81 0 
0 -9.81 0 
0 -9.81 0 
0 -9.81 0 
0 -9.81 0 
0 -9.81 0 
0 -9.81 0 
0 -9.81 0 
0 -9.81 0 
0 -9.81 0 
0 -9.81 0 
0 -9.81 0 
0 -9.81 0 
0 -9.81 0 
0 -9.81 0 
0 -9.81 0 
0 -9.81 0 
0 -9.81 0 
0 -9.81 0 
0 -9.81 0 
0 -9.81 0 
0 -9.81 0 
0 -9.81 0 
0 -9.81 0 
0 -9.81 0 
0 -9.81 0 
0 -9.81 0 
0 -9.81 0 
0 -9.81 0 
0 -9.81 0 
0 -9.81 0 
0 -9.81 0 
0 -9.81 0 
0 -9.81 0 
0 -9.81 0 
0 -9.81 0 
0 -9.81 0 
0 -9.81 0 
0 -9.81 0 
0 -9.81 0 
0 -9.81 0 
0 -9.81 0 
0 -9.81 0 
0 -9.81 0 
0 -9.81 0 
0 -9.81 0 
0 -9.81 0 
0 -9.81 0 
0 -9.81 0 
0 -9.81 0 
0 -9.81 0 
0 -9.81 0 
0 -9.81 0 
0 -9.81 0 
0 -9.81 0 
0 -9.81 0 
0 -9.81 0 
0 -9.81 0 
TENSORS cauchy_stress double
821.591 113.835 0
113.835 1256.16 0
0 0 0

-1163.52 -415.03 0
-415.03 943.141 0
0 0 0

-3209.74 661.546 0
661.546 -1219.16 0
0 0 0

782.157 -4741.84 0
-4741.84 327.877 0
0 0 0

600.353 1040.3 0
1040.3 668.128 0
0 0 0

-3483.51 -2769.27 0
-2769.27 -4397.52 0
0 0 0

5697.59 2716.93 0
2716.93 1452.61 0
0 0 0

-1660.02 -2094.75 0
-2094.75 -3594.2 0
0 0 0

-853.591 -797.844 0
-797.844 -789.773 0
0 0 0

-2654.64 -817.174 0
-817.174 -6612.44 0
0 0 0

-2560.74 3452.91 0
3452.91 4921.21 0
0 0 0

-1153.67 177.165 0
177.165 -5820.62 0
0 0 0

-6147.13 -4552.39 0
-4552.39 -4923.55 0
0 0 0

-2772.56 -2878.37 0
-2878.37 -3376.07 0
0 0 0

10784.2 219.237 0
219.237 5800.19 0
0 0 0

7687.01 1710.71 0
1710.71 181.458 0
0 0 0

2358.82 -1512.3 0
-1512.3 -573.105 0
0 0 0

-2534.03 562.746 0
562.746 1870.35 0
0 0 0

-1328.01 -780.446 0
-780.446 -1995 0
0 0 0

1341.55 -547.746 0
-547.746 645.813 0
0 0 0

3438.82 58.3911 0
58.3911 2306.89 0
0 0 0

3029.05 465.904 0
465.904 -280.275 0
0 0 0

2100.01 -572.65 0
-572.65 306.332 0
0 0 0

65.4903 3660.51 0
3660.51 1601.77 0
0 0 0

544.597 3299.81 0
3299.81 -2444.42 0
0 0 0

-2179.48 1410.2 0
1410.2 -177.264 0
0 0 0

-1095.63 -268.969 0
-268.969 -417.148 0
0 0 0

1906.75 1469.36 0
1469.36 1814.62 0
0 0 0

2018.55 513.981 0
513.981 6346.77 0
0 0 0

-5341.6 -1199.94 0
-1199.94 -3602.39 0
0 0 0

-3664.03 37.0817 0
37.0817 4681.71 0
0 0 0

2835.46 -3114.08 0
-3114.08 1489.22 0
0 0 0

1467.48 -168.341 0
-168.341 1104.11 0
0 0 0

505.611 216.64 0
216.64 1638.95 0
0 0 0

1046.17 -155.918 0
-155.918 3488.06 0
0 0 0

-2201.05 -2648.94 0
-2648.94 1287.15 0
0 0 0

-4174.53 1318.78 0
1318.78 -3074.25 0
0 0 0

4421.98 -1498.41 0
-1498.41 5909.08 0
0 0 0

-647.119 -14.4309 0
-14.4309 -29.2803 0
0 0 0

-17.3086 1072.29 0
1072.29 4126.79 0
0 0 0

3761.3 4002.74 0
4002.74 -2612.31 0
0 0 0

-6685.31 -1257.08 0
-1257.08 -6890.5 0
0 0 0

-1497.82 -95.8256 0
-95.8256 1736.97 0
0 0 0

-498.82 -20.9193 0
-20.9193 1722.6 0
0 0 0

-3879.16 2714.37 0
2714.37 -1533.41 0
0 0 0

3911.47 2656.81 0
2656.81 1357.91 0
0 0 0

3304.84 237.115 0
237.115 10958.8 0
0 0 0

-6319.62 -5958.84 0
-5958.84 -16819.2 0
0 0 0

386.641 -1164.49 0
-1164.49 -1459.41 0
0 0 0

-2405.79 -404.588 0
-404.588 -29.8362 0
0 0 0

1037.57 -511.534 0
-511.534 1301.49 0
0 0 0

-2022.48 -981.885 0
-981.885 -1040.01 0
0 0 0

2011.81 -1295.61 0
-1295.61 885.642 0
0 0 0

-2537.66 361.796 0
361.796 1012.68 0
0 0 0

-1552.84 -625.1 0
-625.1 589.389 0
0 0 0

2100.46 239.598 0
239.598 1931.47 0
0 0 0

-1501.46 -366.561 0
-366.561 1301.09 0
0 0 0

1641.63 1644.29 0
1644.29 -1345.84 0
0 0 0

-191.605 -1185.27 0
-1185.27 478.091 0
0 0 0

-1452.39 324.175 0
324.175 -751.709 0
0 0 0

427.74 -99.1437 0
-99.1437 4399.32 0
0 0 0

3076.68 -198.781 0
-198.781 3648.86 0
0 0 0

-3290.07 -822.29 0
-822.29 1124.6 0
0 0 0

-2282.23 3637.38 0
3637.38 1755.8 0
0 0 0

TENSORS velocity_gradient double
-1.06825 0.656138 0
2.88027 0.73703 0
0 0 0

-3.00487 -5.62255 0
2.65117 1.81779 0
0 0 0

-1.58755 -0.461577 0
3.66943 -0.121096 0
0 0 0

-2.83076 -2.39729 0
2.57854 0.282394 0
0 0 0

-2.73096 -5.45527 0
3.53376 2.3568 0
0 0 0

-2.98034 -7.16724 0
3.03935 1.74371 0
0 0 0

-2.82927 -5.24438 0
3.07521 3.0992 0
0 0 0

-3.17554 -5.42928 0
2.57689 2.99095 0
0 0 0

-3.34456 -8.16128 0
1.38394 -0.541697 0
0 0 0

-2.12544 -7.71205 0
2.88643 -0.33452 0
0 0 0

-3.10683 -7.74674 0
2.38255 -0.689814 0
0 0 0

-2.42306 -7.35962 0
2.72913 -0.493596 0
0 0 0

-2.30394 -6.34809 0
2.89143 2.02167 0
0 0 0

-2.77128 -6.60517 0
2.787 1.96423 0
0 0 0

-1.28162 -6.82339 0
2.86527 1.85286 0
0 0 0

0.652008 -6.93269 0
2.20332 1.72131 0
0 0 0

-0.750767 -1.76096 0
4.43923 -1.31648 0
0 0 0

-1.34626 -2.41262 0
3.29206 -1.37568 0
0 0 0

-0.461933 -3.93065 0
1.50346 -0.16749 0
0 0 0

-0.895046 -3.15526 0
2.58483 -0.152274 0
0 0 0

-2.05546 -5.65646 0
3.97933 2.53046 0
0 0 0

-2.76964 -6.15856 0
3.09086 2.0675 0
0 0 0

-1.64842 -3.60141 0
3.86952 0.608518 0
0 0 0

-2.05955 -6.52376 0
2.56446 1.62727 0
0 0 0

-3.21014 -6.81016 0
2.41352 0.68281 0
0 0 0

0.0254641 -6.746 0
3.47045 -0.454328 0
0 0 0

-1.00295 -6.09293 0
3.32038 2.2374 0
0 0 0

-0.279926 -6.20039 0
3.76501 -0.980587 0
0 0 0

0.580564 -6.45253 0
2.92744 -0.640521 0
0 0 0

0.68413 -6.99283 0
2.44964 1.26017 0
0 0 0

0.288686 -5.87407 0
3.21657 -1.29533 0
0 0 0

0.901657 -5.50291 0
5.41483 1.65901 0
0 0 0

-1.01228 -3.62424 0
1.36817 0.408796 0
0 0 0

-0.307857 -3.99127 0
2.43802 0.847352 0
0 0 0

0.386087 -2.73964 0
3.74568 0.304891 0
0 0 0

0.367928 -3.36529 0
3.56158 0.214398 0
0 0 0

-1.41772 -4.67547 0
2.07527 0.592125 0
0 0 0

-2.2794 -5.70872 0
1.49793 2.19557 0
0 0 0

-0.63268 -5.9683 0
2.71234 -0.457035 0
0 0 0

-1.26368 -6.62268 0
3.02062 -1.00285 0
0 0 0

-1.50739 -5.24611 0
2.6161 3.41972 0
0 0 0

-0.729638 -5.24635 0
3.64866 2.28497 0
0 0 0

1.40621 -5.33266 0
7.57752 3.03602 0
0 0 0

-0.0615262 -6.22591 0
4.89517 1.40356 0
0 0 0

-0.980747 -5.59312 0
3.72357 -0.994605 0
0 0 0

-0.823591 -5.50848 0
4.57483 -0.536107 0
0 0 0

-1.06315 -5.4324 0
3.27725 -0.124014 0
0 0 0

-0.63824 -5.40187 0
4.34536 0.228616 0
0 0 0

0.335412 -2.65252 0
3.80889 0.196227 0
0 0 0

0.424244 -2.60855 0
3.69809 0.141382 0
0 0 0

0.755242 0.163988 0
6.5219 -0.639799 0
0 0 0

0.800656 -2.96626 0
7.85774 0.226378 0
0 0 0

0.335422 -6.46822 0
7.6974 -1.04101 0
0 0 0

1.37802 -6.19999 0
8.78176 -0.858308 0
0 0 0

0.261133 -3.29411 0
8.02762 0.329606 0
0 0 0

0.823475 -5.21626 0
8.48248 -0.327392 0
0 0 0

1.99052 -6.23971 0
8.81937 -0.0678816 0
0 0 0

0.848236 -7.6505 0
6.55779 -1.19992 0
0 0 0

2.01695 -4.63258 0
7.16087 0.224722 0
0 0 0

2.54835 -8.51878 0
7.0972 -2.32765 0
0 0 0

1.64976 -8.21266 0
6.66507 -2.13361 0
0 0 0

0.982276 -5.99047 0
5.96454 -0.337576 0
0 0 0

2.0758 -8.81597 0
6.91162 -2.44436 0
0 0 0

1.49756 -7.55462 0
6.55525 -1.7246 0
0 0 0

SCALARS active double 1
LOOKUP_TABLE default
1
1
1
1
1
1
1
1
1
1
1
1
1
1
1
1
1
1
1
1
1
1
1
1
1
1
1
1
1
1
1
1
1
1
1
1
1
1
1
1
1
1
1
1
1
1
1
1
1
1
1
1
1
1
1
1
1
1
1
1
1
1
1
1
SCALARS extent double 1
LOOKUP_TABLE default
0.0125
0.0125
0.0125
0.0125
0.0125
0.0125
0.0125
0.0125
0.0125
0.0125
0.0125
0.0125
0.0125
0.0125
0.0125
0.0125
0.0125
0.0125
0.0125
0.0125
0.0125
0.0125
0.0125
0.0125
0.0125
0.0125
0.0125
0.0125
0.0125
0.0125
0.0125
0.0125
0.0125
0.0125
0.0125
0.0125
0.0125
0.0125
0.0125
0.0125
0.0125
0.0125
0.0125
0.0125
0.0125
0.0125
0.0125
0.0125
0.0125
0.0125
0.0125
0.0125
0.0125
0.0125
0.0125
0.0125
0.0125
0.0125
0.0125
0.0125
0.0125
0.0125
0.0125
0.0125
SCALARS pressure double 1
LOOKUP_TABLE default
-1038.88
110.191
2214.45
-555.017
-634.24
3940.52
-3575.1
2627.11
821.682
4633.54
-1180.24
3487.14
5535.34
3074.31
-8292.22
-3934.23
-892.856
331.838
1661.5
-993.68
-2872.85
-1374.39
-1203.17
-833.633
949.911
1178.37
756.388
-1860.68
-4182.66
4471.99
-508.843
-2162.34
-1285.79
-1072.28
-2267.12
456.949
3624.39
-5165.53
338.2
-2054.74
-574.495
6787.9
-119.573
-611.888
2706.29
-2634.69
-7131.8
11569.4
536.384
1217.81
-1169.53
1531.24
-1448.73
762.488
481.726
-2015.97
100.189
-147.896
-143.243
1102.05
-2413.53
-3362.77
1082.74
263.214
SCALARS density double 1
LOOKUP_TABLE default
989.254
1001.15
1023.3
994.244
993.426
1041.83
963.502
1027.7
1008.58
1049.37
987.801
1036.93
1059.26
1032.49
917.375
959.91
990.757
1003.46
1017.43
989.719
970.564
985.808
987.565
991.368
1009.93
1012.33
1007.9
980.835
957.433
1047.61
994.722
977.763
986.717
988.91
976.698
1004.76
1038.41
947.696
1003.52
978.857
994.043
1073.15
998.757
993.657
1028.55
972.971
928.513
1127.86
1005.59
1012.75
987.911
1016.05
985.046
1007.96
1005.02
979.252
1001.04
998.463
998.511
1011.53
975.212
965.632
1011.32
1002.74
