# vtk DataFile Version 3.0
Frame: 34, Time: 0.578
ASCII
DATASET UNSTRUCTURED_GRID
POINTS 64 double
0.704381 0.0518824 0 
0.674307 0.0493596 0 
0.694971 0.0743332 0 
0.671952 0.074202 0 
0.642744 0.0519036 0 
0.616779 0.0541146 0 
0.647413 0.0764966 0 
0.622945 0.080479 0 
0.591453 0.0600087 0 
0.565762 0.0659774 0 
0.598278 0.0863207 0 
0.573129 0.0915596 0 
0.542197 0.0713146 0 
0.51702 0.076151 0 
0.548833 0.0965747 0 
0.52352 0.10083 0 
0.698452 0.0988919 0 
0.674453 0.100551 0 
0.709203 0.118033 0 
0.683329 0.124346 0 
0.651076 0.102874 0 
0.627093 0.106883 0 
0.65786 0.128957 0 
0.632893 0.131738 0 
0.602493 0.112341 0 
0.578895 0.115857 0 
0.60972 0.13724 0 
0.585205 0.141584 0 
0.554668 0.120273 0 
0.529596 0.126197 0 
0.559946 0.14501 0 
0.536465 0.151821 0 
0.716145 0.141387 0 
0.689995 0.147808 0 
0.723628 0.167182 0 
0.697074 0.172853 0 
0.665354 0.153158 0 
0.639823 0.156704 0 
0.670965 0.17633 0 
0.645 0.181476 0 
0.615226 0.162805 0 
0.590948 0.167612 0 
0.620922 0.187207 0 
0.596588 0.191626 0 
0.565543 0.170868 0 
0.541846 0.177755 0 
0.571781 0.196089 0 
0.548027 0.203053 0 
0.727773 0.191548 0 
0.701355 0.196452 0 
0.73237 0.217821 0 
0.706245 0.221454 0 
0.676559 0.200852 0 
0.652133 0.206559 0 
0.682015 0.225905 0 
0.657234 0.230516 0 
0.628433 0.212055 0 
0.603234 0.215982 0 
0.633506 0.236538 0 
0.609927 0.241345 0 
0.578535 0.221541 0 
0.553856 0.227723 0 
0.585082 0.24673 0 
0.560984 0.252414 0 
CELLS 64 128
1 0
1 1
1 2
1 3
1 4
1 5
1 6
1 7
1 8
1 9
1 10
1 11
1 12
1 13
1 14
1 15
1 16
1 17
1 18
1 19
1 20
1 21
1 22
1 23
1 24
1 25
1 26
1 27
1 28
1 29
1 30
1 31
1 32
1 33
1 34
1 35
1 36
1 37
1 38
1 39
1 40
1 41
1 42
1 43
1 44
1 45
1 46
1 47
1 48
1 49
1 50
1 51
1 52
1 53
1 54
1 55
1 56
1 57
1 58
1 59
1 60
1 61
1 62
1 63
CELL_TYPES 64
1
1
1
1
1
1
1
1
1
1
1
1
1
1
1
1
1
1
1
1
1
1
1
1
1
1
1
1
1
1
1
1
1
1
1
1
1
1
1
1
1
1
1
1
1
1
1
1
1
1
1
1
1
1
1
1
1
1
1
1
1
1
1
1
POINT_DATA 64
VECTORS displacement double
0.091881 -0.260618 0 
0.061807 -0.28814 0 
0.0574711 -0.238167 0 
0.0344518 -0.263298 0 
0.0302436 -0.310596 0 
0.00427877 -0.333385 0 
0.00991297 -0.286003 0 
-0.0145554 -0.307021 0 
-0.0210467 -0.352491 0 
-0.046738 -0.371523 0 
-0.0392223 -0.326179 0 
-0.0643706 -0.34594 0 
-0.0703025 -0.391185 0 
-0.0954805 -0.411349 0 
-0.0886666 -0.365925 0 
-0.11398 -0.38667 0 
0.0359525 -0.213608 0 
0.0119529 -0.236949 0 
0.0217035 -0.194467 0 
-0.00417057 -0.213154 0 
-0.0114235 -0.259626 0 
-0.0354073 -0.280617 0 
-0.0296397 -0.233543 0 
-0.0546074 -0.255762 0 
-0.0600069 -0.300159 0 
-0.0836053 -0.321643 0 
-0.0777801 -0.27526 0 
-0.102295 -0.295916 0 
-0.107832 -0.342227 0 
-0.132904 -0.361303 0 
-0.127554 -0.31749 0 
-0.151035 -0.335679 0 
0.00364464 -0.171113 0 
-0.0225051 -0.189692 0 
-0.0138723 -0.145318 0 
-0.040426 -0.164647 0 
-0.0471463 -0.209342 0 
-0.0726773 -0.230796 0 
-0.0665354 -0.18617 0 
-0.0924998 -0.206024 0 
-0.0972742 -0.249695 0 
-0.121552 -0.269888 0 
-0.116578 -0.225293 0 
-0.140912 -0.245874 0 
-0.146957 -0.291632 0 
-0.170654 -0.309745 0 
-0.165719 -0.266411 0 
-0.189473 -0.284447 0 
-0.0347267 -0.120952 0 
-0.0611452 -0.141048 0 
-0.0551297 -0.0946794 0 
-0.0812548 -0.116046 0 
-0.0859409 -0.161648 0 
-0.110367 -0.180941 0 
-0.105485 -0.136595 0 
-0.130266 -0.156984 0 
-0.134067 -0.200445 0 
-0.159266 -0.221518 0 
-0.153994 -0.175962 0 
-0.177573 -0.196155 0 
-0.183965 -0.240959 0 
-0.208644 -0.259777 0 
-0.202418 -0.21577 0 
-0.226516 -0.235086 0 
VECTORS velocity double
-0.897267 0.678148 0 
0.431238 -0.216943 0 
0.423969 1.32945 0 
0.330819 0.351037 0 
0.0554368 0.672189 0 
0.235761 0.414914 0 
0.303836 0.373906 0 
0.150677 0.473673 0 
0.381331 -0.0832584 0 
0.274863 0.0541388 0 
0.13317 0.0127833 0 
-0.273393 -0.1576 0 
0.343141 -0.494363 0 
0.0864209 -1.01908 0 
-0.377883 -0.11974 0 
-0.527159 -1.09243 0 
-0.0412928 1.49841 0 
-0.578151 0.94056 0 
-0.189139 2.17506 0 
-0.8231 1.17836 0 
-0.285591 0.940317 0 
-0.188568 0.860536 0 
-0.846177 0.946818 0 
-0.844752 0.898178 0 
-0.360413 0.400274 0 
-0.435549 0.0634308 0 
-0.984368 0.514311 0 
-1.00127 0.122767 0 
-0.253893 -0.0932687 0 
-0.544543 -0.96511 0 
-0.517628 -0.0127812 0 
-0.943226 -0.821298 0 
-0.673086 1.90955 0 
-0.706816 1.2936 0 
-1.18043 2.88285 0 
-1.22305 1.37631 0 
-1.07817 0.754588 0 
-0.916092 0.826606 0 
-1.74731 0.884633 0 
-1.70972 1.17232 0 
-0.884183 0.728331 0 
-0.899139 0.133419 0 
-1.27446 1.01981 0 
-1.17041 0.3646 0 
-0.820651 0.0685286 0 
-0.846936 -0.839757 0 
-1.48071 0.288829 0 
-1.2997 -0.494684 0 
-1.53402 2.55049 0 
-1.7287 1.56379 0 
-2.05212 2.69797 0 
-2.17651 1.73356 0 
-1.47279 1.079 0 
-1.30269 1.03772 0 
-2.24785 1.65045 0 
-2.13036 1.14661 0 
-1.43819 0.65709 0 
-1.42455 0.67184 0 
-1.98717 1.34323 0 
-2.22525 1.02407 0 
-1.44573 0.552098 0 
-1.89668 -0.658335 0 
-2.14612 0.398562 0 
-2.31701 -0.303389 0 
SCALARS mass double 1
LOOKUP_TABLE default
0.625
0.625
0.625
0.625
0.625
0.625
0.625
0.625
0.625
0.625
0.625
0.625
0.625
0.625
0.625
0.625
0.625
0.625
0.625
0.625
0.625
0.625
0.625
0.625
0.625
0.625
0.625
0.625
0.625
0.625
0.625
0.625
0.625
0.625
0.625
0.625
0.625
0.625
0.625
0.625
0.625
0.625
0.625
0.625
0.625
0.625
0.625
0.625
0.625
0.625
0.625
0.625
0.625
0.625
0.625
0.625
0.625
0.625
0.625
0.625
0.625
0.625
0.625
0.625
SCALARS volume double 1
LOOKUP_TABLE default
0.000536115
0.000642742
0.000563505
0.000626419
0.000618253
0.000606007
0.000627926
0.000645351
0.000635038
0.000593434
0.000666539
0.000634594
0.000648788
0.000614057
0.00063337
0.000635675
0.000511505
0.00060462
0.00058749
0.00061791
0.000599521
0.000626834
0.000662827
0.000609967
0.000622571
0.000622566
0.000639259
0.000654884
0.000598084
0.000638228
0.00062553
0.00065214
0.000640625
0.000628803
0.000636086
0.000643867
0.000615365
0.000608381
0.000614501
0.000645301
0.000648922
0.000628299
0.000623918
0.000604004
0.000624903
0.0006176
0.000641818
0.000640641
0.000603104
0.000622658
0.000619606
0.00062713
0.000639332
0.000621114
0.000621671
0.000612532
0.000599232
0.000628017
0.000638562
0.000627987
0.000624916
0.000646551
0.000615632
0.000618172
VECTORS momentum double
-0.560792 0.423842 0 
0.269524 -0.13559 0 
0.264981 0.830903 0 
0.206762 0.219398 0 
0.034648 0.420118 0 
0.147351 0.259321 0 
0.189898 0.233691 0 
0.094173 0.296046 0 
0.238332 -0.0520365 0 
0.171789 0.0338367 0 
0.0832312 0.00798955 0 
-0.170871 -0.0985002 0 
0.214463 -0.308977 0 
0.054013 -0.636924 0 
-0.236177 -0.0748376 0 
-0.329474 -0.682767 0 
-0.025808 0.936509 0 
-0.361344 0.58785 0 
-0.118212 1.35941 0 
-0.514438 0.736478 0 
-0.178495 0.587698 0 
-0.117855 0.537835 0 
-0.52886 0.591761 0 
-0.52797 0.561361 0 
-0.225258 0.250171 0 
-0.272218 0.0396443 0 
-0.61523 0.321444 0 
-0.625794 0.0767297 0 
-0.158683 -0.0582929 0 
-0.34034 -0.603194 0 
-0.323517 -0.00798828 0 
-0.589517 -0.513312 0 
-0.420679 1.19347 0 
-0.44176 0.8085 0 
-0.737771 1.80178 0 
-0.764404 0.860195 0 
-0.673855 0.471617 0 
-0.572557 0.516629 0 
-1.09207 0.552895 0 
-1.06858 0.732701 0 
-0.552615 0.455207 0 
-0.561962 0.0833868 0 
-0.796536 0.637379 0 
-0.731507 0.227875 0 
-0.512907 0.0428304 0 
-0.529335 -0.524848 0 
-0.925441 0.180518 0 
-0.812311 -0.309177 0 
-0.95876 1.59406 0 
-1.08043 0.977366 0 
-1.28258 1.68623 0 
-1.36032 1.08348 0 
-0.920491 0.674374 0 
-0.814184 0.648576 0 
-1.40491 1.03153 0 
-1.33148 0.716633 0 
-0.898869 0.410681 0 
-0.890341 0.4199 0 
-1.24198 0.839519 0 
-1.39078 0.640046 0 
-0.903581 0.345062 0 
-1.18542 -0.411459 0 
-1.34132 0.249101 0 
-1.44813 -0.189618 0 
VECTORS body_force double
0 -9.81 0 
0 -9.81 0 
0 -9.81 0 
0 -9.81 0 
0 -9.81 0 
0 -9.81 0 
0 -9.81 0 
0 -9.81 0 
0 -9.81 0 
0 -9.81 0 
0 -9.81 0 
0 -9.81 0 
0 -9.81 0 
0 -9.81 0 
0 -9.81 0 
0 -9.81 0 
0 -9.81 0 
0 -9.81 0 
0 -9.81 0 
0 -9.81 0 
0 -9.81 0 
0 -9.81 0 
0 -9.81 0 
0 -9.81 0 
0 -9.81 0 
0 -9.81 0 
0 -9.81 0 
0 -9.81 0 
0 -9.81 0 
0 -9.81 0 
0 -9.81 0 
0 -9.81 0 
0 -9.81 0 
0 -9.81 0 
0 -9.81 0 
0 -9.81 0 
0 -9.81 0 
0 -9.81 0 
0 -9.81 0 
0 -9.81 0 
0 -9.81 0 
0 -9.81 0 
0 -9.81 0 
0 -9.81 0 
0 -9.81 0 
0 -9.81 0 
0 -9.81 0 
0 -9.81 0 
0 -9.81 0 
0 -9.81 0 
0 -9.81 0 
0 -9.81 0 
0 -9.81 0 
0 -9.81 0 
0 -9.81 0 
0 -9.81 0 
0 -9.81 0 
0 -9.81 0 
0 -9.81 0 
0 -9.81 0 
0 -9.81 0 
0 -9.81 0 
0 -9.81 0 
0 -9.81 0 
TENSORS cauchy_stress double
2554 1464.56 0
1464.56 -32054.6 0
0 0 0

21173.6 -6336.96 0
-6336.96 -15790.5 0
0 0 0

-16257 2689.79 0
2689.79 -3661.36 0
0 0 0

-6447.25 2559.88 0
2559.88 6883.38 0
0 0 0

8463.6 -3594.55 0
-3594.55 -10550.8 0
0 0 0

568.886 2820.66 0
2820.66 -6503.54 0
0 0 0

-4542.08 -2067.78 0
-2067.78 5440.4 0
0 0 0

-1941.31 -1274.05 0
-1274.05 8103.49 0
0 0 0

1369.51 731.158 0
731.158 1694.59 0
0 0 0

-5466.13 470.56 0
470.56 -4500.32 0
0 0 0

2965.7 -2593.52 0
-2593.52 9408.64 0
0 0 0

978.9 3085.63 0
3085.63 1950.63 0
0 0 0

3509.82 1147.56 0
1147.56 3673.84 0
0 0 0

-1317.14 580.454 0
580.454 -2079.67 0
0 0 0

323.322 657.063 0
657.063 2234.9 0
0 0 0

-2573.51 -750.474 0
-750.474 5830.52 0
0 0 0

-14070.6 3954.76 0
3954.76 -24466.8 0
0 0 0

-365.233 2655.5 0
2655.5 -6009.94 0
0 0 0

721.13 -1162.09 0
-1162.09 -12623.4 0
0 0 0

951.68 2333.64 0
2333.64 -3145.57 0
0 0 0

-10268.2 4828.59 0
4828.59 2264.4 0
0 0 0

-871.432 3301.02 0
3301.02 1435 0
0 0 0

5122.49 3416.33 0
3416.33 6177.91 0
0 0 0

-4594.17 5444.56 0
5444.56 -87.9699 0
0 0 0

-3057.47 -174.655 0
-174.655 2308.55 0
0 0 0

-1777.48 3527.28 0
3527.28 1026.95 0
0 0 0

1774.07 3948.29 0
3948.29 2563.95 0
0 0 0

3000.78 2984.63 0
2984.63 5981.27 0
0 0 0

-4934.08 188.615 0
188.615 -3531.36 0
0 0 0

-332.19 865.059 0
865.059 4359.74 0
0 0 0

-191.734 3069.38 0
3069.38 354.831 0
0 0 0

1243.61 889.296 0
889.296 6930.84 0
0 0 0

2318.6 -5158.69 0
-5158.69 2430.01 0
0 0 0

442.853 1619.58 0
1619.58 723.899 0
0 0 0

1478.46 -1263.21 0
-1263.21 1902.81 0
0 0 0

6139.29 2231.67 0
2231.67 -419.874 0
0 0 0

2125.66 2364.63 0
2364.63 -5113.39 0
0 0 0

-2884.49 535.271 0
535.271 -2298.2 0
0 0 0

773.404 1510.01 0
1510.01 -4031.22 0
0 0 0

3446.76 2931.21 0
2931.21 2700.3 0
0 0 0

768.988 644.94 0
644.94 6454.21 0
0 0 0

-815.393 -489.015 0
-489.015 1827.85 0
0 0 0

-3330.73 2830.39 0
2830.39 2997.43 0
0 0 0

-367.768 6008.08 0
6008.08 -6203.67 0
0 0 0

-2460.3 149.973 0
149.973 2430.5 0
0 0 0

-2333.39 -1404.97 0
-1404.97 42.8591 0
0 0 0

1337.97 2205.67 0
2205.67 3768.34 0
0 0 0

-144.328 2456.36 0
2456.36 4897.65 0
0 0 0

-6292.3 -325.222 0
-325.222 -565.701 0
0 0 0

2488.01 -228.925 0
-228.925 -3209.97 0
0 0 0

-1585.48 1245.52 0
1245.52 -81.4182 0
0 0 0

1710.01 4416.23 0
4416.23 -1055.76 0
0 0 0

-2853.1 -1454.14 0
-1454.14 7213.08 0
0 0 0

-642.793 738.813 0
738.813 -556.778 0
0 0 0

-741.67 1997.03 0
1997.03 -285.274 0
0 0 0

-2782.68 1993.2 0
1993.2 -1092.56 0
0 0 0

-4062.27 -2384.23 0
-2384.23 -4034.46 0
0 0 0

986.442 28.6363 0
28.6363 -60.281 0
0 0 0

-787.688 1723.66 0
1723.66 4915.98 0
0 0 0

-739.665 3135.75 0
3135.75 1656.66 0
0 0 0

-2966.39 -17.4679 0
-17.4679 2940.63 0
0 0 0

4328.26 -2093.19 0
-2093.19 2191.06 0
0 0 0

-1070.42 3330.12 0
3330.12 -1833.97 0
0 0 0

-1901.55 2338.26 0
2338.26 -210.896 0
0 0 0

TENSORS velocity_gradient double
-12.5763 -1.55303 0
-1.21872 15.0401 0
0 0 0

-6.02826 -1.76854 0
2.95152 10.6479 0
0 0 0

-3.65872 -2.01337 0
6.45588 15.5146 0
0 0 0

-3.0857 -5.93468 0
6.75948 11.4305 0
0 0 0

-0.889852 -4.25005 0
4.67644 7.08871 0
0 0 0

-0.917795 -6.62246 0
4.93629 3.55216 0
0 0 0

-1.54102 -9.24882 0
7.6827 7.34235 0
0 0 0

-1.08632 -9.42251 0
8.4615 3.93211 0
0 0 0

1.33197 -9.18086 0
10.2877 0.444606 0
0 0 0

1.25526 -8.8659 0
10.5346 -0.569089 0
0 0 0

0.223122 -9.25288 0
10.5746 0.948177 0
0 0 0

0.941452 -8.95923 0
11.5446 -0.268709 0
0 0 0

0.791158 -8.8155 0
11.8627 -1.10129 0
0 0 0

0.885245 -9.27529 0
11.8039 -0.813565 0
0 0 0

1.01374 -8.9591 0
11.7028 -0.618087 0
0 0 0

1.21407 -9.0462 0
11.7293 -0.611105 0
0 0 0

-0.205704 -5.52611 0
10.8892 12.4407 0
0 0 0

0.741253 -9.95504 0
10.8682 7.53916 0
0 0 0

-0.545344 -15.5831 0
14.7819 4.8182 0
0 0 0

1.24265 -15.2271 0
12.1918 2.75849 0
0 0 0

0.0682808 -13.0139 0
11.0009 3.81072 0
0 0 0

-1.38757 -14.4714 0
11.016 2.13374 0
0 0 0

1.22871 -15.1551 0
12.3716 1.82983 0
0 0 0

-2.11014 -14.6516 0
10.3403 1.9652 0
0 0 0

-1.19003 -13.6569 0
11.2787 2.68334 0
0 0 0

-0.535863 -11.8731 0
12.577 1.96618 0
0 0 0

-2.27738 -13.9757 0
10.1839 2.59724 0
0 0 0

-2.75804 -12.4492 0
13.7102 2.25993 0
0 0 0

-0.765282 -9.8138 0
12.7514 0.895823 0
0 0 0

0.953979 -9.0642 0
12.6704 -0.17234 0
0 0 0

-2.99821 -10.3174 0
13.868 1.19557 0
0 0 0

0.367654 -9.92672 0
13.324 1.4242 0
0 0 0

-1.28779 -15.818 0
18.2989 5.9308 0
0 0 0

1.06667 -15.0018 0
12.9817 2.92176 0
0 0 0

-0.985329 -13.8228 0
18.6605 0.459702 0
0 0 0

-0.68388 -14.4333 0
14.8618 2.32951 0
0 0 0

0.816065 -13.0565 0
13.0532 2.60496 0
0 0 0

-2.79699 -10.499 0
9.84828 2.97096 0
0 0 0

-0.98601 -12.4901 0
12.8931 2.78508 0
0 0 0

-2.967 -10.5763 0
10.5261 3.00586 0
0 0 0

-2.94257 -9.80864 0
9.86418 2.92319 0
0 0 0

-2.8969 -9.71859 0
14.6356 2.61525 0
0 0 0

-3.49697 -9.94466 0
9.94629 2.94333 0
0 0 0

-2.56719 -9.63107 0
13.6016 2.74294 0
0 0 0

-2.76969 -10.6121 0
14.7498 1.81335 0
0 0 0

-1.35753 -10.6845 0
12.044 1.70008 0
0 0 0

-1.87579 -10.9338 0
15.5332 1.75545 0
0 0 0

-2.69055 -13.1387 0
13.2532 0.199505 0
0 0 0

0.0372706 -13.6341 0
16.6944 0.0968569 0
0 0 0

-0.517008 -14.1514 0
15.3318 2.00801 0
0 0 0

0.346222 -10.0213 0
15.103 -0.690769 0
0 0 0

0.311018 -9.79323 0
14.9138 0.535381 0
0 0 0

-2.8913 -11.2955 0
12.5491 2.24528 0
0 0 0

-3.24525 -9.0217 0
11.9588 2.49389 0
0 0 0

-3.6229 -9.3929 0
11.7545 1.48317 0
0 0 0

-3.7229 -8.88532 0
11.5829 2.35446 0
0 0 0

-3.02212 -10.0977 0
10.3157 2.09538 0
0 0 0

-2.5315 -11.8459 0
11.0893 1.36882 0
0 0 0

-1.31668 -9.725 0
11.0203 2.24937 0
0 0 0

-0.962696 -11.373 0
11.1665 1.5685 0
0 0 0

-0.748877 -13.1298 0
16.2055 0.725174 0
0 0 0

-0.842755 -14.2086 0
16.1732 0.0848771 0
0 0 0

0.428361 -12.5837 0
16.4346 -0.707189 0
0 0 0

0.717069 -13.21 0
15.6478 0.123557 0
0 0 0

SCALARS active double 1
LOOKUP_TABLE default
1
1
1
1
1
1
1
1
1
1
1
1
1
1
1
1
1
1
1
1
1
1
1
1
1
1
1
1
1
1
1
1
1
1
1
1
1
1
1
1
1
1
1
1
1
1
1
1
1
1
1
1
1
1
1
1
1
1
1
1
1
1
1
1
SCALARS extent double 1
LOOKUP_TABLE default
0.0125
0.0125
0.0125
0.0125
0.0125
0.0125
0.0125
0.0125
0.0125
0.0125
0.0125
0.0125
0.0125
0.0125
0.0125
0.0125
0.0125
0.0125
0.0125
0.0125
0.0125
0.0125
0.0125
0.0125
0.0125
0.0125
0.0125
0.0125
0.0125
0.0125
0.0125
0.0125
0.0125
0.0125
0.0125
0.0125
0.0125
0.0125
0.0125
0.0125
0.0125
0.0125
0.0125
0.0125
0.0125
0.0125
0.0125
0.0125
0.0125
0.0125
0.0125
0.0125
0.0125
0.0125
0.0125
0.0125
0.0125
0.0125
0.0125
0.0125
0.0125
0.0125
0.0125
0.0125
SCALARS pressure double 1
LOOKUP_TABLE default
14750.3
-2691.53
9959.19
-218.062
1043.6
2967.33
-449.163
-3081.09
-1532.05
4983.22
-6187.17
-1464.77
-3591.83
1698.41
-1279.11
-1628.51
19268.7
3187.59
5951.12
1096.95
4001.92
-281.785
-5650.2
2341.07
374.462
375.265
-2169.01
-4491.02
4232.72
-2013.78
-81.5484
-4087.23
-2374.3
-583.376
-1690.63
-2859.71
1493.87
2591.35
1628.91
-3073.53
-3611.6
-506.228
166.651
3285.72
14.9008
1145.27
-2553.16
-2376.66
3429
360.982
833.45
-327.129
-2179.99
599.786
513.472
1937.62
4048.37
-463.08
-2064.14
-458.498
12.8798
-3259.66
1452.19
1056.22
SCALARS density double 1
LOOKUP_TABLE default
1165.79
972.396
1109.13
997.735
1010.91
1031.34
995.34
968.465
984.193
1053.19
937.68
984.882
963.334
1017.82
986.785
983.206
1221.88
1033.71
1063.85
1011.47
1042.5
997.074
942.931
1024.65
1003.9
1003.91
977.695
954.367
1045
979.275
999.152
958.384
975.61
993.951
982.571
970.697
1015.66
1027.32
1017.08
968.541
963.136
994.749
1001.73
1034.76
1000.15
1011.98
973.797
975.586
1036.31
1003.76
1008.71
996.604
977.583
1006.26
1005.35
1020.36
1043
995.196
978.762
995.243
1000.13
966.668
1015.22
1011.05
