# vtk DataFile Version 3.0
Frame: 43, Time: 0.731
ASCII
DATASET UNSTRUCTURED_GRID
POINTS 64 double
0.597751 0.201023 0 
0.587192 0.178805 0 
0.571832 0.212193 0 
0.562295 0.189097 0 
0.575845 0.154801 0 
0.568648 0.130629 0 
0.551935 0.164974 0 
0.543047 0.141272 0 
0.556358 0.106881 0 
0.545676 0.0822019 0 
0.532603 0.118281 0 
0.522576 0.0951066 0 
0.534385 0.0601467 0 
0.518731 0.0376427 0 
0.511659 0.0725853 0 
0.499472 0.0501473 0 
0.545762 0.221392 0 
0.537632 0.197284 0 
0.525357 0.234961 0 
0.515203 0.21061 0 
0.529709 0.17416 0 
0.520015 0.150762 0 
0.507304 0.185393 0 
0.497097 0.160839 0 
0.508002 0.128129 0 
0.500025 0.1058 0 
0.484915 0.139714 0 
0.475882 0.116033 0 
0.490179 0.0832685 0 
0.478239 0.0599394 0 
0.4666 0.0918525 0 
0.456898 0.0688874 0 
0.501037 0.244291 0 
0.491429 0.219069 0 
0.475707 0.254864 0 
0.467108 0.228204 0 
0.483191 0.195379 0 
0.473211 0.171 0 
0.459523 0.203603 0 
0.448919 0.179517 0 
0.461448 0.14759 0 
0.451757 0.123795 0 
0.438982 0.156151 0 
0.428761 0.132738 0 
0.442108 0.0996636 0 
0.432377 0.0755846 0 
0.418801 0.109077 0 
0.40867 0.0854444 0 
0.452645 0.263286 0 
0.444088 0.236724 0 
0.42718 0.270729 0 
0.419868 0.244715 0 
0.43576 0.213207 0 
0.425486 0.190322 0 
0.411663 0.222343 0 
0.402469 0.199035 0 
0.415391 0.167336 0 
0.405903 0.143685 0 
0.392052 0.176085 0 
0.381855 0.153229 0 
0.395898 0.120381 0 
0.386083 0.0948353 0 
0.371836 0.128559 0 
0.362643 0.105058 0 
CELLS 64 128
1 0
1 1
1 2
1 3
1 4
1 5
1 6
1 7
1 8
1 9
1 10
1 11
1 12
1 13
1 14
1 15
1 16
1 17
1 18
1 19
1 20
1 21
1 22
1 23
1 24
1 25
1 26
1 27
1 28
1 29
1 30
1 31
1 32
1 33
1 34
1 35
1 36
1 37
1 38
1 39
1 40
1 41
1 42
1 43
1 44
1 45
1 46
1 47
1 48
1 49
1 50
1 51
1 52
1 53
1 54
1 55
1 56
1 57
1 58
1 59
1 60
1 61
1 62
1 63
CELL_TYPES 64
1
1
1
1
1
1
1
1
1
1
1
1
1
1
1
1
1
1
1
1
1
1
1
1
1
1
1
1
1
1
1
1
1
1
1
1
1
1
1
1
1
1
1
1
1
1
1
1
1
1
1
1
1
1
1
1
1
1
1
1
1
1
1
1
POINT_DATA 64
VECTORS displacement double
-0.0147491 -0.111477 0 
-0.0253079 -0.158695 0 
-0.065668 -0.100307 0 
-0.0752055 -0.148403 0 
-0.0366554 -0.207699 0 
-0.0438515 -0.256871 0 
-0.0855647 -0.197526 0 
-0.0944534 -0.246228 0 
-0.0561421 -0.305619 0 
-0.0668239 -0.355298 0 
-0.104897 -0.294219 0 
-0.114924 -0.342393 0 
-0.0781153 -0.402353 0 
-0.0937694 -0.449857 0 
-0.125841 -0.389915 0 
-0.138028 -0.437353 0 
-0.116738 -0.0911083 0 
-0.124868 -0.140216 0 
-0.162143 -0.0775395 0 
-0.172297 -0.12689 0 
-0.132791 -0.18834 0 
-0.142485 -0.236738 0 
-0.180196 -0.177107 0 
-0.190403 -0.226661 0 
-0.154498 -0.284371 0 
-0.162475 -0.3317 0 
-0.202585 -0.272786 0 
-0.211618 -0.321467 0 
-0.172321 -0.379232 0 
-0.184261 -0.427561 0 
-0.2209 -0.370648 0 
-0.230602 -0.418613 0 
-0.211463 -0.0682092 0 
-0.221071 -0.118431 0 
-0.261793 -0.057636 0 
-0.270392 -0.109296 0 
-0.229309 -0.167121 0 
-0.239289 -0.2165 0 
-0.277977 -0.158897 0 
-0.288581 -0.207983 0 
-0.251052 -0.26491 0 
-0.260743 -0.313705 0 
-0.298518 -0.256349 0 
-0.308739 -0.304762 0 
-0.270392 -0.362836 0 
-0.280123 -0.411915 0 
-0.318699 -0.353423 0 
-0.32883 -0.402056 0 
-0.309855 -0.0492139 0 
-0.318412 -0.100776 0 
-0.36032 -0.0417707 0 
-0.367632 -0.0927849 0 
-0.32674 -0.149293 0 
-0.337014 -0.197178 0 
-0.375837 -0.140157 0 
-0.385031 -0.188465 0 
-0.347109 -0.245164 0 
-0.356597 -0.293815 0 
-0.395448 -0.236415 0 
-0.405645 -0.284271 0 
-0.366602 -0.342119 0 
-0.376417 -0.392665 0 
-0.415664 -0.333941 0 
-0.424857 -0.382442 0 
VECTORS velocity double
-1.36682 0.0916914 0 
-1.22166 0.209651 0 
-1.44747 0.111025 0 
-1.5215 -0.0415515 0 
-1.44566 0.0327674 0 
-0.824098 0.432155 0 
-1.78306 -0.33191 0 
-1.77222 -0.152347 0 
-1.29058 -0.00889512 0 
-0.389776 0.114168 0 
-1.13351 -0.0675498 0 
-0.764533 -0.187299 0 
-0.623104 0.116157 0 
-0.394117 -0.132896 0 
-0.956563 0.0101224 0 
-0.76428 -0.14357 0 
-1.78806 -0.511385 0 
-1.31094 -0.205888 0 
-1.70064 0.335033 0 
-1.55423 0.297508 0 
-1.0071 0.0905483 0 
-1.05866 -0.010787 0 
-1.32134 -0.0610757 0 
-1.27303 -0.262816 0 
-1.13531 0.117674 0 
-0.724892 -0.379689 0 
-1.47199 0.079398 0 
-1.26476 -0.290247 0 
-0.727257 -0.407214 0 
-0.654896 -0.409436 0 
-1.17407 -0.372704 0 
-0.727965 -0.50189 0 
-1.63143 -0.596908 0 
-1.30917 0.114153 0 
-2.22622 -0.0700126 0 
-1.57481 -0.665104 0 
-1.65501 -0.525069 0 
-1.07729 -1.06707 0 
-2.02479 -0.240437 0 
-1.67177 -0.604741 0 
-0.995209 -0.368589 0 
-0.796672 -0.577154 0 
-1.31421 -0.315424 0 
-1.13511 -0.340736 0 
-0.980332 -0.29943 0 
-0.296072 -0.588649 0 
-1.37118 -0.370449 0 
-1.06922 -0.732379 0 
-1.8408 -0.2567 0 
-1.45231 -0.57797 0 
-2.03943 -0.643323 0 
-1.81125 -0.861944 0 
-1.04341 -0.000997161 0 
-1.18041 -0.425844 0 
-1.50548 -0.320116 0 
-1.64108 -0.901582 0 
-1.63275 -0.537121 0 
-1.13329 -0.295831 0 
-1.39217 -0.719894 0 
-1.24422 -1.13743 0 
-0.463311 -0.346516 0 
-0.758247 -1.15224 0 
-1.28477 -1.06877 0 
-0.865502 -0.716453 0 
SCALARS mass double 1
LOOKUP_TABLE default
0.625
0.625
0.625
0.625
0.625
0.625
0.625
0.625
0.625
0.625
0.625
0.625
0.625
0.625
0.625
0.625
0.625
0.625
0.625
0.625
0.625
0.625
0.625
0.625
0.625
0.625
0.625
0.625
0.625
0.625
0.625
0.625
0.625
0.625
0.625
0.625
0.625
0.625
0.625
0.625
0.625
0.625
0.625
0.625
0.625
0.625
0.625
0.625
0.625
0.625
0.625
0.625
0.625
0.625
0.625
0.625
0.625
0.625
0.625
0.625
0.625
0.625
0.625
0.625
SCALARS volume double 1
LOOKUP_TABLE default
0.000628247
0.000626906
0.000624864
0.000629231
0.000638109
0.000643845
0.000609978
0.000612473
0.000636357
0.000620179
0.000632577
0.000618029
0.000656809
0.000493729
0.000626537
0.000593252
0.000610651
0.000651501
0.000635565
0.000635724
0.000555241
0.00060588
0.00066631
0.000622564
0.000608912
0.000621153
0.000612934
0.000644417
0.000589226
0.000566928
0.000612967
0.000617817
0.000622094
0.000623036
0.00063048
0.000647493
0.000659608
0.000617606
0.000617583
0.000626787
0.000629736
0.000619463
0.000622593
0.000618433
0.000612936
0.000641488
0.000624661
0.00061937
0.000615523
0.000614048
0.000629988
0.000613481
0.000624874
0.000620489
0.000615517
0.000620281
0.00060822
0.000608744
0.000629462
0.000614015
0.000628937
0.000618298
0.000618964
0.000629485
VECTORS momentum double
-0.854263 0.0573071 0 
-0.76354 0.131032 0 
-0.904669 0.0693905 0 
-0.950935 -0.0259697 0 
-0.90354 0.0204796 0 
-0.515061 0.270097 0 
-1.11441 -0.207444 0 
-1.10764 -0.0952167 0 
-0.806613 -0.00555945 0 
-0.24361 0.0713548 0 
-0.708446 -0.0422186 0 
-0.477833 -0.117062 0 
-0.38944 0.0725981 0 
-0.246323 -0.0830601 0 
-0.597852 0.00632647 0 
-0.477675 -0.089731 0 
-1.11754 -0.319616 0 
-0.819335 -0.12868 0 
-1.0629 0.209396 0 
-0.971393 0.185942 0 
-0.629438 0.0565927 0 
-0.661662 -0.0067419 0 
-0.825839 -0.0381723 0 
-0.795646 -0.16426 0 
-0.70957 0.073546 0 
-0.453058 -0.237306 0 
-0.919996 0.0496238 0 
-0.790478 -0.181405 0 
-0.454535 -0.254509 0 
-0.40931 -0.255898 0 
-0.733794 -0.23294 0 
-0.454978 -0.313681 0 
-1.01964 -0.373068 0 
-0.818232 0.0713458 0 
-1.39139 -0.0437579 0 
-0.984256 -0.41569 0 
-1.03438 -0.328168 0 
-0.673306 -0.66692 0 
-1.26549 -0.150273 0 
-1.04485 -0.377963 0 
-0.622006 -0.230368 0 
-0.49792 -0.360721 0 
-0.821384 -0.19714 0 
-0.709446 -0.21296 0 
-0.612708 -0.187144 0 
-0.185045 -0.367906 0 
-0.856986 -0.23153 0 
-0.668264 -0.457737 0 
-1.1505 -0.160437 0 
-0.907695 -0.361231 0 
-1.27465 -0.402077 0 
-1.13203 -0.538715 0 
-0.652131 -0.000623225 0 
-0.737757 -0.266152 0 
-0.940927 -0.200073 0 
-1.02568 -0.563489 0 
-1.02047 -0.335701 0 
-0.708304 -0.184894 0 
-0.870106 -0.449934 0 
-0.777637 -0.710893 0 
-0.289569 -0.216573 0 
-0.473905 -0.720147 0 
-0.802984 -0.66798 0 
-0.540939 -0.447783 0 
VECTORS body_force double
0 -9.81 0 
0 -9.81 0 
0 -9.81 0 
0 -9.81 0 
0 -9.81 0 
0 -9.81 0 
0 -9.81 0 
0 -9.81 0 
0 -9.81 0 
0 -9.81 0 
0 -9.81 0 
0 -9.81 0 
0 -9.81 0 
0 -9.81 0 
0 -9.81 0 
0 -9.81 0 
0 -9.81 0 
0 -9.81 0 
0 -9.81 0 
0 -9.81 0 
0 -9.81 0 
0 -9.81 0 
0 -9.81 0 
0 -9.81 0 
0 -9.81 0 
0 -9.81 0 
0 -9.81 0 
0 -9.81 0 
0 -9.81 0 
0 -9.81 0 
0 -9.81 0 
0 -9.81 0 
0 -9.81 0 
0 -9.81 0 
0 -9.81 0 
0 -9.81 0 
0 -9.81 0 
0 -9.81 0 
0 -9.81 0 
0 -9.81 0 
0 -9.81 0 
0 -9.81 0 
0 -9.81 0 
0 -9.81 0 
0 -9.81 0 
0 -9.81 0 
0 -9.81 0 
0 -9.81 0 
0 -9.81 0 
0 -9.81 0 
0 -9.81 0 
0 -9.81 0 
0 -9.81 0 
0 -9.81 0 
0 -9.81 0 
0 -9.81 0 
0 -9.81 0 
0 -9.81 0 
0 -9.81 0 
0 -9.81 0 
0 -9.81 0 
0 -9.81 0 
0 -9.81 0 
0 -9.81 0 
TENSORS cauchy_stress double
214.894 -1001.39 0
-1001.39 781.73 0
0 0 0

-1112.7 1243.06 0
1243.06 1698.35 0
0 0 0

181.575 -1252.57 0
-1252.57 -223.55 0
0 0 0

-475.898 -3096.28 0
-3096.28 1773.42 0
0 0 0

690.481 2455.76 0
2455.76 3301.42 0
0 0 0

3513.28 454.734 0
454.734 2199.41 0
0 0 0

-1715.43 832.072 0
832.072 -2963.24 0
0 0 0

-132.109 -1292.16 0
-1292.16 -3761.66 0
0 0 0

-1527.93 1175.76 0
1175.76 4991.03 0
0 0 0

-391.888 -1785.31 0
-1785.31 -1097.34 0
0 0 0

5385.65 -1562.71 0
-1562.71 -3068.22 0
0 0 0

-2991.02 -1849.41 0
-1849.41 834.039 0
0 0 0

4098.68 403.707 0
403.707 5447.66 0
0 0 0

-22644.4 13065 0
13065 -22695 0
0 0 0

2803.88 401.479 0
401.479 -2331.56 0
0 0 0

1725.37 -21.4977 0
-21.4977 -11750.9 0
0 0 0

860.416 1827.45 0
1827.45 -5326.84 0
0 0 0

1093.89 2162.8 0
2162.8 6892.27 0
0 0 0

188.452 -813.475 0
-813.475 3035.27 0
0 0 0

-98.4158 -3665.51 0
-3665.51 3370.03 0
0 0 0

-9718.09 -1615.64 0
-1615.64 -13041.5 0
0 0 0

-1961.23 1506.72 0
1506.72 -4013.86 0
0 0 0

2617.08 -1371.6 0
-1371.6 9691.3 0
0 0 0

1757.14 -983.312 0
-983.312 -2508 0
0 0 0

609.793 -1371.36 0
-1371.36 -5624.86 0
0 0 0

-718.385 -4514.89 0
-4514.89 -468.901 0
0 0 0

-1280.73 -1866.62 0
-1866.62 -2468.18 0
0 0 0

3081.18 1808.71 0
1808.71 2802.46 0
0 0 0

-3590.59 662.976 0
662.976 -7744.34 0
0 0 0

-10096.9 5343.54 0
5343.54 -8657.02 0
0 0 0

-1423.98 1045.41 0
1045.41 -2314.7 0
0 0 0

-2929.26 2567.18 0
2567.18 706.412 0
0 0 0

1009.75 5219.99 0
5219.99 -1905.95 0
0 0 0

681.38 986.059 0
986.059 -1286.76 0
0 0 0

113.497 -965.86 0
-965.86 1565.17 0
0 0 0

650.125 -1358.87 0
-1358.87 6149.3 0
0 0 0

6386.33 570.569 0
570.569 3977.86 0
0 0 0

4027.83 3230.58 0
3230.58 -6316.59 0
0 0 0

-913.414 -540.379 0
-540.379 -1382.51 0
0 0 0

271.74 -686.622 0
-686.622 277.258 0
0 0 0

1106.18 2533.1 0
2533.1 345.514 0
0 0 0

4842.25 6521.98 0
6521.98 -6553.61 0
0 0 0

342.249 -999.715 0
-999.715 -1084.34 0
0 0 0

-4068.45 -2214.77 0
-2214.77 2037.3 0
0 0 0

-329.462 3568.52 0
3568.52 -3418.69 0
0 0 0

1511.4 1311.97 0
1311.97 3496.06 0
0 0 0

-1571.4 -1911.87 0
-1911.87 1467.02 0
0 0 0

-1842.18 -703.076 0
-703.076 101.889 0
0 0 0

-700.399 -278.138 0
-278.138 -2237.96 0
0 0 0

-4695.42 -440.384 0
-440.384 1295.69 0
0 0 0

331.631 587.623 0
587.623 1196.91 0
0 0 0

-1492.87 -1466.07 0
-1466.07 -2084.57 0
0 0 0

4526.01 -705.52 0
-705.52 -4564.88 0
0 0 0

-472.445 890.419 0
890.419 -920.548 0
0 0 0

1928.48 -1208.17 0
-1208.17 -4868.55 0
0 0 0

-2.01387 -227.997 0
-227.997 -1455.62 0
0 0 0

-1476.7 3703.45 0
3703.45 -3756.92 0
0 0 0

519.992 672.14 0
672.14 -5587.94 0
0 0 0

1889.98 -520.157 0
-520.157 -521.93 0
0 0 0

-1469.74 2554.66 0
2554.66 -1940.29 0
0 0 0

933.583 2365.99 0
2365.99 274.074 0
0 0 0

-2697.23 1757.97 0
1757.97 623.827 0
0 0 0

-1457.65 1043.58 0
1043.58 -408.753 0
0 0 0

2744.22 -1361.84 0
-1361.84 -1369.17 0
0 0 0

TENSORS velocity_gradient double
1.08891 -0.266216 0
3.45206 -0.579593 0
0 0 0

1.53599 -1.85923 0
3.02508 -0.626787 0
0 0 0

2.94055 -1.88767 0
3.28156 -0.522111 0
0 0 0

1.6053 -2.02515 0
3.11785 -0.848891 0
0 0 0

1.35421 -2.55472 0
2.84363 -0.868992 0
0 0 0

0.654026 -7.37628 0
3.45383 -1.64419 0
0 0 0

0.67083 -2.16394 0
2.84253 -0.905973 0
0 0 0

-2.17339 -7.83904 0
3.28252 -0.671738 0
0 0 0

-0.188677 -7.819 0
4.29142 -1.20416 0
0 0 0

0.728632 -8.14452 0
4.8712 -0.46927 0
0 0 0

-1.43638 -7.44724 0
4.37972 -0.171436 0
0 0 0

-0.29164 -6.35123 0
5.10782 -0.729822 0
0 0 0

2.6027 -7.22351 0
4.48327 -0.646523 0
0 0 0

2.60455 -12.822 0
3.23402 -1.88124 0
0 0 0

1.55403 -5.33559 0
4.72455 -1.08091 0
0 0 0

1.42928 -9.0282 0
4.78554 -2.29011 0
0 0 0

1.34554 -4.17307 0
2.42608 -0.63109 0
0 0 0

-0.180191 -3.21069 0
2.16883 -0.75174 0
0 0 0

0.509036 -4.60817 0
2.03971 -0.607308 0
0 0 0

0.18018 -4.74682 0
2.08367 -0.588772 0
0 0 0

-1.35542 -3.13766 0
2.50362 -0.677446 0
0 0 0

-2.36874 -5.0856 0
2.95287 -0.120658 0
0 0 0

-0.745572 -4.34663 0
2.32792 -0.329152 0
0 0 0

-1.03824 -4.79803 0
4.12391 -0.203525 0
0 0 0

-1.82259 -6.49303 0
3.90881 0.992048 0
0 0 0

-0.331503 -6.17643 0
4.3244 1.11676 0
0 0 0

-0.441169 -5.74121 0
4.66831 0.921865 0
0 0 0

0.233848 -5.47929 0
3.81692 0.591517 0
0 0 0

0.382165 -4.46942 0
4.15799 -0.813944 0
0 0 0

-0.0681063 -4.70237 0
5.47234 -0.133953 0
0 0 0

0.549983 -4.92444 0
3.66812 0.514267 0
0 0 0

0.107014 -5.11422 0
4.96116 1.06825 0
0 0 0

0.359752 -5.00861 0
2.65641 -0.65466 0
0 0 0

0.314399 -4.86179 0
4.68031 -0.552227 0
0 0 0

-0.214332 -5.52476 0
4.59089 -0.0663054 0
0 0 0

0.167787 -4.47724 0
4.67193 -0.530241 0
0 0 0

0.462035 -5.15546 0
4.7322 -0.159846 0
0 0 0

-0.153686 -5.50349 0
4.88846 -0.0244658 0
0 0 0

0.508373 -4.63125 0
4.70073 -0.415903 0
0 0 0

-0.0438601 -6.03163 0
4.47383 0.100489 0
0 0 0

-0.552716 -5.32444 0
4.86645 0.0696606 0
0 0 0

-0.0520467 -4.87259 0
4.32088 -0.149089 0
0 0 0

0.175017 -6.01656 0
3.95314 0.0848995 0
0 0 0

-0.0429697 -5.0928 0
4.55956 0.393744 0
0 0 0

-0.589483 -5.02136 0
5.58842 0.542578 0
0 0 0

-0.481919 -5.12747 0
4.86604 0.821345 0
0 0 0

-0.491339 -5.28442 0
5.46474 0.780589 0
0 0 0

-0.562404 -4.93652 0
5.27056 -0.138369 0
0 0 0

-0.208006 -5.43902 0
4.31323 0.174072 0
0 0 0

-0.151991 -4.23831 0
3.22879 -0.339675 0
0 0 0

0.504203 -5.94787 0
3.56156 -0.742789 0
0 0 0

-0.107759 -4.61478 0
2.74914 0.249484 0
0 0 0

-0.37435 -4.28187 0
3.73679 -0.0918326 0
0 0 0

-0.344448 -5.81477 0
4.14088 0.0119711 0
0 0 0

-0.300731 -4.47404 0
3.43053 0.707605 0
0 0 0

-0.883333 -5.01132 0
3.93814 0.443078 0
0 0 0

0.00381845 -5.6595 0
4.01501 -0.0441414 0
0 0 0

0.157639 -5.52546 0
4.14785 1.21002 0
0 0 0

-1.90909 -5.04255 0
4.47971 0.235328 0
0 0 0

-0.714658 -4.68233 0
5.62893 0.770617 0
0 0 0

-0.319333 -5.61345 0
4.50987 1.21347 0
0 0 0

-0.194669 -4.82828 0
3.37688 0.0665506 0
0 0 0

-0.36435 -5.56337 0
4.80426 -0.00248281 0
0 0 0

-0.278512 -5.4956 0
3.48553 -0.493735 0
0 0 0

SCALARS active double 1
LOOKUP_TABLE default
1
1
1
1
1
1
1
1
1
1
1
1
1
1
1
1
1
1
1
1
1
1
1
1
1
1
1
1
1
1
1
1
1
1
1
1
1
1
1
1
1
1
1
1
1
1
1
1
1
1
1
1
1
1
1
1
1
1
1
1
1
1
1
1
SCALARS extent double 1
LOOKUP_TABLE default
0.0125
0.0125
0.0125
0.0125
0.0125
0.0125
0.0125
0.0125
0.0125
0.0125
0.0125
0.0125
0.0125
0.0125
0.0125
0.0125
0.0125
0.0125
0.0125
0.0125
0.0125
0.0125
0.0125
0.0125
0.0125
0.0125
0.0125
0.0125
0.0125
0.0125
0.0125
0.0125
0.0125
0.0125
0.0125
0.0125
0.0125
0.0125
0.0125
0.0125
0.0125
0.0125
0.0125
0.0125
0.0125
0.0125
0.0125
0.0125
0.0125
0.0125
0.0125
0.0125
0.0125
0.0125
0.0125
0.0125
0.0125
0.0125
0.0125
0.0125
0.0125
0.0125
0.0125
0.0125
SCALARS pressure double 1
LOOKUP_TABLE default
-498.312
-292.825
20.9875
-648.763
-1995.95
-2856.34
2339.33
1946.88
-1731.55
744.616
-1158.71
1078.49
-4773.17
22669.7
-236.16
5012.79
2233.21
-3993.08
-1611.86
-1635.81
11379.8
2987.54
-6154.19
375.427
2507.53
593.643
1874.45
-2941.82
5667.46
9376.94
1869.34
1111.42
448.098
302.69
-839.335
-3399.71
-5182.1
1144.38
1147.96
-274.499
-725.847
855.682
371.044
1015.58
1874.08
-2503.73
52.1906
870.145
1469.18
1699.86
-764.27
1788.72
19.4359
696.497
1470.04
728.817
2616.81
2533.97
-684.024
1705.01
-603.829
1036.7
933.203
-687.523
SCALARS density double 1
LOOKUP_TABLE default
994.831
996.959
1000.22
993.276
979.456
970.731
1024.63
1020.45
982.153
1007.77
988.022
1011.28
951.571
1265.88
997.547
1053.52
1023.5
959.322
983.376
983.131
1125.64
1031.56
938.002
1003.91
1026.42
1006.19
1019.69
969.868
1060.71
1102.43
1019.63
1011.63
1004.67
1003.15
991.309
965.261
947.533
1011.97
1012.01
997.149
992.48
1008.94
1003.87
1010.62
1019.68
974.297
1000.54
1009.09
1015.4
1017.84
992.083
1018.78
1000.2
1007.27
1015.41
1007.61
1027.59
1026.7
992.911
1017.89
993.74
1010.84
1009.75
992.875
