# vtk DataFile Version 3.0
Frame: 18, Time: 0.306
ASCII
DATASET UNSTRUCTURED_GRID
POINTS 64 double
0.943268 0.101663 0 
0.921132 0.0903723 0 
0.932276 0.124645 0 
0.910753 0.112987 0 
0.896503 0.0800468 0 
0.875574 0.0688011 0 
0.88617 0.103118 0 
0.864166 0.0917668 0 
0.852774 0.057443 0 
0.828683 0.0486346 0 
0.841818 0.080609 0 
0.818434 0.0717547 0 
0.80544 0.0390619 0 
0.778673 0.0320929 0 
0.795588 0.0604108 0 
0.771673 0.0505127 0 
0.921223 0.147932 0 
0.899686 0.136087 0 
0.912309 0.170221 0 
0.889976 0.159562 0 
0.877165 0.126703 0 
0.854568 0.11513 0 
0.866662 0.14955 0 
0.84389 0.137691 0 
0.831142 0.103709 0 
0.808632 0.0943427 0 
0.821236 0.127205 0 
0.79748 0.116621 0 
0.786087 0.0826741 0 
0.762398 0.0727336 0 
0.774919 0.104914 0 
0.752131 0.0943581 0 
0.901244 0.193478 0 
0.878589 0.182048 0 
0.890237 0.216905 0 
0.867812 0.205558 0 
0.85542 0.172143 0 
0.832951 0.160654 0 
0.844997 0.1951 0 
0.82207 0.183585 0 
0.810036 0.149674 0 
0.787063 0.138807 0 
0.799634 0.172157 0 
0.776743 0.161304 0 
0.764183 0.127676 0 
0.740813 0.116894 0 
0.753975 0.15052 0 
0.731056 0.139996 0 
0.879136 0.239898 0 
0.856753 0.228501 0 
0.868312 0.262528 0 
0.845569 0.251404 0 
0.834254 0.217448 0 
0.811277 0.20642 0 
0.822786 0.240138 0 
0.799766 0.229153 0 
0.789013 0.194982 0 
0.765989 0.183982 0 
0.777669 0.217729 0 
0.755282 0.207158 0 
0.743023 0.173487 0 
0.720365 0.162771 0 
0.731891 0.196553 0 
0.709151 0.185779 0 
CELLS 64 128
1 0
1 1
1 2
1 3
1 4
1 5
1 6
1 7
1 8
1 9
1 10
1 11
1 12
1 13
1 14
1 15
1 16
1 17
1 18
1 19
1 20
1 21
1 22
1 23
1 24
1 25
1 26
1 27
1 28
1 29
1 30
1 31
1 32
1 33
1 34
1 35
1 36
1 37
1 38
1 39
1 40
1 41
1 42
1 43
1 44
1 45
1 46
1 47
1 48
1 49
1 50
1 51
1 52
1 53
1 54
1 55
1 56
1 57
1 58
1 59
1 60
1 61
1 62
1 63
CELL_TYPES 64
1
1
1
1
1
1
1
1
1
1
1
1
1
1
1
1
1
1
1
1
1
1
1
1
1
1
1
1
1
1
1
1
1
1
1
1
1
1
1
1
1
1
1
1
1
1
1
1
1
1
1
1
1
1
1
1
1
1
1
1
1
1
1
1
POINT_DATA 64
VECTORS displacement double
0.330768 -0.210837 0 
0.308632 -0.247128 0 
0.294776 -0.187855 0 
0.273253 -0.224513 0 
0.284003 -0.282453 0 
0.263074 -0.318699 0 
0.24867 -0.259382 0 
0.226666 -0.295733 0 
0.240274 -0.355057 0 
0.216183 -0.388865 0 
0.204318 -0.331891 0 
0.180934 -0.365745 0 
0.19294 -0.423438 0 
0.166173 -0.455407 0 
0.158088 -0.402089 0 
0.134173 -0.436987 0 
0.258723 -0.164568 0 
0.237186 -0.201413 0 
0.224809 -0.142279 0 
0.202476 -0.177938 0 
0.214665 -0.235797 0 
0.192068 -0.27237 0 
0.179162 -0.21295 0 
0.15639 -0.249809 0 
0.168642 -0.308791 0 
0.146132 -0.343157 0 
0.133736 -0.285295 0 
0.10998 -0.320879 0 
0.123587 -0.379826 0 
0.099898 -0.414766 0 
0.0874192 -0.357586 0 
0.0646307 -0.393142 0 
0.188744 -0.119022 0 
0.166089 -0.155452 0 
0.152737 -0.0955949 0 
0.130312 -0.131942 0 
0.14292 -0.190357 0 
0.120451 -0.226846 0 
0.107497 -0.1674 0 
0.0845698 -0.203915 0 
0.0975365 -0.262826 0 
0.0745628 -0.298693 0 
0.0621341 -0.240343 0 
0.0392429 -0.276196 0 
0.0516835 -0.334824 0 
0.0283128 -0.370606 0 
0.0164753 -0.31198 0 
-0.00644357 -0.347504 0 
0.116636 -0.0726019 0 
0.0942529 -0.108999 0 
0.0808115 -0.0499721 0 
0.0580686 -0.086096 0 
0.071754 -0.145052 0 
0.0487767 -0.18108 0 
0.0352863 -0.122362 0 
0.0122662 -0.158347 0 
0.0265126 -0.217518 0 
0.0034894 -0.253518 0 
-0.00983135 -0.194771 0 
-0.0322181 -0.230342 0 
-0.0194771 -0.289013 0 
-0.042135 -0.324729 0 
-0.0556089 -0.265947 0 
-0.0783493 -0.301721 0 
VECTORS velocity double
1.45609 -1.19678 0 
1.64065 -1.51895 0 
0.960302 -1.29813 0 
1.20474 -1.94947 0 
1.61212 -1.40858 0 
1.8419 -1.67644 0 
1.20582 -1.82344 0 
1.04152 -1.78249 0 
2.16208 -1.74891 0 
1.97493 -2.08613 0 
1.43322 -1.90332 0 
1.43822 -2.20141 0 
2.2698 -1.77486 0 
1.74626 -1.83908 0 
1.29498 -1.66979 0 
1.12578 -1.99236 0 
0.848249 -1.45921 0 
0.918212 -1.71098 0 
0.863283 -1.02933 0 
1.1882 -1.65233 0 
1.21543 -1.78401 0 
1.23675 -1.75012 0 
1.07208 -1.78988 0 
1.038 -1.8982 0 
1.59378 -2.16139 0 
1.50272 -2.3665 0 
1.19607 -2.17829 0 
1.08777 -2.19074 0 
1.42516 -2.05738 0 
1.42759 -2.30143 0 
1.22974 -2.21368 0 
1.36134 -2.88302 0 
0.531007 -1.56757 0 
0.808608 -2.05603 0 
0.27577 -1.21012 0 
0.326109 -1.84048 0 
0.84284 -1.9554 0 
0.920898 -2.00419 0 
0.467869 -1.77932 0 
0.456628 -2.04656 0 
1.06783 -2.3781 0 
1.0347 -2.54478 0 
0.76072 -2.42734 0 
0.777345 -2.63797 0 
1.14396 -2.56017 0 
1.43855 -2.99402 0 
0.844698 -2.42637 0 
1.05294 -2.81115 0 
0.317225 -1.42743 0 
0.663423 -1.83489 0 
-0.18084 -1.6151 0 
-0.0699583 -2.18061 0 
0.821187 -2.07681 0 
0.923699 -2.10813 0 
0.0214092 -2.20577 0 
-0.0228441 -2.23254 0 
0.923739 -2.40219 0 
0.853596 -2.64944 0 
0.207054 -2.43644 0 
0.436109 -2.91761 0 
1.06534 -2.38326 0 
1.173 -3.11062 0 
0.278891 -2.70533 0 
0.545775 -3.28792 0 
SCALARS mass double 1
LOOKUP_TABLE default
0.625
0.625
0.625
0.625
0.625
0.625
0.625
0.625
0.625
0.625
0.625
0.625
0.625
0.625
0.625
0.625
0.625
0.625
0.625
0.625
0.625
0.625
0.625
0.625
0.625
0.625
0.625
0.625
0.625
0.625
0.625
0.625
0.625
0.625
0.625
0.625
0.625
0.625
0.625
0.625
0.625
0.625
0.625
0.625
0.625
0.625
0.625
0.625
0.625
0.625
0.625
0.625
0.625
0.625
0.625
0.625
0.625
0.625
0.625
0.625
0.625
0.625
0.625
0.625
SCALARS volume double 1
LOOKUP_TABLE default
0.000617488
0.000630307
0.000634032
0.000622958
0.000620249
0.000615673
0.000618218
0.000626266
0.000626998
0.000593522
0.000619243
0.0006177
0.000510729
0.000426526
0.000628788
0.000608815
0.00061387
0.000631379
0.000635769
0.000621351
0.000608815
0.000629242
0.000633914
0.000634953
0.000620484
0.000627781
0.000635304
0.000621759
0.00060187
0.000597707
0.000615235
0.000607917
0.000628995
0.000636051
0.000646441
0.00062463
0.000627967
0.000618032
0.000627715
0.000631634
0.000623302
0.000624383
0.000640809
0.000623559
0.000627498
0.000630401
0.000616055
0.000627495
0.000624133
0.000629112
0.00062648
0.000623445
0.000626967
0.000631599
0.000637891
0.000625192
0.000620249
0.000628491
0.000623728
0.000629649
0.000625188
0.00062123
0.000626106
0.000629226
VECTORS momentum double
0.910055 -0.74799 0 
1.0254 -0.949346 0 
0.600189 -0.811333 0 
0.752962 -1.21842 0 
1.00758 -0.880362 0 
1.15119 -1.04777 0 
0.753635 -1.13965 0 
0.650947 -1.11406 0 
1.3513 -1.09307 0 
1.23433 -1.30383 0 
0.89576 -1.18957 0 
0.898886 -1.37588 0 
1.41862 -1.10929 0 
1.09141 -1.14942 0 
0.809363 -1.04362 0 
0.703615 -1.24522 0 
0.530156 -0.912007 0 
0.573882 -1.06936 0 
0.539552 -0.643331 0 
0.742627 -1.03271 0 
0.759646 -1.11501 0 
0.77297 -1.09382 0 
0.670048 -1.11868 0 
0.648751 -1.18638 0 
0.99611 -1.35087 0 
0.939201 -1.47906 0 
0.747545 -1.36143 0 
0.679857 -1.36921 0 
0.890722 -1.28586 0 
0.892246 -1.43839 0 
0.768589 -1.38355 0 
0.850837 -1.80189 0 
0.33188 -0.979732 0 
0.50538 -1.28502 0 
0.172356 -0.756326 0 
0.203818 -1.1503 0 
0.526775 -1.22213 0 
0.575561 -1.25262 0 
0.292418 -1.11208 0 
0.285393 -1.2791 0 
0.667392 -1.48631 0 
0.646687 -1.59049 0 
0.47545 -1.51709 0 
0.48584 -1.64873 0 
0.714972 -1.60011 0 
0.899094 -1.87127 0 
0.527936 -1.51648 0 
0.65809 -1.75697 0 
0.198266 -0.892145 0 
0.41464 -1.1468 0 
-0.113025 -1.00944 0 
-0.043724 -1.36288 0 
0.513242 -1.29801 0 
0.577312 -1.31758 0 
0.0133808 -1.37861 0 
-0.0142775 -1.39534 0 
0.577337 -1.50137 0 
0.533498 -1.6559 0 
0.129409 -1.52277 0 
0.272568 -1.8235 0 
0.66584 -1.48954 0 
0.733124 -1.94414 0 
0.174307 -1.69083 0 
0.341109 -2.05495 0 
VECTORS body_force double
0 -9.81 0 
0 -9.81 0 
0 -9.81 0 
0 -9.81 0 
0 -9.81 0 
0 -9.81 0 
0 -9.81 0 
0 -9.81 0 
0 -9.81 0 
0 -9.81 0 
0 -9.81 0 
0 -9.81 0 
0 -9.81 0 
0 -9.81 0 
0 -9.81 0 
0 -9.81 0 
0 -9.81 0 
0 -9.81 0 
0 -9.81 0 
0 -9.81 0 
0 -9.81 0 
0 -9.81 0 
0 -9.81 0 
0 -9.81 0 
0 -9.81 0 
0 -9.81 0 
0 -9.81 0 
0 -9.81 0 
0 -9.81 0 
0 -9.81 0 
0 -9.81 0 
0 -9.81 0 
0 -9.81 0 
0 -9.81 0 
0 -9.81 0 
0 -9.81 0 
0 -9.81 0 
0 -9.81 0 
0 -9.81 0 
0 -9.81 0 
0 -9.81 0 
0 -9.81 0 
0 -9.81 0 
0 -9.81 0 
0 -9.81 0 
0 -9.81 0 
0 -9.81 0 
0 -9.81 0 
0 -9.81 0 
0 -9.81 0 
0 -9.81 0 
0 -9.81 0 
0 -9.81 0 
0 -9.81 0 
0 -9.81 0 
0 -9.81 0 
0 -9.81 0 
0 -9.81 0 
0 -9.81 0 
0 -9.81 0 
0 -9.81 0 
0 -9.81 0 
0 -9.81 0 
0 -9.81 0 
TENSORS cauchy_stress double
-2297.11 953.116 0
953.116 -28.3181 0
0 0 0

1012.33 1368.83 0
1368.83 613.85 0
0 0 0

2135 -2379.17 0
-2379.17 624.184 0
0 0 0

-635.698 -48.6404 0
-48.6404 6.431 0
0 0 0

-1668.76 824.004 0
824.004 201.335 0
0 0 0

-2030.41 -381.873 0
-381.873 -861.061 0
0 0 0

-265.422 -3356.77 0
-3356.77 -1832.86 0
0 0 0

-1898.21 -1646.75 0
-1646.75 2287.47 0
0 0 0

-392.4 -1785.36 0
-1785.36 1006.33 0
0 0 0

-4120.03 -489.224 0
-489.224 -5817.92 0
0 0 0

278.211 -1622.84 0
-1622.84 -2057.66 0
0 0 0

-670.229 164.092 0
164.092 -1589.02 0
0 0 0

-10847 7557.93 0
7557.93 -27982.3 0
0 0 0

-17629 10640.5 0
10640.5 -55847.8 0
0 0 0

1311.05 482.865 0
482.865 -149.088 0
0 0 0

1642.89 303.34 0
303.34 -6688.55 0
0 0 0

-1874.39 2705.8 0
2705.8 -1581.14 0
0 0 0

-689.695 113.755 0
113.755 2642.63 0
0 0 0

1648.19 -1420.45 0
-1420.45 1637.13 0
0 0 0

-1016.63 -733.372 0
-733.372 -109.435 0
0 0 0

-4223.32 -908.301 0
-908.301 -822.162 0
0 0 0

-20.351 4551.72 0
4551.72 1321.28 0
0 0 0

2358.63 -849.754 0
-849.754 364.707 0
0 0 0

1805.74 -1370.09 0
-1370.09 1232.72 0
0 0 0

-2668.61 -903.177 0
-903.177 1274.02 0
0 0 0

335.632 353.228 0
353.228 518.23 0
0 0 0

3257.17 -2144.43 0
-2144.43 -112.447 0
0 0 0

1645.73 1997.42 0
1997.42 -2645.66 0
0 0 0

-3014.06 2083.75 0
2083.75 -4237.95 0
0 0 0

-2065.28 1890.45 0
1890.45 -6521.51 0
0 0 0

-478.555 -1753.94 0
-1753.94 -2549.67 0
0 0 0

-1391.08 -57.8552 0
-57.8552 -3938.39 0
0 0 0

721.411 473.945 0
473.945 503.834 0
0 0 0

391.812 -1143.45 0
-1143.45 2978.78 0
0 0 0

2632.48 -930.295 0
-930.295 3854.17 0
0 0 0

-918.036 -1283.81 0
-1283.81 804.277 0
0 0 0

988.874 -480.074 0
-480.074 -78.1723 0
0 0 0

-1578.93 263.08 0
263.08 -577.154 0
0 0 0

1306.26 804.179 0
804.179 -472.814 0
0 0 0

-1890.62 1165.93 0
1165.93 3921.16 0
0 0 0

-114.959 1330.75 0
1330.75 -408.162 0
0 0 0

839.445 -6.74673 0
-6.74673 -1029.25 0
0 0 0

2392.05 -1633.5 0
-1633.5 2411.64 0
0 0 0

756.915 730.687 0
730.687 -1200.71 0
0 0 0

-50.1277 -262.767 0
-262.767 817.164 0
0 0 0

1545.94 1076.74 0
1076.74 108.829 0
0 0 0

-2749.12 262.496 0
262.496 -23.1957 0
0 0 0

675.402 -472.309 0
-472.309 90.8318 0
0 0 0

197.523 -274.638 0
-274.638 -464.452 0
0 0 0

274.975 333.904 0
333.904 986.07 0
0 0 0

146.428 -412.329 0
-412.329 308.385 0
0 0 0

-2373.34 472.706 0
472.706 1894.33 0
0 0 0

2290.36 -2080.56 0
-2080.56 -1685.95 0
0 0 0

1060.92 460.298 0
460.298 958.993 0
0 0 0

2519.81 417.675 0
417.675 1406.4 0
0 0 0

-1947.36 -460.871 0
-460.871 2006.47 0
0 0 0

-366.367 1373.84 0
1373.84 -1100.99 0
0 0 0

652.351 -628.923 0
-628.923 418.834 0
0 0 0

-2332.76 -33.2285 0
-33.2285 1941.06 0
0 0 0

1915.02 -879.45 0
-879.45 -489.805 0
0 0 0

-501.062 -821.879 0
-821.879 559.045 0
0 0 0

329.692 -940.725 0
-940.725 -1493.17 0
0 0 0

-1266.37 569.011 0
569.011 1606.42 0
0 0 0

645.456 -22.381 0
-22.381 650.353 0
0 0 0

TENSORS velocity_gradient double
0.274927 -7.63157 0
5.36568 0.166349 0
0 0 0

0.284987 -8.09431 0
4.99808 -1.21175 0
0 0 0

-0.220952 -7.33145 0
4.91028 0.35347 0
0 0 0

0.059371 -6.80666 0
5.21977 0.932863 0
0 0 0

-1.09329 -8.62667 0
5.69016 -2.33635 0
0 0 0

-1.68401 -9.47021 0
6.49074 -1.217 0
0 0 0

-0.472587 -6.94442 0
5.05322 0.351029 0
0 0 0

-0.743485 -9.92713 0
5.17389 -0.577254 0
0 0 0

0.295803 -10.0644 0
4.37668 -0.458079 0
0 0 0

3.94706 12.0818 0
-0.308226 -19.3775 0
0 0 0

1.59117 -9.57738 0
4.12227 -1.33763 0
0 0 0

2.38012 -7.4787 0
2.7722 -4.92897 0
0 0 0

3.96203 33.3904 0
-0.205899 -37.3715 0
0 0 0

4.4476 30.0929 0
1.79657 -38.4253 0
0 0 0

5.21396 -5.28544 0
3.60704 -7.97781 0
0 0 0

5.91582 7.11473 0
2.93036 -18.7301 0
0 0 0

-0.617799 -7.2687 0
4.42201 1.15558 0
0 0 0

-0.330247 -6.66096 0
5.57919 0.981778 0
0 0 0

-0.0331991 -7.81924 0
4.73453 1.57913 0
0 0 0

-0.128515 -8.23203 0
6.85861 1.13461 0
0 0 0

-0.285036 -6.74178 0
5.85933 0.302325 0
0 0 0

-0.241865 -6.90029 0
5.87077 -0.523837 0
0 0 0

-0.150223 -7.68784 0
6.63378 0.401257 0
0 0 0

0.337488 -6.97835 0
7.95505 -0.867653 0
0 0 0

0.0962342 -7.14242 0
6.93568 -1.31389 0
0 0 0

0.474522 -6.75677 0
6.09165 -5.41474 0
0 0 0

0.256671 -7.15627 0
7.65437 -1.52961 0
0 0 0

0.376837 -7.15587 0
6.52835 -1.99577 0
0 0 0

2.70412 -4.22688 0
5.44191 -8.72645 0
0 0 0

3.82966 -1.54381 0
4.65994 -10.5905 0
0 0 0

0.770753 -6.53273 0
6.51276 -1.6791 0
0 0 0

0.115031 -1.84885 0
7.29745 -7.81727 0
0 0 0

0.385656 -8.03104 0
6.1641 1.23056 0
0 0 0

-0.113883 -8.2393 0
7.26878 0.930768 0
0 0 0

-0.0954155 -7.50288 0
7.73289 0.745082 0
0 0 0

-0.1002 -7.51253 0
7.63109 0.539874 0
0 0 0

-0.150432 -8.2276 0
7.19468 0.535611 0
0 0 0

0.0113729 -7.68304 0
8.05457 0.708057 0
0 0 0

-0.937098 -7.97351 0
7.53185 0.49032 0
0 0 0

-0.7243 -7.34037 0
7.6905 0.877638 0
0 0 0

0.270574 -7.0495 0
8.12833 0.0626748 0
0 0 0

-0.232684 -6.89907 0
5.95268 -1.88358 0
0 0 0

-0.172711 -6.80733 0
7.24287 1.02176 0
0 0 0

-0.239139 -7.10276 0
6.37631 0.218202 0
0 0 0

0.0934798 -6.21918 0
6.13473 -1.50409 0
0 0 0

-1.3808 -6.23242 0
6.78088 -1.40704 0
0 0 0

-0.315398 -7.15106 0
6.31613 -0.844614 0
0 0 0

-0.488097 -6.6024 0
7.04599 -1.51691 0
0 0 0

-0.0855338 -7.50757 0
7.94312 0.645459 0
0 0 0

-0.0903388 -7.5172 0
7.84089 0.440631 0
0 0 0

-0.193342 -7.46925 0
7.36269 -0.748754 0
0 0 0

0.982526 -8.07268 0
7.60541 -0.0558011 0
0 0 0

-0.548793 -8.04624 0
7.42298 0.416952 0
0 0 0

-0.901201 -8.79596 0
7.44609 0.466122 0
0 0 0

0.190468 -8.41264 0
7.37449 0.440982 0
0 0 0

-0.383692 -8.94352 0
7.746 0.465253 0
0 0 0

0.288673 -7.42153 0
7.69684 0.646203 0
0 0 0

0.179731 -7.29773 0
7.31527 -0.21887 0
0 0 0

-0.211485 -8.42146 0
7.97507 0.37137 0
0 0 0

0.196123 -7.74195 0
7.80628 0.291621 0
0 0 0

0.24563 -7.71387 0
7.26621 -0.889134 0
0 0 0

0.0621212 -8.10894 0
7.21078 -1.00847 0
0 0 0

0.628205 -7.83636 0
7.25514 -0.0643865 0
0 0 0

0.463699 -8.30045 0
7.33207 -1.06632 0
0 0 0

SCALARS active double 1
LOOKUP_TABLE default
1
1
1
1
1
1
1
1
1
1
1
1
1
1
1
1
1
1
1
1
1
1
1
1
1
1
1
1
1
1
1
1
1
1
1
1
1
1
1
1
1
1
1
1
1
1
1
1
1
1
1
1
1
1
1
1
1
1
1
1
1
1
1
1
SCALARS extent double 1
LOOKUP_TABLE default
0.0125
0.0125
0.0125
0.0125
0.0125
0.0125
0.0125
0.0125
0.0125
0.0125
0.0125
0.0125
0.0125
0.0125
0.0125
0.0125
0.0125
0.0125
0.0125
0.0125
0.0125
0.0125
0.0125
0.0125
0.0125
0.0125
0.0125
0.0125
0.0125
0.0125
0.0125
0.0125
0.0125
0.0125
0.0125
0.0125
0.0125
0.0125
0.0125
0.0125
0.0125
0.0125
0.0125
0.0125
0.0125
0.0125
0.0125
0.0125
0.0125
0.0125
0.0125
0.0125
0.0125
0.0125
0.0125
0.0125
0.0125
0.0125
0.0125
0.0125
0.0125
0.0125
0.0125
0.0125
SCALARS pressure double 1
LOOKUP_TABLE default
1162.72
-813.089
-1379.59
314.634
733.711
1445.73
1049.14
-194.631
-306.965
4968.98
889.723
1129.62
19414.6
36738.4
-580.979
2522.83
1727.76
-976.466
-1642.66
563.034
2522.74
-650.464
-1361.67
-1519.23
697.296
-426.931
-1572.36
499.964
3626.01
4293.39
1514.11
2664.74
-612.623
-1685.29
-3243.33
56.8796
-455.351
1078.04
-416.723
-1015.27
261.56
94.901
-2401.84
221.897
-383.518
-827.386
1386.16
-383.117
133.464
-630.522
-227.406
239.505
-302.202
-1009.95
-1963.11
-29.5559
733.68
-535.592
195.847
-712.608
-28.991
581.737
-170.027
-647.905
SCALARS density double 1
LOOKUP_TABLE default
1012.17
991.58
985.755
1003.28
1007.66
1015.15
1010.97
997.978
996.813
1053.04
1009.3
1011.82
1223.74
1465.33
993.976
1026.58
1018.13
989.896
983.061
1005.87
1026.58
993.258
985.938
984.324
1007.28
995.57
983.78
1005.21
1038.43
1045.66
1015.87
1028.1
993.649
982.626
966.832
1000.59
995.276
1011.27
995.675
989.497
1002.72
1000.99
975.33
1002.31
996.019
991.432
1014.52
996.024
1001.39
993.464
997.638
1002.49
996.862
989.551
979.791
999.693
1007.66
994.445
1002.04
992.616
999.699
1006.07
998.233
993.284
