# vtk DataFile Version 3.0
Frame: 5, Time: 0.085
ASCII
DATASET UNSTRUCTURED_GRID
POINTS 64 double
0.334932 0.144459 0 
0.330552 0.16827 0 
0.360168 0.149063 0 
0.355499 0.17334 0 
0.324752 0.191532 0 
0.318219 0.215012 0 
0.349293 0.197398 0 
0.342293 0.221583 0 
0.311404 0.238641 0 
0.304626 0.262925 0 
0.335317 0.24564 0 
0.328537 0.269904 0 
0.298162 0.287574 0 
0.292769 0.312446 0 
0.322259 0.29404 0 
0.317135 0.318617 0 
0.385347 0.154413 0 
0.380261 0.178671 0 
0.410413 0.159554 0 
0.404926 0.183695 0 
0.373665 0.202802 0 
0.366276 0.227118 0 
0.397932 0.207708 0 
0.389842 0.231972 0 
0.359419 0.251459 0 
0.352751 0.27592 0 
0.382895 0.256528 0 
0.376234 0.281262 0 
0.346573 0.299997 0 
0.341607 0.324489 0 
0.37012 0.305393 0 
0.365139 0.329672 0 
0.435631 0.165668 0 
0.429544 0.189448 0 
0.461239 0.172282 0 
0.454445 0.195657 0 
0.422364 0.212873 0 
0.413683 0.23677 0 
0.446961 0.218378 0 
0.437553 0.241701 0 
0.40608 0.261014 0 
0.399318 0.286036 0 
0.428955 0.265239 0 
0.422201 0.290043 0 
0.39346 0.31066 0 
0.38851 0.33501 0 
0.416895 0.315461 0 
0.412546 0.341026 0 
0.486134 0.179927 0 
0.478868 0.203218 0 
0.510525 0.187701 0 
0.503313 0.21178 0 
0.471152 0.225752 0 
0.460872 0.24826 0 
0.495263 0.235117 0 
0.484013 0.256422 0 
0.451634 0.270659 0 
0.444645 0.29431 0 
0.473834 0.277787 0 
0.466689 0.299007 0 
0.439544 0.319735 0 
0.436007 0.346906 0 
0.460805 0.321078 0 
0.454601 0.347426 0 
CELLS 64 128
1 0
1 1
1 2
1 3
1 4
1 5
1 6
1 7
1 8
1 9
1 10
1 11
1 12
1 13
1 14
1 15
1 16
1 17
1 18
1 19
1 20
1 21
1 22
1 23
1 24
1 25
1 26
1 27
1 28
1 29
1 30
1 31
1 32
1 33
1 34
1 35
1 36
1 37
1 38
1 39
1 40
1 41
1 42
1 43
1 44
1 45
1 46
1 47
1 48
1 49
1 50
1 51
1 52
1 53
1 54
1 55
1 56
1 57
1 58
1 59
1 60
1 61
1 62
1 63
CELL_TYPES 64
1
1
1
1
1
1
1
1
1
1
1
1
1
1
1
1
1
1
1
1
1
1
1
1
1
1
1
1
1
1
1
1
1
1
1
1
1
1
1
1
1
1
1
1
1
1
1
1
1
1
1
1
1
1
1
1
1
1
1
1
1
1
1
1
POINT_DATA 64
VECTORS displacement double
0.122432 -0.0680407 0 
0.118052 -0.06923 0 
0.122668 -0.0634375 0 
0.117999 -0.0641604 0 
0.112252 -0.070968 0 
0.105719 -0.0724885 0 
0.111793 -0.0651021 0 
0.104793 -0.0659175 0 
0.0989044 -0.0738595 0 
0.092126 -0.074575 0 
0.0978173 -0.06686 0 
0.0910367 -0.0675963 0 
0.0856616 -0.0749257 0 
0.0802694 -0.0750538 0 
0.0847589 -0.06846 0 
0.0796346 -0.0688827 0 
0.122847 -0.0580869 0 
0.117761 -0.0588292 0 
0.122913 -0.0529456 0 
0.117426 -0.0538046 0 
0.111165 -0.0596984 0 
0.103776 -0.0603817 0 
0.110432 -0.0547923 0 
0.102342 -0.0555281 0 
0.0969193 -0.0610414 0 
0.0902509 -0.0615797 0 
0.0953955 -0.0559719 0 
0.0887345 -0.0562383 0 
0.0840729 -0.0625032 0 
0.0791067 -0.0630106 0 
0.0826198 -0.0571066 0 
0.0776389 -0.0578275 0 
0.123131 -0.0468322 0 
0.117044 -0.0480519 0 
0.123739 -0.0402179 0 
0.116945 -0.0418427 0 
0.109864 -0.0496274 0 
0.101183 -0.0507304 0 
0.109461 -0.0441219 0 
0.100053 -0.0457987 0 
0.0935801 -0.0514861 0 
0.0868177 -0.0514638 0 
0.0914549 -0.0472613 0 
0.0847009 -0.0474567 0 
0.0809603 -0.0518403 0 
0.0760103 -0.05249 0 
0.0793954 -0.0470389 0 
0.0750465 -0.046474 0 
0.123634 -0.0325729 0 
0.116368 -0.0342818 0 
0.123025 -0.0247991 0 
0.115813 -0.0257196 0 
0.108652 -0.0367481 0 
0.0983719 -0.0392396 0 
0.107763 -0.0273834 0 
0.0965129 -0.0310784 0 
0.0891338 -0.0418412 0 
0.0821455 -0.0431905 0 
0.0863336 -0.0347126 0 
0.0791892 -0.0384935 0 
0.0770442 -0.042765 0 
0.0735071 -0.0405942 0 
0.0733045 -0.0414219 0 
0.0671006 -0.0400737 0 
VECTORS velocity double
0.172289 -2.76353 0 
-0.354924 -2.88483 0 
0.232982 -2.14464 0 
-0.327325 -2.18024 0 
-0.671671 -3.08642 0 
-0.781524 -3.16625 0 
-0.71206 -2.26851 0 
-0.872215 -2.34153 0 
-0.876586 -3.1016 0 
-0.910607 -3.00101 0 
-1.05231 -2.39561 0 
-1.18172 -2.48495 0 
-1.02143 -2.85 0 
-1.61089 -2.87141 0 
-1.32334 -2.53565 0 
-1.78483 -2.52713 0 
0.298171 -1.69393 0 
-0.360261 -1.83799 0 
0.266142 -1.32759 0 
-0.430587 -1.51168 0 
-0.795053 -1.92985 0 
-0.902157 -1.98772 0 
-0.800343 -1.62056 0 
-0.883806 -1.72572 0 
-0.965693 -1.99469 0 
-1.10111 -2.11287 0 
-0.832572 -1.61802 0 
-0.852414 -1.61434 0 
-1.24158 -2.22014 0 
-1.67833 -2.18581 0 
-0.889915 -1.73066 0 
-1.51709 -1.98212 0 
0.0970019 -0.909542 0 
-0.638366 -0.999634 0 
0.070056 -0.511806 0 
-0.746063 -0.57936 0 
-0.75174 -1.07247 0 
-0.824684 -1.25331 0 
-0.711642 -0.649116 0 
-0.704769 -0.683828 0 
-0.993763 -1.47376 0 
-1.01384 -1.40957 0 
-1.25861 -1.33043 0 
-1.47877 -1.45499 0 
-0.935322 -1.32604 0 
-1.60374 -1.85011 0 
-1.5591 -1.11327 0 
-1.78849 -1.63183 0 
0.0720806 -0.375933 0 
-0.80901 -0.617353 0 
-0.165468 0.244205 0 
-0.934334 -0.0529366 0 
-0.816303 -0.91737 0 
-0.550521 -0.684992 0 
-1.01783 -0.467805 0 
-0.621717 -0.396354 0 
-0.893361 -0.92719 0 
-1.28239 -1.29804 0 
-0.571963 -0.0948099 0 
-0.206234 -0.820726 0 
-1.65245 -0.939428 0 
-1.31538 -1.18442 0 
0.00633463 -1.25864 0 
-0.802665 -1.59596 0 
SCALARS mass double 1
LOOKUP_TABLE default
0.625
0.625
0.625
0.625
0.625
0.625
0.625
0.625
0.625
0.625
0.625
0.625
0.625
0.625
0.625
0.625
0.625
0.625
0.625
0.625
0.625
0.625
0.625
0.625
0.625
0.625
0.625
0.625
0.625
0.625
0.625
0.625
0.625
0.625
0.625
0.625
0.625
0.625
0.625
0.625
0.625
0.625
0.625
0.625
0.625
0.625
0.625
0.625
0.625
0.625
0.625
0.625
0.625
0.625
0.625
0.625
0.625
0.625
0.625
0.625
0.625
0.625
0.625
0.625
SCALARS volume double 1
LOOKUP_TABLE default
0.000626855
0.000613635
0.000635268
0.000626979
0.000609122
0.000614905
0.000624072
0.000622083
0.000622231
0.000633436
0.000622623
0.000619053
0.000637903
0.000630462
0.000622509
0.000633909
0.000631179
0.000627816
0.00063229
0.000631072
0.000620211
0.000613577
0.000626636
0.000612318
0.000618367
0.000612522
0.000611313
0.000597081
0.000615038
0.000627055
0.000593051
0.000590627
0.000638493
0.000627112
0.000644557
0.000617661
0.000617977
0.000619798
0.000602645
0.000597965
0.00061211
0.000609
0.000576692
0.000583233
0.000614922
0.000612967
0.000611138
0.000619493
0.000635803
0.000614696
0.000628426
0.000624965
0.000624303
0.000595637
0.00060908
0.000549658
0.000607993
0.00059222
0.00052575
0.000438863
0.000619477
0.000634015
0.000462273
0.000412146
VECTORS momentum double
0.107681 -1.72721 0 
-0.221828 -1.80302 0 
0.145614 -1.3404 0 
-0.204578 -1.36265 0 
-0.419794 -1.92901 0 
-0.488453 -1.97891 0 
-0.445038 -1.41782 0 
-0.545134 -1.46346 0 
-0.547866 -1.9385 0 
-0.569129 -1.87563 0 
-0.657696 -1.49726 0 
-0.738575 -1.5531 0 
-0.638393 -1.78125 0 
-1.00681 -1.79463 0 
-0.827089 -1.58478 0 
-1.11552 -1.57946 0 
0.186357 -1.0587 0 
-0.225163 -1.14875 0 
0.166338 -0.829743 0 
-0.269117 -0.944801 0 
-0.496908 -1.20616 0 
-0.563848 -1.24232 0 
-0.500214 -1.01285 0 
-0.552379 -1.07858 0 
-0.603558 -1.24668 0 
-0.688196 -1.32054 0 
-0.520358 -1.01126 0 
-0.532759 -1.00896 0 
-0.775989 -1.38759 0 
-1.04895 -1.36613 0 
-0.556197 -1.08166 0 
-0.948184 -1.23883 0 
0.0606262 -0.568464 0 
-0.398978 -0.624771 0 
0.043785 -0.319879 0 
-0.46629 -0.3621 0 
-0.469838 -0.670294 0 
-0.515427 -0.783317 0 
-0.444776 -0.405698 0 
-0.44048 -0.427392 0 
-0.621102 -0.921101 0 
-0.633647 -0.88098 0 
-0.786628 -0.831518 0 
-0.924231 -0.909371 0 
-0.584576 -0.828773 0 
-1.00234 -1.15632 0 
-0.974439 -0.695793 0 
-1.11781 -1.0199 0 
0.0450504 -0.234958 0 
-0.505631 -0.385846 0 
-0.103417 0.152628 0 
-0.583959 -0.0330854 0 
-0.51019 -0.573356 0 
-0.344076 -0.42812 0 
-0.636144 -0.292378 0 
-0.388573 -0.247721 0 
-0.558351 -0.579494 0 
-0.801495 -0.811274 0 
-0.357477 -0.0592562 0 
-0.128896 -0.512954 0 
-1.03278 -0.587142 0 
-0.822115 -0.740262 0 
0.00395914 -0.786649 0 
-0.501666 -0.997473 0 
VECTORS body_force double
0 -9.81 0 
0 -9.81 0 
0 -9.81 0 
0 -9.81 0 
0 -9.81 0 
0 -9.81 0 
0 -9.81 0 
0 -9.81 0 
0 -9.81 0 
0 -9.81 0 
0 -9.81 0 
0 -9.81 0 
0 -9.81 0 
0 -9.81 0 
0 -9.81 0 
0 -9.81 0 
0 -9.81 0 
0 -9.81 0 
0 -9.81 0 
0 -9.81 0 
0 -9.81 0 
0 -9.81 0 
0 -9.81 0 
0 -9.81 0 
0 -9.81 0 
0 -9.81 0 
0 -9.81 0 
0 -9.81 0 
0 -9.81 0 
0 -9.81 0 
0 -9.81 0 
0 -9.81 0 
0 -9.81 0 
0 -9.81 0 
0 -9.81 0 
0 -9.81 0 
0 -9.81 0 
0 -9.81 0 
0 -9.81 0 
0 -9.81 0 
0 -9.81 0 
0 -9.81 0 
0 -9.81 0 
0 -9.81 0 
0 -9.81 0 
0 -9.81 0 
0 -9.81 0 
0 -9.81 0 
0 -9.81 0 
0 -9.81 0 
0 -9.81 0 
0 -9.81 0 
0 -9.81 0 
0 -9.81 0 
0 -9.81 0 
0 -9.81 0 
0 -9.81 0 
0 -9.81 0 
0 -9.81 0 
0 -9.81 0 
0 -9.81 0 
0 -9.81 0 
0 -9.81 0 
0 -9.81 0 
TENSORS cauchy_stress double
1679.93 1349.08 0
1349.08 -1109.91 0
0 0 0

996.189 -451.461 0
-451.461 -4525.41 0
0 0 0

1784.74 3535.75 0
3535.75 1349.09 0
0 0 0

1394.59 -27.7941 0
-27.7941 -786.748 0
0 0 0

-367.795 470.65 0
470.65 -4580.86 0
0 0 0

-348.021 -23.3592 0
-23.3592 -2783.56 0
0 0 0

373.322 -617.996 0
-617.996 -659.1 0
0 0 0

-95.977 -1752.23 0
-1752.23 -803.671 0
0 0 0

-402.174 656.616 0
656.616 -451.622 0
0 0 0

602.749 582.964 0
582.964 1975.7 0
0 0 0

-601.282 -35.1971 0
-35.1971 -131.35 0
0 0 0

-1473.77 570.374 0
570.374 -364.746 0
0 0 0

1317.86 -391.698 0
-391.698 2611.95 0
0 0 0

27.5072 671.164 0
671.164 1645.78 0
0 0 0

-803.668 471.656 0
471.656 35.734 0
0 0 0

2.98934 2897.92 0
2897.92 2718.89 0
0 0 0

1772.15 2256.16 0
2256.16 119.624 0
0 0 0

1742.39 -1812.49 0
-1812.49 -877.983 0
0 0 0

2024.3 2658.29 0
2658.29 205.894 0
0 0 0

2508.17 -2070.51 0
-2070.51 -648.901 0
0 0 0

-124.12 -2303.92 0
-2303.92 -1355.17 0
0 0 0

-1719.43 -3808.91 0
-3808.91 -1827.91 0
0 0 0

1840.28 -3218.93 0
-3218.93 -1337.59 0
0 0 0

-1860.27 -4955.19 0
-4955.19 -2082.06 0
0 0 0

-1545.9 -2246.12 0
-2246.12 -505.886 0
0 0 0

-1927.28 -1389.54 0
-1389.54 -1950.9 0
0 0 0

-3946.9 -3051.23 0
-3051.23 -311.259 0
0 0 0

-5619.77 -1970.97 0
-1970.97 -3168.48 0
0 0 0

-1411.25 -908.959 0
-908.959 -1678.54 0
0 0 0

-872.662 1247.83 0
1247.83 1503.87 0
0 0 0

-6319.86 -1151.01 0
-1151.01 -3770.71 0
0 0 0

-7696.75 277.174 0
277.174 -3181.64 0
0 0 0

3262.89 3506.66 0
3506.66 844.705 0
0 0 0

2495.84 -1430.36 0
-1430.36 -1847.22 0
0 0 0

4841.41 2909.77 0
2909.77 1083.98 0
0 0 0

2239.39 -1255.17 0
-1255.17 -4510.92 0
0 0 0

1328.4 -2845.73 0
-2845.73 -3501.43 0
0 0 0

549.02 -5013.74 0
-5013.74 -2156.41 0
0 0 0

-36.4398 -3100.4 0
-3100.4 -6968.02 0
0 0 0

-2219.33 -6442.01 0
-6442.01 -6284.51 0
0 0 0

-3334.69 -4769.83 0
-4769.83 -673.017 0
0 0 0

-4154.71 -3184.58 0
-3184.58 -832.571 0
0 0 0

-9225.69 -7341.3 0
-7341.3 -6244.19 0
0 0 0

-10942.3 -3475.55 0
-3475.55 -2358.46 0
0 0 0

-2599.84 -850.179 0
-850.179 -526.235 0
0 0 0

-2119.23 1371.13 0
1371.13 -1619.28 0
0 0 0

-6867.23 -1346.68 0
-1346.68 2553.9 0
0 0 0

-3799.57 1849.4 0
1849.4 2097.69 0
0 0 0

1814.51 3375.18 0
3375.18 1481.2 0
0 0 0

428.929 2818.02 0
2818.02 -3625.67 0
0 0 0

663.356 -277.08 0
-277.08 387.857 0
0 0 0

264.784 373.906 0
373.906 -275.603 0
0 0 0

2834.51 849.384 0
849.384 -3049.2 0
0 0 0

-2265.77 -1195.77 0
-1195.77 -6988.1 0
0 0 0

246.131 -2004.06 0
-2004.06 -5208.04 0
0 0 0

-8505.98 -2470.95 0
-2470.95 -16197.1 0
0 0 0

-1523.4 -2496.22 0
-2496.22 -3781.88 0
0 0 0

-7221.52 -516.65 0
-516.65 -3138.83 0
0 0 0

-18675.8 -6129.99 0
-6129.99 -14579 0
0 0 0

-34660 -3492.32 0
-3492.32 -33333.2 0
0 0 0

-7489.11 -2556.5 0
-2556.5 5782.06 0
0 0 0

-5280.71 3038.51 0
3038.51 8034.64 0
0 0 0

-37429.9 -10971.6 0
-10971.6 -20569.1 0
0 0 0

-63913.5 -11723.6 0
-11723.6 -16158.1 0
0 0 0

TENSORS velocity_gradient double
1.54365 -10.9256 0
10.5918 2.10304 0
0 0 0

1.2363 -12.2553 0
11.6156 -0.816175 0
0 0 0

2.14586 -11.8763 0
15.5836 2.61078 0
0 0 0

1.52015 -12.7648 0
16.1663 -0.231108 0
0 0 0

0.81059 -11.9253 0
12.2584 -0.84762 0
0 0 0

0.272451 -5.48273 0
12.1824 2.59078 0
0 0 0

0.837134 -9.51764 0
14.332 0.827561 0
0 0 0

0.118978 -6.0734 0
12.0948 2.25389 0
0 0 0

-0.306991 -5.31887 0
11.8519 2.68424 0
0 0 0

0.0415286 -6.99904 0
11.0309 2.57726 0
0 0 0

-0.328505 -5.84577 0
11.7697 2.34552 0
0 0 0

0.413779 -6.00835 0
11.538 2.39556 0
0 0 0

-0.39302 -7.16195 0
5.7501 2.35041 0
0 0 0

-1.86259 -8.6901 0
2.64469 0.460794 0
0 0 0

1.40967 -6.66593 0
11.3723 2.16437 0
0 0 0

2.26109 -8.25978 0
11.7793 1.04018 0
0 0 0

2.06314 -13.5565 0
16.1283 0.107371 0
0 0 0

1.3978 -13.4414 0
16.3617 0.00424224 0
0 0 0

-0.619226 -13.6776 0
14.8473 0.376541 0
0 0 0

0.147843 -13.7966 0
15.3708 0.28656 0
0 0 0

0.943134 -6.85998 0
16.3535 1.17936 0
0 0 0

1.17138 -6.06256 0
15.5731 1.58825 0
0 0 0

0.901393 -5.67005 0
15.8591 0.543073 0
0 0 0

1.21854 -5.81466 0
15.4239 0.803629 0
0 0 0

1.44549 -5.25421 0
14.8043 1.93246 0
0 0 0

1.56876 -5.13688 0
13.6766 2.10645 0
0 0 0

1.50706 -4.68152 0
14.6771 1.39306 0
0 0 0

1.85602 -4.77348 0
14.072 1.55251 0
0 0 0

1.7411 -6.71602 0
12.0443 1.72227 0
0 0 0

2.4442 -7.45645 0
11.9063 1.59732 0
0 0 0

1.96327 -7.61522 0
13.0425 -0.06068 0
0 0 0

1.52219 -7.52842 0
10.9733 0.346521 0
0 0 0

-0.458614 -12.9685 0
14.9519 0.838326 0
0 0 0

0.20955 -13.1304 0
15.3871 0.732925 0
0 0 0

-0.282225 -12.2913 0
10.3469 0.473052 0
0 0 0

0.271981 -10.6627 0
9.7222 0.32923 0
0 0 0

0.976551 -4.89424 0
15.1145 -0.237895 0
0 0 0

1.83398 -5.1993 0
14.3526 0.0331877 0
0 0 0

0.935069 -4.07975 0
12.7506 -1.0585 0
0 0 0

1.99789 -4.34825 0
14.2069 -0.723067 0
0 0 0

2.26053 -4.45377 0
12.6481 0.249287 0
0 0 0

2.1012 -4.49533 0
11.8429 0.716399 0
0 0 0

2.26083 -4.45201 0
12.2269 -2.18978 0
0 0 0

2.26275 -4.45252 0
9.56552 -1.48201 0
0 0 0

1.99203 -7.98386 0
12.2516 -2.03929 0
0 0 0

1.42994 -7.95216 0
10.5405 -1.6414 0
0 0 0

3.89634 -6.37918 0
7.40756 -3.81573 0
0 0 0

6.38904 -6.78274 0
5.53368 -3.51235 0
0 0 0

-0.102562 -11.684 0
9.9453 -0.884416 0
0 0 0

0.360001 -5.46065 0
8.68341 -2.21062 0
0 0 0

1.43416 -9.88173 0
10.7046 -2.0589 0
0 0 0

1.18625 -4.4973 0
9.85978 -3.65851 0
0 0 0

0.457088 -3.86421 0
7.48907 -2.24251 0
0 0 0

1.18867 -2.88155 0
6.45203 -2.78273 0
0 0 0

0.052511 -3.94955 0
7.58282 -3.45342 0
0 0 0

2.32607 4.41073 0
6.28818 -4.12819 0
0 0 0

4.89587 -3.33552 0
7.96701 -4.11313 0
0 0 0

3.83866 -4.10061 0
8.74613 -4.03708 0
0 0 0

7.81328 1.8113 0
6.41948 -4.19039 0
0 0 0

13.9147 2.40157 0
6.19227 -6.12395 0
0 0 0

4.29707 -4.18808 0
7.10631 -5.46288 0
0 0 0

7.75684 -1.95527 0
5.77335 -5.20688 0
0 0 0

23.6298 2.13473 0
4.11723 -7.41728 0
0 0 0

33.357 2.94726 0
1.808 -4.9779 0
0 0 0

SCALARS active double 1
LOOKUP_TABLE default
1
1
1
1
1
1
1
1
1
1
1
1
1
1
1
1
1
1
1
1
1
1
1
1
1
1
1
1
1
1
1
1
1
1
1
1
1
1
1
1
1
1
1
1
1
1
1
1
1
1
1
1
1
1
1
1
1
1
1
1
1
1
1
1
SCALARS extent double 1
LOOKUP_TABLE default
0.0125
0.0125
0.0125
0.0125
0.0125
0.0125
0.0125
0.0125
0.0125
0.0125
0.0125
0.0125
0.0125
0.0125
0.0125
0.0125
0.0125
0.0125
0.0125
0.0125
0.0125
0.0125
0.0125
0.0125
0.0125
0.0125
0.0125
0.0125
0.0125
0.0125
0.0125
0.0125
0.0125
0.0125
0.0125
0.0125
0.0125
0.0125
0.0125
0.0125
0.0125
0.0125
0.0125
0.0125
0.0125
0.0125
0.0125
0.0125
0.0125
0.0125
0.0125
0.0125
0.0125
0.0125
0.0125
0.0125
0.0125
0.0125
0.0125
0.0125
0.0125
0.0125
0.0125
0.0125
SCALARS pressure double 1
LOOKUP_TABLE default
-285.008
1764.61
-1566.92
-303.919
2474.33
1565.79
142.889
449.824
426.898
-1289.22
366.316
919.256
-1964.9
-836.641
383.967
-1360.94
-945.885
-432.202
-1115.09
-929.637
739.646
1773.67
-251.344
1971.16
1025.89
1939.09
2129.08
4394.12
1544.89
-315.602
5045.29
5439.2
-2053.8
-324.307
-2962.7
1135.77
1086.51
803.693
3502.23
4251.92
2003.85
2493.64
7734.94
6650.4
1563.04
1869.26
2156.67
850.942
-1647.86
1598.37
-525.606
5.40964
107.347
4626.93
2480.96
12351.5
2652.64
5180.17
16627.4
33996.6
853.524
-1376.96
28999.5
40035.8
SCALARS density double 1
LOOKUP_TABLE default
997.04
1018.52
983.836
996.844
1026.07
1016.42
1001.49
1004.69
1004.45
986.682
1003.82
1009.61
979.772
991.337
1004
985.946
990.211
995.515
988.47
990.378
1007.72
1018.62
997.389
1020.71
1010.73
1020.37
1022.39
1046.76
1016.2
996.723
1053.87
1058.2
978.867
996.633
969.658
1011.88
1011.36
1008.39
1037.09
1045.21
1021.06
1026.27
1083.77
1071.61
1016.39
1019.63
1022.68
1008.89
983.008
1016.76
994.549
1000.06
1001.12
1049.3
1026.14
1137.07
1027.97
1055.35
1188.78
1424.14
1008.92
985.782
1352.01
1516.45
