# vtk DataFile Version 3.0
Frame: 20, Time: 0.34
ASCII
DATASET UNSTRUCTURED_GRID
POINTS 64 double
0.19621 0.269375 0 
0.174429 0.256654 0 
0.184368 0.291151 0 
0.16348 0.278538 0 
0.150252 0.245299 0 
0.128468 0.231821 0 
0.140435 0.267663 0 
0.117716 0.255579 0 
0.104595 0.222085 0 
0.0821063 0.211886 0 
0.0944389 0.245007 0 
0.071306 0.233886 0 
0.0610653 0.19998 0 
0.0371858 0.189459 0 
0.0486338 0.22289 0 
0.0253586 0.210702 0 
0.173647 0.313274 0 
0.150699 0.301839 0 
0.162309 0.335732 0 
0.139554 0.323693 0 
0.129144 0.290175 0 
0.105344 0.27877 0 
0.116954 0.312098 0 
0.0947279 0.299979 0 
0.0832683 0.267327 0 
0.0606242 0.256023 0 
0.0707516 0.289304 0 
0.0481677 0.278097 0 
0.0370161 0.245635 0 
0.0140989 0.233875 0 
0.0250312 0.267065 0 
0.00265393 0.255273 0 
0.150264 0.358194 0 
0.127544 0.345737 0 
0.137887 0.379964 0 
0.11531 0.367709 0 
0.105128 0.334252 0 
0.0831838 0.322517 0 
0.0932076 0.356523 0 
0.0705825 0.344932 0 
0.0611196 0.311721 0 
0.0373853 0.300368 0 
0.0482897 0.332962 0 
0.0255313 0.321696 0 
0.0140891 0.288405 0 
0.992037 0.277282 0 
0.002209 0.31031 0 
0.980092 0.299433 0 
0.126033 0.402497 0 
0.104077 0.389449 0 
0.114045 0.424268 0 
0.0912435 0.411845 0 
0.0816024 0.378295 0 
0.0583248 0.366556 0 
0.0687172 0.401051 0 
0.0471437 0.388487 0 
0.0368003 0.354852 0 
0.0149974 0.343116 0 
0.0245873 0.377844 0 
0.00330075 0.366388 0 
0.991014 0.332465 0 
0.968627 0.321292 0 
0.981426 0.35665 0 
0.958658 0.345777 0 
CELLS 64 128
1 0
1 1
1 2
1 3
1 4
1 5
1 6
1 7
1 8
1 9
1 10
1 11
1 12
1 13
1 14
1 15
1 16
1 17
1 18
1 19
1 20
1 21
1 22
1 23
1 24
1 25
1 26
1 27
1 28
1 29
1 30
1 31
1 32
1 33
1 34
1 35
1 36
1 37
1 38
1 39
1 40
1 41
1 42
1 43
1 44
1 45
1 46
1 47
1 48
1 49
1 50
1 51
1 52
1 53
1 54
1 55
1 56
1 57
1 58
1 59
1 60
1 61
1 62
1 63
CELL_TYPES 64
1
1
1
1
1
1
1
1
1
1
1
1
1
1
1
1
1
1
1
1
1
1
1
1
1
1
1
1
1
1
1
1
1
1
1
1
1
1
1
1
1
1
1
1
1
1
1
1
1
1
1
1
1
1
1
1
1
1
1
1
1
1
1
1
POINT_DATA 64
VECTORS displacement double
-0.0162899 0.0568754 0 
-0.0380705 0.0191535 0 
-0.053132 0.0786507 0 
-0.0740198 0.0410378 0 
-0.0622481 -0.0172011 0 
-0.0840324 -0.0556788 0 
-0.0970647 0.00516327 0 
-0.119784 -0.0319213 0 
-0.107905 -0.0904151 0 
-0.130394 -0.125614 0 
-0.143061 -0.067493 0 
-0.166194 -0.103614 0 
-0.151435 -0.16252 0 
-0.175314 -0.198041 0 
-0.188866 -0.13961 0 
-0.212141 -0.176798 0 
-0.0888529 0.100774 0 
-0.111801 0.0643392 0 
-0.125191 0.123232 0 
-0.147946 0.0861925 0 
-0.133356 0.0276747 0 
-0.157156 -0.00872956 0 
-0.170546 0.049598 0 
-0.192772 0.0124791 0 
-0.179232 -0.045173 0 
-0.201876 -0.0814774 0 
-0.216748 -0.0231957 0 
-0.239332 -0.0594031 0 
-0.225484 -0.116865 0 
-0.248401 -0.153625 0 
-0.262469 -0.095435 0 
-0.284846 -0.132227 0 
-0.162236 0.145694 0 
-0.184956 0.108237 0 
-0.199613 0.167464 0 
-0.22219 0.130209 0 
-0.207372 0.0717519 0 
-0.229316 0.0350168 0 
-0.244292 0.0940226 0 
-0.266918 0.0574324 0 
-0.25138 -0.000778794 0 
-0.275115 -0.0371325 0 
-0.28921 0.0204624 0 
-0.311969 -0.0158037 0 
-0.298411 -0.0740946 0 
-0.320463 -0.110218 0 
-0.335291 -0.0521902 0 
-0.357408 -0.0880672 0 
-0.236467 0.189997 0 
-0.258423 0.151949 0 
-0.273455 0.211768 0 
-0.296257 0.174345 0 
-0.280898 0.115795 0 
-0.304175 0.0790563 0 
-0.318783 0.138551 0 
-0.340356 0.100987 0 
-0.3257 0.0423522 0 
-0.347503 0.00561644 0 
-0.362913 0.0653437 0 
-0.384199 0.0288877 0 
-0.371486 -0.0300349 0 
-0.393873 -0.0662083 0 
-0.406074 -0.00584986 0 
-0.428842 -0.0417227 0 
VECTORS velocity double
-1.10238 1.38211 0 
-0.77684 0.731023 0 
-1.75298 0.957664 0 
-1.48549 0.513138 0 
-0.674468 1.14665 0 
-1.35352 0.497611 0 
-0.816567 0.733093 0 
-1.09771 0.725608 0 
-0.750721 0.446616 0 
-0.442904 0.335986 0 
-1.21223 0.571039 0 
-1.13651 0.547103 0 
-0.733121 0.686903 0 
-0.118637 0.0643243 0 
-1.11601 0.537491 0 
-0.79597 0.0342393 0 
-1.22087 1.33313 0 
-1.3208 0.725609 0 
-1.8928 1.35323 0 
-1.3802 0.889482 0 
-1.10659 0.836328 0 
-1.03152 0.543597 0 
-1.33637 0.873712 0 
-1.30436 0.427513 0 
-0.798012 0.645381 0 
-0.858662 0.407881 0 
-0.998382 0.72246 0 
-1.21507 0.619907 0 
-0.931548 0.311368 0 
-0.777678 -0.0882726 0 
-1.16109 0.471305 0 
-0.60751 0.0662573 0 
-1.9374 1.271 0 
-1.56029 0.467018 0 
-2.2496 1.32154 0 
-1.9987 0.458775 0 
-1.36257 0.516724 0 
-1.45001 0.195963 0 
-1.96705 0.727322 0 
-1.95312 0.560305 0 
-1.38892 0.439436 0 
-1.51705 0.359459 0 
-1.7015 0.603292 0 
-1.70611 0.43209 0 
-1.38324 0.0413613 0 
-1.14334 -0.305641 0 
-1.49137 0.290907 0 
-1.23308 -0.0393908 0 
-1.97801 1.15412 0 
-1.82796 0.40245 0 
-2.57963 0.85701 0 
-2.44804 0.589006 0 
-1.86808 0.654223 0 
-1.73943 0.288757 0 
-2.02654 0.678073 0 
-2.06214 0.178097 0 
-1.43328 0.408897 0 
-1.63234 0.282639 0 
-2.03604 0.480481 0 
-2.06854 0.0545625 0 
-1.63505 0.4103 0 
-1.29379 -0.404541 0 
-2.0239 0.0509843 0 
-1.76057 -0.337114 0 
SCALARS mass double 1
LOOKUP_TABLE default
0.625
0.625
0.625
0.625
0.625
0.625
0.625
0.625
0.625
0.625
0.625
0.625
0.625
0.625
0.625
0.625
0.625
0.625
0.625
0.625
0.625
0.625
0.625
0.625
0.625
0.625
0.625
0.625
0.625
0.625
0.625
0.625
0.625
0.625
0.625
0.625
0.625
0.625
0.625
0.625
0.625
0.625
0.625
0.625
0.625
0.625
0.625
0.625
0.625
0.625
0.625
0.625
0.625
0.625
0.625
0.625
0.625
0.625
0.625
0.625
0.625
0.625
0.625
0.625
SCALARS volume double 1
LOOKUP_TABLE default
0.000636417
0.000643771
0.000634542
0.000617083
0.0006333
0.000622618
0.000644844
0.000628979
0.000634646
0.000598912
0.000642339
0.000613418
0.000633033
0.000612043
0.00067141
0.000624263
0.000633836
0.000616696
0.000643138
0.000636181
0.00063579
0.000651913
0.000616926
0.000626208
0.000623119
0.000609596
0.000624483
0.000650415
0.000629561
0.000617902
0.00061539
0.000624079
0.000625536
0.000639769
0.000627469
0.000626563
0.000602311
0.000633356
0.000624003
0.000629906
0.000640826
0.000642328
0.000625574
0.000611275
0.000608015
0.000645283
0.000636816
0.000619112
0.000634996
0.000621649
0.000614247
0.000632037
0.000631028
0.000607367
0.000628323
0.000623729
0.000631892
0.000632614
0.000620888
0.000618998
0.000628954
0.000629057
0.00062311
0.000620189
VECTORS momentum double
-0.688987 0.863816 0 
-0.485525 0.45689 0 
-1.09561 0.59854 0 
-0.928433 0.320711 0 
-0.421542 0.716655 0 
-0.845947 0.311007 0 
-0.510354 0.458183 0 
-0.686068 0.453505 0 
-0.469201 0.279135 0 
-0.276815 0.209991 0 
-0.757645 0.3569 0 
-0.710317 0.341939 0 
-0.458201 0.429314 0 
-0.0741484 0.0402027 0 
-0.697504 0.335932 0 
-0.497481 0.0213995 0 
-0.763045 0.833204 0 
-0.825502 0.453506 0 
-1.183 0.845766 0 
-0.862623 0.555926 0 
-0.691621 0.522705 0 
-0.644702 0.339748 0 
-0.835229 0.54607 0 
-0.815228 0.267196 0 
-0.498757 0.403363 0 
-0.536664 0.254926 0 
-0.623989 0.451538 0 
-0.759418 0.387442 0 
-0.582217 0.194605 0 
-0.486049 -0.0551704 0 
-0.72568 0.294566 0 
-0.379694 0.0414108 0 
-1.21087 0.794373 0 
-0.975183 0.291886 0 
-1.406 0.82596 0 
-1.24919 0.286734 0 
-0.851607 0.322953 0 
-0.906257 0.122477 0 
-1.22941 0.454576 0 
-1.2207 0.350191 0 
-0.868077 0.274648 0 
-0.948153 0.224662 0 
-1.06343 0.377058 0 
-1.06632 0.270056 0 
-0.864526 0.0258508 0 
-0.714585 -0.191025 0 
-0.932106 0.181817 0 
-0.770673 -0.0246193 0 
-1.23626 0.721326 0 
-1.14248 0.251532 0 
-1.61227 0.535631 0 
-1.53003 0.368129 0 
-1.16755 0.408889 0 
-1.08714 0.180473 0 
-1.26659 0.423796 0 
-1.28884 0.111311 0 
-0.895797 0.25556 0 
-1.02022 0.176649 0 
-1.27252 0.3003 0 
-1.29284 0.0341016 0 
-1.02191 0.256437 0 
-0.808616 -0.252838 0 
-1.26494 0.0318652 0 
-1.10036 -0.210696 0 
VECTORS body_force double
0 -9.81 0 
0 -9.81 0 
0 -9.81 0 
0 -9.81 0 
0 -9.81 0 
0 -9.81 0 
0 -9.81 0 
0 -9.81 0 
0 -9.81 0 
0 -9.81 0 
0 -9.81 0 
0 -9.81 0 
0 -9.81 0 
0 -9.81 0 
0 -9.81 0 
0 -9.81 0 
0 -9.81 0 
0 -9.81 0 
0 -9.81 0 
0 -9.81 0 
0 -9.81 0 
0 -9.81 0 
0 -9.81 0 
0 -9.81 0 
0 -9.81 0 
0 -9.81 0 
0 -9.81 0 
0 -9.81 0 
0 -9.81 0 
0 -9.81 0 
0 -9.81 0 
0 -9.81 0 
0 -9.81 0 
0 -9.81 0 
0 -9.81 0 
0 -9.81 0 
0 -9.81 0 
0 -9.81 0 
0 -9.81 0 
0 -9.81 0 
0 -9.81 0 
0 -9.81 0 
0 -9.81 0 
0 -9.81 0 
0 -9.81 0 
0 -9.81 0 
0 -9.81 0 
0 -9.81 0 
0 -9.81 0 
0 -9.81 0 
0 -9.81 0 
0 -9.81 0 
0 -9.81 0 
0 -9.81 0 
0 -9.81 0 
0 -9.81 0 
0 -9.81 0 
0 -9.81 0 
0 -9.81 0 
0 -9.81 0 
0 -9.81 0 
0 -9.81 0 
0 -9.81 0 
0 -9.81 0 
TENSORS cauchy_stress double
632.946 -217.9 0
-217.9 2848.17 0
0 0 0

4070.47 2289.18 0
2289.18 1620.3 0
0 0 0

2966.3 1166.8 0
1166.8 -52.579 0
0 0 0

-3874.55 -4435.63 0
-4435.63 1423.09 0
0 0 0

-621.185 669.81 0
669.81 3158.32 0
0 0 0

1248.13 1390.84 0
1390.84 -1982.54 0
0 0 0

8624.85 2505.42 0
2505.42 -2614.01 0
0 0 0

-4645.41 -2717.94 0
-2717.94 5865.82 0
0 0 0

-610.921 717.52 0
717.52 3556.18 0
0 0 0

-2386.19 -1168.08 0
-1168.08 -5813.3 0
0 0 0

3719.73 4488.42 0
4488.42 1542.58 0
0 0 0

618.349 -1135.1 0
-1135.1 -4215.42 0
0 0 0

1194.28 -888.808 0
-888.808 1261.76 0
0 0 0

-2449.85 -971.761 0
-971.761 -1578.67 0
0 0 0

6746.73 -1248.21 0
-1248.21 7027.81 0
0 0 0

1309.36 643.88 0
643.88 -1536.12 0
0 0 0

361.613 -341.578 0
-341.578 2338.03 0
0 0 0

-2360.71 2541.24 0
2541.24 -211.374 0
0 0 0

2545.15 1847.24 0
1847.24 2956.38 0
0 0 0

1265.27 98.6967 0
98.6967 2144.68 0
0 0 0

1971.85 -2174.74 0
-2174.74 1319.75 0
0 0 0

7635.12 247.063 0
247.063 472.502 0
0 0 0

-1182.46 -558.952 0
-558.952 -1318.08 0
0 0 0

2362.86 2339.65 0
2339.65 -1991.65 0
0 0 0

1106.31 -2550.57 0
-2550.57 -1685.8 0
0 0 0

-280.422 344.77 0
344.77 -4518.6 0
0 0 0

-983.987 2118.87 0
2118.87 824.76 0
0 0 0

5155.17 -817.109 0
-817.109 2509.99 0
0 0 0

3374.01 615.411 0
615.411 -1975.63 0
0 0 0

-890.63 1297.91 0
1297.91 -1305.9 0
0 0 0

-639.169 1014.64 0
1014.64 -2340.69 0
0 0 0

697.074 381.712 0
381.712 -980.82 0
0 0 0

2248.38 -2000.78 0
-2000.78 -2083.4 0
0 0 0

3152.77 1513.15 0
1513.15 1338.62 0
0 0 0

197.685 616.2 0
616.2 560.393 0
0 0 0

-995.053 674.892 0
674.892 1475.36 0
0 0 0

-2379.5 -635.466 0
-635.466 -4731.72 0
0 0 0

-738.373 -2605.38 0
-2605.38 3292.44 0
0 0 0

2135.86 -1704.52 0
-1704.52 -2442.86 0
0 0 0

1819.43 -1273.09 0
-1273.09 -315.936 0
0 0 0

5549.69 -890.624 0
-890.624 -740.693 0
0 0 0

4419.55 935.605 0
935.605 839.458 0
0 0 0

2835.25 1296.42 0
1296.42 -2658.8 0
0 0 0

-140.393 882.791 0
882.791 -4129.83 0
0 0 0

118.142 1253.61 0
1253.61 -5416.66 0
0 0 0

3851.34 -2822.82 0
-2822.82 2290.5 0
0 0 0

1675.87 126.571 0
126.571 1925.78 0
0 0 0

337.378 357.68 0
357.68 -2157.66 0
0 0 0

1566.75 -294.891 0
-294.891 1484.58 0
0 0 0

-291.58 395.514 0
395.514 -742.277 0
0 0 0

-146.342 89.8266 0
89.8266 -3190.97 0
0 0 0

872.935 -35.1184 0
-35.1184 1280.06 0
0 0 0

1867.51 -73.6065 0
-73.6065 -21.5015 0
0 0 0

-2471.3 724.722 0
724.722 -3032.35 0
0 0 0

-180.636 -1379.55 0
-1379.55 1200.52 0
0 0 0

806.086 -937.386 0
-937.386 -1197.7 0
0 0 0

-1385.4 -478.627 0
-478.627 3494.33 0
0 0 0

3204.85 247.428 0
247.428 -876.19 0
0 0 0

-247.519 -664.759 0
-664.759 -1021.84 0
0 0 0

-1600.65 -971.492 0
-971.492 -254.921 0
0 0 0

2367.21 237.704 0
237.704 -1154.33 0
0 0 0

369.949 -1880.44 0
-1880.44 874.201 0
0 0 0

-1098.33 -264.091 0
-264.091 515.863 0
0 0 0

-1571.24 794.403 0
794.403 85.2884 0
0 0 0

TENSORS velocity_gradient double
-1.33844 -6.45057 0
5.34125 0.0464364 0
0 0 0

-1.70824 -6.49304 0
5.17424 0.753663 0
0 0 0

-2.10197 -6.61283 0
4.01058 0.561467 0
0 0 0

-1.98165 -6.41078 0
4.42061 1.25001 0
0 0 0

-0.18205 -1.18709 0
5.37639 1.22562 0
0 0 0

-1.51087 -1.96858 0
4.09255 2.01202 0
0 0 0

-0.227149 -5.84745 0
4.68114 1.34596 0
0 0 0

0.261405 -4.547 0
4.17324 0.502442 0
0 0 0

-2.50136 -4.63212 0
4.10781 2.22666 0
0 0 0

-1.1709 -5.49377 0
2.66866 1.84485 0
0 0 0

-0.660468 -5.20327 0
3.57754 2.00432 0
0 0 0

-0.908088 -5.62149 0
3.24484 1.56483 0
0 0 0

-2.08305 -5.23881 0
3.3491 0.941603 0
0 0 0

-2.62804 -8.65801 0
5.77799 2.80093 0
0 0 0

-1.39586 -5.86083 0
4.99507 1.05441 0
0 0 0

-1.72474 -5.94298 0
6.69622 0.960751 0
0 0 0

-2.02217 -8.71273 0
4.04524 2.89448 0
0 0 0

-1.95896 -7.85827 0
4.66003 1.90978 0
0 0 0

-1.70305 -8.87142 0
4.69883 2.56946 0
0 0 0

-1.22179 -9.32705 0
6.9744 1.85491 0
0 0 0

-1.35161 -5.29007 0
5.70667 0.837622 0
0 0 0

-0.789464 -4.09909 0
5.19398 -0.248578 0
0 0 0

-1.55045 -9.98135 0
6.58064 1.07101 0
0 0 0

2.03374 -6.89975 0
3.03389 -0.0181962 0
0 0 0

0.640049 -5.0323 0
3.18326 -0.0819739 0
0 0 0

-0.23901 -6.79712 0
3.49571 0.6264 0
0 0 0

2.40931 -6.02712 0
2.53349 0.283382 0
0 0 0

0.222382 -7.66858 0
4.8416 0.883904 0
0 0 0

-1.62249 -6.19396 0
6.71973 0.98176 0
0 0 0

-1.67039 -5.96905 0
6.71756 0.950514 0
0 0 0

-1.14691 -8.48471 0
6.56555 1.1699 0
0 0 0

-1.75952 -8.8973 0
7.23205 1.35644 0
0 0 0

-0.692551 -6.58834 0
7.27529 2.85762 0
0 0 0

-0.597427 -9.42831 0
7.71405 1.4859 0
0 0 0

-0.162219 -7.03202 0
7.83074 1.82352 0
0 0 0

-0.277723 -7.24922 0
7.86401 1.88609 0
0 0 0

-0.911309 -10.3155 0
7.34638 0.670658 0
0 0 0

1.70047 -9.38565 0
2.66071 0.120194 0
0 0 0

-0.610864 -7.20608 0
3.89707 1.69673 0
0 0 0

0.0660581 -8.34627 0
3.13319 -0.0783355 0
0 0 0

2.48636 -7.76785 0
2.43712 -0.340094 0
0 0 0

-0.19699 -7.63181 0
6.15925 0.416247 0
0 0 0

0.791236 -7.15724 0
4.01677 -0.427856 0
0 0 0

0.368535 -7.44636 0
5.49905 0.188656 0
0 0 0

-0.529085 -8.79578 0
6.35302 1.27691 0
0 0 0

-2.277 -9.34878 0
8.55958 1.72875 0
0 0 0

-0.302367 -8.04219 0
6.25587 0.936316 0
0 0 0

-1.9215 -9.04099 0
7.74067 1.64212 0
0 0 0

0.06869 -6.97904 0
7.45715 0.373293 0
0 0 0

-0.0941646 -7.35111 0
7.76702 1.91389 0
0 0 0

0.349824 -7.03828 0
5.84943 0.466562 0
0 0 0

-4.27851 -6.37686 0
5.43291 1.56541 0
0 0 0

-1.70267 -6.60953 0
4.23221 1.34614 0
0 0 0

-1.13484 -5.46836 0
3.81752 0.512747 0
0 0 0

-3.10043 -4.5635 0
5.04706 0.809434 0
0 0 0

-0.491154 -5.07159 0
4.65199 0.229374 0
0 0 0

1.04277 -5.19491 0
4.56866 0.0549747 0
0 0 0

0.926912 -7.71597 0
4.75965 0.54567 0
0 0 0

0.870952 -4.76657 0
4.64105 0.0420875 0
0 0 0

0.825619 -4.59898 0
4.84669 -0.0343994 0
0 0 0

-1.39682 -8.26775 0
7.91043 1.04136 0
0 0 0

-1.57189 -8.62649 0
7.79154 0.797731 0
0 0 0

-0.936086 -4.99107 0
7.86346 0.525718 0
0 0 0

-1.16861 -8.23645 0
8.00658 0.805711 0
0 0 0

SCALARS active double 1
LOOKUP_TABLE default
1
1
1
1
1
1
1
1
1
1
1
1
1
1
1
1
1
1
1
1
1
1
1
1
1
1
1
1
1
1
1
1
1
1
1
1
1
1
1
1
1
1
1
1
1
1
1
1
1
1
1
1
1
1
1
1
1
1
1
1
1
1
1
1
SCALARS extent double 1
LOOKUP_TABLE default
0.0125
0.0125
0.0125
0.0125
0.0125
0.0125
0.0125
0.0125
0.0125
0.0125
0.0125
0.0125
0.0125
0.0125
0.0125
0.0125
0.0125
0.0125
0.0125
0.0125
0.0125
0.0125
0.0125
0.0125
0.0125
0.0125
0.0125
0.0125
0.0125
0.0125
0.0125
0.0125
0.0125
0.0125
0.0125
0.0125
0.0125
0.0125
0.0125
0.0125
0.0125
0.0125
0.0125
0.0125
0.0125
0.0125
0.0125
0.0125
0.0125
0.0125
0.0125
0.0125
0.0125
0.0125
0.0125
0.0125
0.0125
0.0125
0.0125
0.0125
0.0125
0.0125
0.0125
0.0125
SCALARS pressure double 1
LOOKUP_TABLE default
-1740.56
-2845.39
-1456.86
1225.73
-1268.57
367.204
-3005.42
-610.205
-1472.63
4099.74
-2631.15
1798.53
-1228.02
2014.26
-6887.27
113.382
-1349.82
1286.04
-2750.76
-1704.97
-1645.8
-4053.81
1250.27
-185.605
289.745
2399.51
79.6132
-3832.58
-699.191
1098.27
1489.93
141.873
-82.4879
-2245.69
-379.039
-240.152
3555.61
-1277.03
153.5
-751.749
-2404.5
-2629.5
-88.2233
2135.11
2649.26
-3070.92
-1800.83
910.142
-1525.66
516.929
1668.66
-1076.5
-923.005
2751.83
-509.944
195.807
-1054.46
-1164.33
634.681
927.786
-606.442
-622.075
291.234
742.976
SCALARS density double 1
LOOKUP_TABLE default
982.061
970.842
984.963
1012.83
986.894
1003.83
969.227
993.674
984.801
1043.56
973.007
1018.88
987.31
1021.17
930.877
1001.18
986.06
1013.46
971.797
982.425
983.029
958.717
1013.09
998.072
1003.02
1025.27
1000.83
960.925
992.755
1011.49
1015.62
1001.48
999.142
976.915
996.066
997.506
1037.67
986.807
1001.6
992.212
975.303
973.024
999.083
1022.45
1027.94
968.567
981.446
1009.51
984.258
1005.39
1017.51
988.867
990.447
1029.03
994.711
1002.04
989.093
987.964
1006.62
1009.7
993.713
993.551
1003.03
1007.76
