# vtk DataFile Version 3.0
Frame: 37, Time: 0.629
ASCII
DATASET UNSTRUCTURED_GRID
POINTS 64 double
0.155209 0.495285 0 
0.163738 0.472113 0 
0.13186 0.487518 0 
0.140654 0.464275 0 
0.171765 0.447941 0 
0.181156 0.423684 0 
0.148165 0.439919 0 
0.157083 0.41602 0 
0.187881 0.400161 0 
0.196471 0.376342 0 
0.164843 0.391705 0 
0.17354 0.367545 0 
0.205288 0.353292 0 
0.213639 0.328295 0 
0.181454 0.344528 0 
0.191438 0.319669 0 
0.10841 0.480465 0 
0.115886 0.455855 0 
0.0844168 0.472115 0 
0.0927379 0.448167 0 
0.124014 0.432002 0 
0.132346 0.407598 0 
0.100376 0.423616 0 
0.10908 0.400026 0 
0.140384 0.384322 0 
0.14898 0.360577 0 
0.116391 0.375556 0 
0.12488 0.352066 0 
0.156379 0.337024 0 
0.165001 0.312472 0 
0.133171 0.327453 0 
0.141622 0.305158 0 
0.0601846 0.464236 0 
0.0686905 0.440266 0 
0.0365834 0.456074 0 
0.0447317 0.432091 0 
0.0764136 0.416013 0 
0.0850644 0.392037 0 
0.0526534 0.408748 0 
0.0610455 0.384218 0 
0.0930999 0.368699 0 
0.101044 0.34487 0 
0.069469 0.360398 0 
0.0771929 0.336725 0 
0.109465 0.320869 0 
0.118303 0.298061 0 
0.0858694 0.312 0 
0.0942473 0.28875 0 
0.0121134 0.448332 0 
0.0214592 0.42469 0 
0.988446 0.440151 0 
0.997471 0.415613 0 
0.028846 0.400474 0 
0.0377127 0.376167 0 
0.00454139 0.391495 0 
0.0143814 0.367876 0 
0.0455046 0.352562 0 
0.0538997 0.329405 0 
0.0213183 0.34447 0 
0.029299 0.320806 0 
0.0621246 0.304771 0 
0.0711172 0.280617 0 
0.0369349 0.297072 0 
0.0458488 0.273996 0 
CELLS 64 128
1 0
1 1
1 2
1 3
1 4
1 5
1 6
1 7
1 8
1 9
1 10
1 11
1 12
1 13
1 14
1 15
1 16
1 17
1 18
1 19
1 20
1 21
1 22
1 23
1 24
1 25
1 26
1 27
1 28
1 29
1 30
1 31
1 32
1 33
1 34
1 35
1 36
1 37
1 38
1 39
1 40
1 41
1 42
1 43
1 44
1 45
1 46
1 47
1 48
1 49
1 50
1 51
1 52
1 53
1 54
1 55
1 56
1 57
1 58
1 59
1 60
1 61
1 62
1 63
CELL_TYPES 64
1
1
1
1
1
1
1
1
1
1
1
1
1
1
1
1
1
1
1
1
1
1
1
1
1
1
1
1
1
1
1
1
1
1
1
1
1
1
1
1
1
1
1
1
1
1
1
1
1
1
1
1
1
1
1
1
1
1
1
1
1
1
1
1
POINT_DATA 64
VECTORS displacement double
-0.0572909 0.282785 0 
-0.0487618 0.234613 0 
-0.10564 0.275018 0 
-0.0968459 0.226775 0 
-0.0407352 0.185441 0 
-0.031344 0.136184 0 
-0.0893349 0.177419 0 
-0.0804165 0.12852 0 
-0.024619 0.0876614 0 
-0.0160288 0.0388417 0 
-0.072657 0.0792052 0 
-0.0639605 0.0300446 0 
-0.0072118 -0.00920833 0 
0.00113851 -0.0592046 0 
-0.0560456 -0.0179722 0 
-0.0460622 -0.0678311 0 
-0.15409 0.267965 0 
-0.146614 0.218355 0 
-0.203083 0.259615 0 
-0.194762 0.210667 0 
-0.138486 0.169502 0 
-0.130154 0.120098 0 
-0.187124 0.161116 0 
-0.17842 0.112526 0 
-0.122116 0.0718216 0 
-0.11352 0.023077 0 
-0.171109 0.0630562 0 
-0.16262 0.0145657 0 
-0.106121 -0.0254755 0 
-0.0974986 -0.0750276 0 
-0.154329 -0.0350469 0 
-0.145878 -0.0823417 0 
-0.252315 0.251736 0 
-0.243809 0.202766 0 
-0.300917 0.243574 0 
-0.292768 0.194591 0 
-0.236086 0.153513 0 
-0.227436 0.104537 0 
-0.284847 0.146248 0 
-0.276454 0.0967183 0 
-0.2194 0.0561992 0 
-0.211456 0.00736996 0 
-0.268031 0.0478976 0 
-0.260307 -0.000775374 0 
-0.203035 -0.0416312 0 
-0.194197 -0.0894393 0 
-0.251631 -0.0505003 0 
-0.243253 -0.0987501 0 
-0.350387 0.235832 0 
-0.341041 0.18719 0 
-0.399054 0.227651 0 
-0.390029 0.178113 0 
-0.333654 0.137974 0 
-0.324787 0.0886674 0 
-0.382959 0.128995 0 
-0.373119 0.0803764 0 
-0.316995 0.0400621 0 
-0.3086 -0.00809536 0 
-0.366182 0.03197 0 
-0.358201 -0.0166945 0 
-0.300375 -0.0577293 0 
-0.291383 -0.106883 0 
-0.350565 -0.0654283 0 
-0.341651 -0.113504 0 
VECTORS velocity double
-0.218583 -0.526929 0 
0.00777914 -0.563306 0 
-0.17098 -0.768599 0 
0.067666 -0.801916 0 
-0.181512 -0.103864 0 
0.255894 -0.733832 0 
-0.00602374 -0.941868 0 
0.213643 -0.720513 0 
0.31955 -0.0762287 0 
0.444685 -0.572886 0 
0.641813 -0.488794 0 
0.583012 -0.635446 0 
0.428811 -0.541902 0 
0.684666 -0.174928 0 
0.436207 -0.587201 0 
0.767122 -0.601878 0 
-0.0664596 -0.86916 0 
0.381779 -0.769681 0 
-0.341925 -0.996451 0 
0.158411 -0.96808 0 
0.00595059 -0.737065 0 
0.320432 -0.818332 0 
-0.0442719 -0.876817 0 
0.297094 -0.816503 0 
0.511701 -0.703096 0 
0.389235 -1.0454 0 
0.573551 -0.294319 0 
0.28365 -0.625902 0 
0.464246 -0.343012 0 
0.828348 -0.664922 0 
0.506521 -0.464428 0 
0.766758 -0.706396 0 
-0.0313541 -1.03028 0 
0.373214 -0.991636 0 
-0.0776454 -1.54388 0 
0.272943 -1.0926 0 
0.319535 -1.16343 0 
0.4869 -1.28752 0 
0.127138 -1.01599 0 
0.399884 -1.1253 0 
0.557658 -0.782427 0 
0.463927 -1.01015 0 
0.487329 -1.03937 0 
0.377242 -1.1959 0 
0.850012 -0.828558 0 
0.855377 -0.713966 0 
0.618314 -0.917713 0 
0.690016 -0.863473 0 
-0.098283 -1.12698 0 
0.420245 -1.20575 0 
0.0592472 -1.65512 0 
0.444825 -1.49228 0 
0.124889 -1.06871 0 
0.500078 -1.08499 0 
0.342848 -1.59615 0 
0.551191 -1.36219 0 
0.550223 -0.939551 0 
0.400914 -0.963995 0 
0.533738 -1.32594 0 
0.516262 -1.74193 0 
0.724848 -0.753491 0 
1.06811 -1.11884 0 
0.832885 -1.41554 0 
1.10379 -1.08656 0 
SCALARS mass double 1
LOOKUP_TABLE default
0.625
0.625
0.625
0.625
0.625
0.625
0.625
0.625
0.625
0.625
0.625
0.625
0.625
0.625
0.625
0.625
0.625
0.625
0.625
0.625
0.625
0.625
0.625
0.625
0.625
0.625
0.625
0.625
0.625
0.625
0.625
0.625
0.625
0.625
0.625
0.625
0.625
0.625
0.625
0.625
0.625
0.625
0.625
0.625
0.625
0.625
0.625
0.625
0.625
0.625
0.625
0.625
0.625
0.625
0.625
0.625
0.625
0.625
0.625
0.625
0.625
0.625
0.625
0.625
SCALARS volume double 1
LOOKUP_TABLE default
0.000627014
0.000625676
0.000621723
0.000618162
0.000629779
0.000618099
0.000639946
0.000604279
0.000622609
0.000614022
0.000639635
0.000616771
0.000631192
0.000619066
0.000641423
0.00063482
0.000639309
0.000607242
0.00063043
0.000636395
0.000637694
0.000639008
0.000624908
0.000618629
0.000625502
0.000607733
0.000617483
0.000635626
0.000622928
0.000629376
0.000628324
0.000619455
0.000621404
0.000628677
0.000625611
0.000618441
0.000603863
0.000635142
0.000633677
0.000618245
0.000631464
0.000616917
0.000640281
0.000621186
0.000624689
0.000638226
0.000634575
0.000626302
0.000629906
0.000618885
0.000624516
0.000625688
0.00063246
0.000613678
0.000624502
0.000629789
0.000624003
0.000625104
0.000626191
0.00062254
0.000617228
0.00063629
0.000630216
0.000618966
VECTORS momentum double
-0.136615 -0.329331 0 
0.00486196 -0.352067 0 
-0.106863 -0.480374 0 
0.0422913 -0.501198 0 
-0.113445 -0.0649148 0 
0.159933 -0.458645 0 
-0.00376484 -0.588668 0 
0.133527 -0.450321 0 
0.199719 -0.047643 0 
0.277928 -0.358054 0 
0.401133 -0.305496 0 
0.364382 -0.397154 0 
0.268007 -0.338689 0 
0.427916 -0.10933 0 
0.27263 -0.367 0 
0.479451 -0.376174 0 
-0.0415372 -0.543225 0 
0.238612 -0.481051 0 
-0.213703 -0.622782 0 
0.0990067 -0.60505 0 
0.00371912 -0.460666 0 
0.20027 -0.511457 0 
-0.02767 -0.548011 0 
0.185684 -0.510314 0 
0.319813 -0.439435 0 
0.243272 -0.653376 0 
0.358469 -0.183949 0 
0.177281 -0.391189 0 
0.290154 -0.214382 0 
0.517718 -0.415576 0 
0.316575 -0.290267 0 
0.479224 -0.441497 0 
-0.0195963 -0.643928 0 
0.233259 -0.619772 0 
-0.0485284 -0.964924 0 
0.17059 -0.682876 0 
0.199709 -0.727144 0 
0.304312 -0.804698 0 
0.0794613 -0.634991 0 
0.249928 -0.703311 0 
0.348536 -0.489017 0 
0.289954 -0.631344 0 
0.304581 -0.649605 0 
0.235776 -0.747437 0 
0.531258 -0.517849 0 
0.534611 -0.446229 0 
0.386446 -0.573571 0 
0.43126 -0.539671 0 
-0.0614269 -0.704361 0 
0.262653 -0.753591 0 
0.0370295 -1.03445 0 
0.278015 -0.932677 0 
0.0780556 -0.667946 0 
0.312549 -0.678118 0 
0.21428 -0.997594 0 
0.344495 -0.851366 0 
0.343889 -0.587219 0 
0.250572 -0.602497 0 
0.333586 -0.82871 0 
0.322664 -1.0887 0 
0.45303 -0.470932 0 
0.66757 -0.699277 0 
0.520553 -0.884714 0 
0.68987 -0.679097 0 
VECTORS body_force double
0 -9.81 0 
0 -9.81 0 
0 -9.81 0 
0 -9.81 0 
0 -9.81 0 
0 -9.81 0 
0 -9.81 0 
0 -9.81 0 
0 -9.81 0 
0 -9.81 0 
0 -9.81 0 
0 -9.81 0 
0 -9.81 0 
0 -9.81 0 
0 -9.81 0 
0 -9.81 0 
0 -9.81 0 
0 -9.81 0 
0 -9.81 0 
0 -9.81 0 
0 -9.81 0 
0 -9.81 0 
0 -9.81 0 
0 -9.81 0 
0 -9.81 0 
0 -9.81 0 
0 -9.81 0 
0 -9.81 0 
0 -9.81 0 
0 -9.81 0 
0 -9.81 0 
0 -9.81 0 
0 -9.81 0 
0 -9.81 0 
0 -9.81 0 
0 -9.81 0 
0 -9.81 0 
0 -9.81 0 
0 -9.81 0 
0 -9.81 0 
0 -9.81 0 
0 -9.81 0 
0 -9.81 0 
0 -9.81 0 
0 -9.81 0 
0 -9.81 0 
0 -9.81 0 
0 -9.81 0 
0 -9.81 0 
0 -9.81 0 
0 -9.81 0 
0 -9.81 0 
0 -9.81 0 
0 -9.81 0 
0 -9.81 0 
0 -9.81 0 
0 -9.81 0 
0 -9.81 0 
0 -9.81 0 
0 -9.81 0 
0 -9.81 0 
0 -9.81 0 
0 -9.81 0 
0 -9.81 0 
TENSORS cauchy_stress double
-258.03 -39.0406 0
-39.0406 876.673 0
0 0 0

414.091 31.911 0
31.911 -206.101 0
0 0 0

-2668.34 155.489 0
155.489 1657.31 0
0 0 0

863.444 1204.67 0
1204.67 -2978.88 0
0 0 0

590.329 1596.46 0
1596.46 874.516 0
0 0 0

1840.92 321.038 0
321.038 -3976.14 0
0 0 0

-231.479 -280.813 0
-280.813 4776.21 0
0 0 0

-1992.84 949.334 0
949.334 -4490.92 0
0 0 0

-10.0941 -2941.43 0
-2941.43 -726.922 0
0 0 0

-3145.68 3155.96 0
3155.96 -262.107 0
0 0 0

2696.51 -2947.68 0
-2947.68 1754.56 0
0 0 0

-1902.36 1674.31 0
1674.31 -646.363 0
0 0 0

1073.64 -244.04 0
-244.04 822.225 0
0 0 0

-45.0538 574.565 0
574.565 -1789.62 0
0 0 0

4365.37 -1017.62 0
-1017.62 622.745 0
0 0 0

2063.9 -639.953 0
-639.953 934.202 0
0 0 0

2076.54 1307.05 0
1307.05 2276.48 0
0 0 0

-3519.68 -2086.27 0
-2086.27 -2023.49 0
0 0 0

592.595 -647.495 0
-647.495 1070.98 0
0 0 0

2401.4 -411.136 0
-411.136 1073.18 0
0 0 0

2003.71 -1099.99 0
-1099.99 1863.04 0
0 0 0

2434.5 1175.51 0
1175.51 1827.93 0
0 0 0

203.79 274.642 0
274.642 -232.042 0
0 0 0

-1713.48 -1675.05 0
-1675.05 -256.949 0
0 0 0

-330.535 1125.47 0
1125.47 484.905 0
0 0 0

-1522.53 -40.4228 0
-40.4228 -3865.09 0
0 0 0

445.299 -2095.08 0
-2095.08 -2772.39 0
0 0 0

970.986 381.466 0
381.466 2270.99 0
0 0 0

-98.0228 -260.959 0
-260.959 -540.709 0
0 0 0

240.169 -302.705 0
-302.705 1101.46 0
0 0 0

493.845 -1696.25 0
-1696.25 526.139 0
0 0 0

703.294 3021.97 0
3021.97 -2417.02 0
0 0 0

-1083.77 473.893 0
473.893 -25.9916 0
0 0 0

734.149 -664.896 0
-664.896 393.813 0
0 0 0

851.446 -408.76 0
-408.76 -663.456 0
0 0 0

539.252 -187.684 0
-187.684 -2567.92 0
0 0 0

-5346.07 -392.336 0
-392.336 -1270.18 0
0 0 0

4569.74 -1024.64 0
-1024.64 -1474.26 0
0 0 0

938.284 149.901 0
149.901 1713.35 0
0 0 0

-1221.84 -790.598 0
-790.598 -867.84 0
0 0 0

-1696.69 1573.56 0
1573.56 3675.29 0
0 0 0

1934.94 -673.164 0
-673.164 -4438.1 0
0 0 0

2011.91 -834.085 0
-834.085 2633.25 0
0 0 0

-759.74 -615.832 0
-615.832 -417.42 0
0 0 0

-294.002 -229.36 0
-229.36 198.215 0
0 0 0

1405.48 -842.669 0
-842.669 2621.66 0
0 0 0

-106.261 -1221.31 0
-1221.31 3029.94 0
0 0 0

2331.02 2979.02 0
2979.02 -1930.84 0
0 0 0

869.958 418.409 0
418.409 633.734 0
0 0 0

-2344.32 -875.383 0
-875.383 453.602 0
0 0 0

-149.129 151.393 0
151.393 0.158652 0
0 0 0

738.83 -406.751 0
-406.751 -527.386 0
0 0 0

1459.76 785.637 0
785.637 821.929 0
0 0 0

-2506.72 -339.235 0
-339.235 -1008.8 0
0 0 0

-31.8005 -386.465 0
-386.465 -121.641 0
0 0 0

351.032 498.451 0
498.451 1116.77 0
0 0 0

89.2168 -54.5398 0
-54.5398 -396.384 0
0 0 0

-208.259 736.859 0
736.859 240.126 0
0 0 0

975.682 -241.533 0
-241.533 -609.442 0
0 0 0

-208.171 -627.136 0
-627.136 -550.247 0
0 0 0

-1407.17 -144.604 0
-144.604 -999.286 0
0 0 0

-879.448 -1155.44 0
-1155.44 4322.16 0
0 0 0

1840.44 -363.365 0
-363.365 -242.179 0
0 0 0

-358.035 459.679 0
459.679 -1507.74 0
0 0 0

TENSORS velocity_gradient double
-0.200783 -2.97878 0
2.66886 0.342923 0
0 0 0

-0.305647 -3.15342 0
4.008 0.0203268 0
0 0 0

-0.247918 -3.53935 0
4.70743 0.734442 0
0 0 0

-0.686215 -3.3751 0
4.45923 0.827446 0
0 0 0

-0.340968 -5.35793 0
5.24424 -0.248527 0
0 0 0

-0.168104 -6.80535 0
4.81283 0.155479 0
0 0 0

-0.529962 -6.42861 0
4.68402 -0.579361 0
0 0 0

-0.105864 -6.60649 0
4.61028 -0.491696 0
0 0 0

0.056369 -5.16834 0
4.15545 0.611449 0
0 0 0

0.813718 -3.12291 0
2.2619 0.94807 0
0 0 0

0.178642 -2.63722 0
3.88588 0.125018 0
0 0 0

0.640995 -2.80216 0
3.01387 0.436096 0
0 0 0

0.547402 -2.87305 0
2.70085 -0.148036 0
0 0 0

0.290523 -3.0761 0
3.72224 -0.887613 0
0 0 0

0.76751 -3.57358 0
2.53392 -0.382644 0
0 0 0

-0.118574 -3.28088 0
3.15745 -0.778624 0
0 0 0

-0.378642 -3.98178 0
4.6334 0.483905 0
0 0 0

-0.842677 -3.84267 0
4.37064 0.562682 0
0 0 0

-0.0995218 -4.38124 0
4.89937 0.400125 0
0 0 0

-0.364385 -4.53586 0
4.88278 0.0164876 0
0 0 0

-0.383201 -5.66043 0
4.45681 -0.435207 0
0 0 0

0.448717 -5.93905 0
4.68061 -0.510162 0
0 0 0

-0.100857 -4.91571 0
4.62945 -0.267499 0
0 0 0

0.554431 -4.32385 0
4.69464 -0.535682 0
0 0 0

0.415459 -2.57301 0
4.59133 -0.506693 0
0 0 0

0.239977 -2.48837 0
3.73306 -0.352854 0
0 0 0

0.232222 -3.08092 0
4.4956 -0.772042 0
0 0 0

-0.211989 -3.35204 0
4.25083 -0.421031 0
0 0 0

0.504228 -4.56829 0
2.7416 0.150035 0
0 0 0

-0.382401 -4.26261 0
3.34753 -0.0713162 0
0 0 0

-0.103995 -4.61775 0
4.15882 0.275438 0
0 0 0

0.0990434 -4.55646 0
4.14407 0.114044 0
0 0 0

-0.219129 -4.75549 0
4.90252 0.409989 0
0 0 0

-0.334453 -4.41077 0
4.84829 -0.436005 0
0 0 0

-0.0366579 -4.52461 0
4.51111 0.559498 0
0 0 0

0.0074307 -4.21002 0
4.82967 -0.47751 0
0 0 0

0.00419316 -4.51691 0
4.67911 -0.382976 0
0 0 0

0.258222 -3.38198 0
4.66263 -0.725854 0
0 0 0

0.0140824 -4.22969 0
4.79763 -0.506973 0
0 0 0

0.276745 -3.32422 0
4.77488 -0.375866 0
0 0 0

0.314428 -3.40109 0
5.00325 -0.84166 0
0 0 0

-0.0104278 -4.20681 0
4.70573 0.0548278 0
0 0 0

0.334098 -3.34426 0
5.12246 -0.497312 0
0 0 0

0.161722 -4.66707 0
5.3433 0.311394 0
0 0 0

-0.0382933 -4.37722 0
4.14529 0.225928 0
0 0 0

-0.226743 -3.39002 0
4.67429 -0.843206 0
0 0 0

-0.240352 -4.52804 0
5.45341 0.273319 0
0 0 0

-0.821002 -4.69888 0
5.10991 0.855561 0
0 0 0

0.0581278 -4.17498 0
4.60556 0.381115 0
0 0 0

-0.0419371 -4.40853 0
4.93789 -0.148236 0
0 0 0

-0.0357997 -4.66628 0
4.83243 0.0503752 0
0 0 0

-0.163728 -4.6088 0
4.73156 0.0923628 0
0 0 0

-0.250952 -4.00903 0
5.23546 -0.314289 0
0 0 0

-0.404553 -3.37218 0
5.10365 -0.338537 0
0 0 0

-0.191825 -3.45594 0
5.1603 -0.596904 0
0 0 0

-0.451954 -3.50766 0
5.02765 -0.555774 0
0 0 0

-0.423996 -3.66906 0
4.9984 -0.0675468 0
0 0 0

-0.0079836 -4.99303 0
5.52969 0.497737 0
0 0 0

-0.454012 -4.35802 0
5.17755 1.77404 0
0 0 0

-0.0142507 -4.68037 0
6.54322 1.72337 0
0 0 0

-0.359645 -4.94524 0
5.47599 0.353627 0
0 0 0

-1.108 -5.52942 0
4.79945 -0.0428669 0
0 0 0

0.393125 -5.69533 0
7.25964 -1.1351 0
0 0 0

0.354976 -6.20773 0
4.8271 -1.49206 0
0 0 0

SCALARS active double 1
LOOKUP_TABLE default
1
1
1
1
1
1
1
1
1
1
1
1
1
1
1
1
1
1
1
1
1
1
1
1
1
1
1
1
1
1
1
1
1
1
1
1
1
1
1
1
1
1
1
1
1
1
1
1
1
1
1
1
1
1
1
1
1
1
1
1
1
1
1
1
SCALARS extent double 1
LOOKUP_TABLE default
0.0125
0.0125
0.0125
0.0125
0.0125
0.0125
0.0125
0.0125
0.0125
0.0125
0.0125
0.0125
0.0125
0.0125
0.0125
0.0125
0.0125
0.0125
0.0125
0.0125
0.0125
0.0125
0.0125
0.0125
0.0125
0.0125
0.0125
0.0125
0.0125
0.0125
0.0125
0.0125
0.0125
0.0125
0.0125
0.0125
0.0125
0.0125
0.0125
0.0125
0.0125
0.0125
0.0125
0.0125
0.0125
0.0125
0.0125
0.0125
0.0125
0.0125
0.0125
0.0125
0.0125
0.0125
0.0125
0.0125
0.0125
0.0125
0.0125
0.0125
0.0125
0.0125
0.0125
0.0125
SCALARS pressure double 1
LOOKUP_TABLE default
-309.321
-103.995
505.514
1057.72
-732.422
1067.61
-2272.36
3241.88
368.508
1703.9
-2225.54
1274.36
-947.935
917.335
-2494.06
-1499.05
-2176.51
2771.58
-831.786
-1737.29
-1933.37
-2131.22
14.1257
985.215
-77.185
2693.81
1163.55
-1620.99
319.366
-670.813
-509.992
856.863
554.882
-563.981
-93.9947
1014.33
3308.12
-1547.74
-1325.81
1044.84
-989.3
1251.58
-2322.58
588.58
47.8935
-2013.57
-1461.84
-200.087
-751.846
945.359
74.485
-105.722
-1140.84
1757.76
76.7208
-733.902
153.584
-15.9334
-183.12
379.209
1203.23
-1721.36
-799.133
932.889
SCALARS density double 1
LOOKUP_TABLE default
996.788
998.919
1005.27
1011.06
992.412
1011.16
976.644
1034.29
1003.84
1017.88
977.12
1013.34
990.19
1009.59
974.395
984.531
977.619
1029.24
991.387
982.094
980.094
978.079
1000.15
1010.3
999.198
1028.41
1012.17
983.283
1003.33
993.048
994.71
1008.95
1005.79
994.152
999.023
1010.6
1035
984.032
986.306
1010.93
989.764
1013.1
976.135
1006.14
1000.5
979.277
984.912
997.921
992.211
1009.88
1000.77
998.901
988.205
1018.45
1000.8
992.396
1001.6
999.834
998.097
1003.95
1012.59
982.257
991.723
1009.75
